  104
 
Ta     0.00000     0.00000     0.00000
 F    -0.46342    -7.16962    -0.89914
 F    -1.34721    -4.64303    -0.89914
 F     0.69214    -6.81812     1.42031
 F    -1.85685    -6.22148     1.18463
 F    -0.12265    -4.28997     1.48134
 F     1.26889    -5.21227    -0.59136
Ta    -0.32324    -5.69965     0.27364
Ta     0.34653    -3.47825     6.89631
 F     1.36028    -2.41044     5.71819
 F     1.75983    -4.71410     7.02136
 F    -1.03685    -2.19036     6.73998
 F     0.99420    -2.54856     8.36954
 F    -0.72900    -4.48514     8.04322
 F    -0.37134    -4.36811     5.40855
 F    -1.52880    -0.62333     0.91070
 F     1.11336    -0.94460     1.18683
 F    -1.17358     0.91871    -1.17128
 F    -0.04172    -1.45261    -1.15861
 F     1.46165     0.67368    -0.94643
 F     0.00059     1.50885     1.11534
Ta    -7.22568    -3.07119     4.59420
 F    -6.57045    -2.04570     6.03441
 F    -8.72836    -1.94736     4.45510
 F    -5.68410    -4.15931     4.77514
 F    -6.29801    -2.02644     3.36859
 F    -7.81238    -4.14766     3.18603
 F    -8.10053    -4.17756     5.83162
 N    -0.08970     1.23351     8.64116
 C     1.97115     1.84108     8.24311
 H     2.87495     1.84572     8.02173
 N     1.19168     2.92497     8.57730
 C     1.15601     0.77141     8.30579
 H     1.39344    -0.11448     8.15012
 C    -1.27139     0.37564     8.86526
 H    -2.06315     0.93148     8.91678
 H    -1.37688    -0.22601     8.11218
 C    -0.03682     2.50874     8.81649
 H    -0.74890     3.04882     9.07103
 C     1.65055     4.32907     8.65779
 H     1.02627     4.84022     9.17895
 H     2.51572     4.36064     9.07220
 H     1.70570     4.69805     7.77350
 C    -1.15053    -0.42589    10.12124
 H    -1.92154    -0.98970    10.21534
 H    -1.09387     0.16575    10.87518
 H    -0.36021    -0.96902    10.07997
 N     4.10618    -2.44665     4.07605
 C     2.72011    -3.36487     2.65817
 H     2.17055    -3.53259     1.92623
 N     2.98438    -4.21157     3.71046
 C     3.41900    -2.24168     2.90833
 H     3.43333    -1.47169     2.38649
 C     4.95908    -1.43741     4.73678
 H     5.47020    -1.86406     5.44051
 H     5.58458    -1.07516     4.09043
 C     3.81530    -3.61232     4.54120
 H     4.13806    -3.97316     5.33439
 C     2.42990    -5.57166     3.88727
 H     2.51903    -5.83644     4.80627
 H     1.50213    -5.57441     3.64131
 H     2.91059    -6.18732     3.32955
 C     4.15450    -0.32112     5.32080
 H     4.74460     0.32597     5.71354
 H     3.56681    -0.66830     5.99591
 H     3.63657     0.09661     4.62903
 N    -2.36386    -2.23614     3.54498
 C    -2.29889    -0.17783     4.27692
 H    -2.52790     0.66178     4.60461
 N    -1.03279    -0.65180     4.01922
 C    -3.13659    -1.18124     3.95469
 H    -4.06548    -1.16199     4.00168
 C    -2.89476    -3.52325     3.05143
 H    -2.16933    -4.16373     2.98974
 H    -3.54210    -3.86665     3.68644
 C    -1.12390    -1.88951     3.57260
 H    -0.40809    -2.42492     3.31865
 C     0.22839     0.09842     4.20934
 H     0.92769    -0.31721     3.69972
 H     0.11054     1.00350     3.91240
 H     0.46497     0.09508     5.13948
 C    -3.54445    -3.38454     1.71233
 H    -3.90063    -4.23350     1.44105
 H    -2.89476    -3.09087     1.06942
 H    -4.25532    -2.74184     1.76609
 N    -3.13463    -1.63019    -3.59890
 C    -3.87438    -3.37785    -2.51490
 H    -3.99961    -4.05437    -1.88928
 N    -4.62528    -3.14106    -3.64368
 C    -2.92043    -2.42796    -2.50552
 H    -2.24330    -2.33131    -1.87500
 C    -2.27494    -0.49444    -3.99018
 H    -2.71973     0.01684    -4.68374
 H    -2.14761     0.08836    -3.22576
 C    -4.13659    -2.08638    -4.26701
 H    -4.46308    -1.73020    -5.06078
 C    -5.79085    -3.93529    -4.09111
 H    -5.95500    -3.76603    -5.02164
 H    -5.61041    -4.86920    -3.96262
 H    -6.56326    -3.68528    -3.57924
 C    -0.94152    -0.94791    -4.49108
 H    -0.40443    -0.18224    -4.70664
 H    -1.06019    -1.48605    -5.27721
 H    -0.50304    -1.46522    -3.81180
