   90
 
Hg     0.00000     0.00000     0.00000
Br    -0.59235    -2.33030     0.85318
 O    -1.14439     1.98960     1.01360
 O    -2.56512     0.03387    -0.80715
 O    -1.81917    -2.08962    -3.35362
 C    -2.54882     1.57433     1.04830
 C    -2.93271     1.39791    -0.42796
 C    -2.93591    -0.29394    -2.19870
 C    -2.80416    -1.81278    -2.32367
 C    -0.77256    -3.02646    -2.99895
 C    -0.52087     2.24245     2.31818
 H    -2.64096     0.62007     1.63514
 H    -3.12182     2.41263     1.50718
 H    -2.35706     2.10551    -1.07825
 H    -4.03881     1.49509    -0.55862
 H    -3.99038     0.03290    -2.35632
 H    -2.22528     0.23338    -2.87516
 H    -3.74355    -2.25726    -2.72936
 H    -2.52695    -2.26794    -1.34422
 H    -0.75095    -3.21486    -1.90175
 H    -1.00242    -3.95148    -3.57192
 H    -0.70801     1.37327     2.99884
 H    -0.96155     3.18753     2.71645
Br     0.98996     1.29326    -2.19098
 O     1.51962    -2.94542    -2.47181
 O     2.67004    -0.75113    -0.31388
 O     1.50947     1.09149     1.80509
 C     0.56155    -2.40219    -3.42530
 C     0.96488     2.43818     1.98913
 C     2.69841    -2.13202    -2.26287
 C     2.98953    -2.10797    -0.75677
 C     3.17651    -0.42872     1.02576
 C     2.86864     1.05506     1.23630
 H     0.51429    -1.28874    -3.35412
 H     0.89629    -2.74064    -4.42650
 H     1.11077     3.04523     1.04856
 H     1.49910     2.88625     2.85444
 H     2.53539    -1.09144    -2.64121
 H     3.49306    -2.67378    -2.81968
 H     2.31307    -2.81171    -0.22109
 H     4.06808    -2.28913    -0.54995
 H     4.28171    -0.59478     1.03971
 H     2.65605    -1.08400     1.77431
 H     3.54661     1.49520     2.00113
 H     2.89463     1.63394     0.27168
Hg    -7.46968    -1.09732    -0.82729
Br    -6.67392     1.21814    -1.54565
 O    -7.94392    -2.85046    -2.55818
 O    -9.70085    -0.44521    -2.11047
 O   -10.66909     1.81489     0.33321
 C    -8.69284    -2.08682    -3.55963
 C    -9.98993    -1.67479    -2.84809
 C   -10.83877     0.04308    -1.30455
 C   -10.58224     1.53621    -1.08638
 C    -9.48536     2.36139     0.95928
 C    -6.65365    -3.38987    -3.00634
 H    -8.07852    -1.20219    -3.88404
 H    -8.90904    -2.78497    -4.40096
 H   -10.30812    -2.45978    -2.11746
 H   -10.78652    -1.42951    -3.59424
 H   -11.77870    -0.11954    -1.87867
 H   -10.82940    -0.51622    -0.33986
 H   -11.41433     2.14786    -1.51183
 H    -9.59763     1.83539    -1.51360
 H    -8.63779     2.42462     0.24162
 H    -9.80297     3.36927     1.31252
 H    -6.05563    -2.58027    -3.49680
 H    -6.87397    -4.22818    -3.70932
Br    -8.80975    -2.35426     1.21997
 O    -7.64393     1.60094     2.21135
 O    -5.84729    -0.99669     1.41036
 O    -5.46898    -2.73609    -1.04100
 C    -9.09045     1.44436     2.12321
 C    -6.00433    -3.91756    -1.72066
 C    -6.95595     0.51662     2.88268
 C    -5.64553     0.26409     2.12385
 C    -4.61921    -1.59837     0.87658
 C    -5.04442    -2.97141     0.35099
 H    -9.36091     0.38507     1.90143
 H    -9.50310     1.78339     3.09472
 H    -6.75008    -4.44191    -1.05577
 H    -5.13845    -4.57328    -1.95928
 H    -7.58387    -0.41058     2.88675
 H    -6.76669     0.90919     3.90482
 H    -5.47097     1.06300     1.36791
 H    -4.78890     0.12722     2.82129
 H    -3.88459    -1.71734     1.71052
 H    -4.21353    -0.93745     0.06601
 H    -4.17901    -3.66934     0.31207
 H    -5.90055    -3.40308     0.93979
