   96
 
 O     0.00000     0.00000     0.00000
Br     4.32481     3.27940    -4.54072
 O     6.80319     0.64976    -3.35998
 C     6.81669     1.46966    -2.18916
 C     6.63321     0.52826    -1.00124
 O     5.31039     0.56436    -0.50401
 C     4.36627    -0.19908    -1.23234
 C     3.29383     0.79169    -1.70435
 O     2.76670     0.24127    -2.91698
 C     1.46959     0.77729    -3.21828
 C     7.57481     1.21409    -4.41634
Br     4.94022    -2.36569    -4.79114
 O     1.82992     0.63117    -5.51131
 C     1.50847     0.14158    -6.81685
 C     2.44069     0.93255    -7.73176
 O     3.72996     0.41409    -7.39057
 C     1.02981     0.04317    -4.47762
 O     6.19660     0.80360    -6.26011
 C     6.03775     0.29287    -7.59298
 C     4.80374     1.01336    -8.12325
 C     7.37418     0.29293    -5.61266
Pb     4.19750     0.45717    -4.99595
 O     8.91040     0.97173    -9.09060
Pb     1.88549    -5.33992     0.31481
Br     0.81624    -7.57070    -1.24340
 O     3.00717    -7.69120     1.79840
 C     1.82288    -8.08569     2.48344
 C     1.31227    -6.82245     3.16471
 O     0.54307    -6.15228     2.15347
 C    -0.26869    -5.10382     2.70571
 C    -1.00669    -4.52719     1.50259
 O     0.02811    -3.84503     0.78793
 C    -0.44098    -3.09422    -0.33920
 C     3.59300    -8.76872     1.06798
Br     3.74733    -4.00886     2.01575
 O     1.51231    -3.69533    -1.43840
 C     2.72442    -3.39325    -2.13817
 C     3.22850    -4.75774    -2.59190
 O     3.78331    -5.34083    -1.40742
 C     0.84502    -2.52921    -0.93217
 O     5.52269    -8.12461    -0.24390
 C     5.47491    -6.74127    -0.54372
 C     4.47034    -6.56545    -1.68870
 C     5.09579    -8.48893     1.05170
 H     0.25131     0.86024     0.33211
 H    -0.76004     0.17550    -0.57222
 H     7.77408     2.01734    -2.10110
 H     5.99205     2.19903    -2.27726
 H     6.94155    -0.50589    -1.23822
 H     7.20704     0.88192    -0.11929
 H     4.81848    -0.75314    -2.07191
 H     3.96663    -0.92245    -0.49600
 H     3.72668     1.78427    -1.92511
 H     2.48579     0.89377    -0.95782
 H     1.54593     1.87013    -3.37242
 H     0.78591     0.57280    -2.37029
 H     8.63672     1.25330    -4.10551
 H     7.22405     2.24133    -4.63642
 H     1.69499    -0.94911    -6.85984
 H     0.44346     0.35520    -7.02360
 H     2.24548     0.73292    -8.80089
 H     2.40152     2.02521    -7.54357
 H     1.22508    -1.04283    -4.42627
 H    -0.03760     0.22788    -4.71013
 H     6.94195     0.54386    -8.18583
 H     5.90669    -0.80716    -7.56255
 H     4.65766     0.81305    -9.20204
 H     4.82508     2.10230    -7.93431
 H     8.22194     0.35286    -6.32294
 H     7.20865    -0.75860    -5.32308
 H     9.24342     1.73651    -8.60679
 H     9.40970     0.22878    -8.73050
 H     2.07784    -8.86964     3.22222
 H     1.08628    -8.48384     1.76118
 H     2.12591    -6.15693     3.50349
 H     0.64299    -7.06173     4.01542
 H     0.37803    -4.35083     3.20138
 H    -0.96713    -5.54909     3.44374
 H    -1.45805    -5.29965     0.85438
 H    -1.77915    -3.80069     1.81734
 H    -0.98617    -3.75283    -1.04105
 H    -1.10500    -2.28674     0.02464
 H     3.36990    -9.73960     1.54584
 H     3.15809    -8.76573     0.05162
 H     3.43084    -2.88624    -1.45649
 H     2.48399    -2.73257    -2.99284
 H     4.01336    -4.67058    -3.36617
 H     2.41409    -5.40341    -2.97071
 H     1.47922    -2.03313    -0.17143
 H     0.64943    -1.82876    -1.76375
 H     6.50827    -6.50429    -0.86109
 H     5.21200    -6.11957     0.32913
 H     4.98203    -6.49473    -2.66795
 H     3.73117    -7.38557    -1.71554
 H     5.68960    -9.40809     1.22952
 H     5.38135    -7.73479     1.80951
