  136
 
 N     0.00000     0.00000     0.00000
 O     8.66399     3.65220     4.91078
 O    10.00055     6.54123     1.83755
 O     8.17966     6.26654     3.10020
 O    11.48572     8.62905     5.74425
 O    12.40894     7.78452     7.58803
 O    11.46902     5.81039     4.02712
 N     6.77918     5.38306     0.70350
 N     8.13980     7.01904    -0.21068
 N     8.30042     1.62046     5.85354
 N     9.34002     0.62880     7.67156
 C     6.08243     3.14645     1.62867
 C     7.04218     3.44982     2.78875
 C     7.09352     2.23900     3.74972
 C     5.68743     1.99007     4.32095
 C     4.72142     1.69479     3.15702
 C     5.20087     0.44759     2.39393
 C     6.61149     0.69541     1.83245
 C     6.57379     1.89235     0.86955
 C     4.67268     2.89720     2.19707
 C     7.58180     0.99076     2.99174
 C     5.98118     4.24468     0.56453
 C     6.95946     6.34278    -0.31099
 C     6.03355     6.60627    -1.33595
 C     6.35585     7.57454    -2.28020
 C     7.57553     8.24610    -2.19924
 C     8.43750     7.94630    -1.14215
 C     8.07864     2.58876     4.87168
 C     9.18903     1.76580     6.93125
 C     9.86757     2.95377     7.26839
 C    10.70007     2.95346     8.38120
 C    10.85568     1.79176     9.13642
 C    10.16075     0.64811     8.74028
 C     9.38525     6.32790     2.98394
 C    10.34240     6.18991     4.17476
 C     9.68733     6.52975     5.47648
 C    10.67013     6.53218     6.63814
 C    11.54102     7.74930     6.57945
 H     6.71266     4.34878     3.35094
 H     8.06175     3.67251     2.42149
 H     5.33933     2.86480     4.89890
 H     5.68769     1.13668     5.02587
 H     3.69906     1.50793     3.56185
 H     4.49571     0.21045     1.57505
 H     5.20541    -0.43191     3.06061
 H     6.95856    -0.21296     1.28509
 H     7.57239     2.06993     0.43422
 H     5.89461     1.67450     0.02052
 H     3.94821     2.69566     1.38024
 H     4.30062     3.79366     2.72329
 H     7.62585     0.11135     3.66404
 H     8.60704     1.13750     2.60925
 H     5.08017     6.07674    -1.37662
 H     5.64883     7.81696    -3.07904
 H     7.86363     8.97251    -2.95755
 H     9.41478     8.44393    -1.02671
 H     9.74363     3.85332     6.66953
 H    11.23155     3.86371     8.66959
 H    11.48269     1.77867    10.02730
 H    10.24603    -0.30171     9.29026
 H     8.86645     5.78499     5.65111
 H     9.17469     7.51794     5.39423
 H    11.31410     5.61990     6.62398
 H    10.14072     6.50063     7.61887
 H     7.78418     0.72086     5.79373
 H     7.26489     5.57196     1.59130
 H    13.06535     8.57595     7.56225
 H     9.35071     6.69516     1.03005
 O     5.28225     4.11079    -0.41778
 O     1.50120     1.26902     1.11948
 O    -1.88349     1.73029    -4.20664
 O    -3.21828    -1.15691    -1.13662
 O    -1.39730    -0.88710    -2.39984
 O    -4.71234    -3.24087    -5.03531
 O    -5.62379    -2.40795    -6.89031
 O    -4.68646    -0.42347    -3.32520
 N    -1.36083    -1.63664     0.91183
 N    -1.52021     3.76237    -5.14896
 N    -2.56010     4.75333    -6.96778
 C     0.69879     2.23557    -0.92502
 C    -0.26128     1.93248    -2.08478
 C    -0.31281     3.14337    -3.04553
 C     1.09315     3.39261    -3.61684
 C     2.05930     3.68795    -2.45285
 C     1.57948     4.93473    -1.68922
 C     0.16891     4.68647    -1.12773
 C     0.20700     3.48913    -0.16531
 C     2.10842     2.48500    -1.49371
 C    -0.80123     4.39135    -2.28709
 C     0.80028     1.13682     0.13846
 C    -0.17985    -0.96063     1.01349
 C     0.74512    -1.22592     2.03831
 C     0.42262    -2.19693     2.98029
 C    -0.79686    -2.86769     2.89760
 C    -1.65894    -2.56552     1.84081
 C    -1.29801     2.79368    -4.16739
 C    -2.40892     3.61652    -6.22645
 C    -3.08680     2.42849    -6.56344
 C    -3.91929     2.42806    -7.67650
 C    -4.07509     3.58895    -8.43234
 C    -3.38065     4.73338    -8.03617
 C    -2.60311    -0.94561    -2.28341
 C    -3.56095    -0.80580    -3.47359
 C    -2.90761    -1.14645    -4.77608
 C    -3.89156    -1.14935    -5.93675
 C    -4.76208    -2.36664    -5.87663
 H     0.06770     1.03348    -2.64713
 H    -1.28095     1.71017    -1.71736
 H     1.44143     2.51778    -4.19474
 H     1.09261     4.24584    -4.32178
 H     3.08155     3.87532    -2.85776
 H     2.28457     5.17179    -0.87023
 H     1.57466     5.81433    -2.35580
 H    -0.17850     5.59448    -0.57997
 H    -0.79172     3.31097     0.26960
 H     0.88599     3.70686     0.68395
 H     2.83317     2.68599    -0.67688
 H     2.48008     1.58875    -2.02038
 H    -0.84534     5.27089    -2.95927
 H    -1.82650     4.24431    -1.90496
 H     1.69820    -0.69591     2.08082
 H     1.12927    -2.44115     3.77871
 H    -1.08518    -3.59603     3.65406
 H    -2.63689    -3.06200     1.72488
 H    -2.96257     1.52880    -5.96472
 H    -4.45035     1.51761    -7.96463
 H    -4.70202     3.60184    -9.32311
 H    -3.46612     5.68298    -8.58663
 H    -2.08679    -0.40171    -4.95179
 H    -2.39523    -2.13481    -4.69397
 H    -4.53639    -0.23757    -5.92171
 H    -3.36360    -1.11726    -6.91819
 H    -1.00540     4.66283    -5.08810
 H    -0.48557    -0.18814    -0.88797
 H    -6.28198    -3.19783    -6.86238
 H    -2.56868    -1.31167    -0.32879
