  256
 
 O     0.00000     0.00000     0.00000
 C    -6.22988     2.69628    -4.69668
 H    -6.75191     3.65698    -4.65668
 C    -6.28364     0.27267    -4.49889
 C    -8.91540     2.68433    -3.89637
 H    -8.44689     3.25432    -3.08189
 H    -9.91573     2.35424    -3.58758
 H    -8.95444     3.26861    -4.82533
 C    -7.00025    -0.99659    -4.26638
 C    -6.17617    -2.09401    -3.69918
 C    -6.73761    -3.06418    -2.87940
 H    -7.81037    -3.03912    -2.64958
 C    -5.92416    -4.07060    -2.35259
 H    -6.35154    -4.82022    -1.68318
 O    -8.24625     1.44113    -4.10807
 O    -8.16091    -1.16630    -4.55474
 C    -4.22260     1.40821    -5.07748
 C    -4.89297     2.64949    -5.01477
 H    -4.34850     3.57425    -5.23021
 C    -4.91295     0.22425    -4.82436
 C    -2.14482     2.45877    -5.49690
 H    -2.16761     3.03850    -4.56324
 H    -1.13375     2.06691    -5.66613
 H    -2.48933     3.05988    -6.34938
 C    -4.26014    -1.09641    -4.92050
 C    -4.81655    -2.14409    -4.02604
 C    -4.01743    -3.16840    -3.53555
 H    -2.95915    -3.22473    -3.81905
 C    -4.57359    -4.12278    -2.67989
 H    -3.94523    -4.91597    -2.26924
 O    -2.91297     1.26059    -5.37928
 O    -3.37028    -1.34135    -5.70011
 C    -6.93541     1.50254    -4.43205
 C     3.47526    -2.71236    -1.72494
 C     2.60919    -3.72383    -2.19370
 H     3.00625    -4.54008    -2.80365
 C     2.97711    -1.66585    -0.95080
 C     5.38025    -3.78462    -2.63946
 H     5.22018    -4.71269    -2.07412
 H     6.44748    -3.52714    -2.63075
 H     4.99849    -3.86715    -3.66575
 C     3.84962    -0.57894    -0.46450
 C     3.43211     0.04263     0.81803
 C     4.36650     0.58585     1.68988
 H     5.43396     0.57112     1.43523
 C     3.93295     1.15093     2.89199
 H     4.66345     1.55615     3.59555
 O     4.80302    -2.66171    -1.97357
 O     4.80940    -0.17588    -1.07741
 C     0.75341    -2.61602    -1.11549
 C     1.26770    -3.67637    -1.89314
 H     0.59452    -4.45529    -2.26435
 C     1.60252    -1.61674    -0.64268
 C    -1.42390    -3.54589    -1.12740
 H    -1.10486    -4.49042    -0.66508
 H    -2.37303    -3.21653    -0.68495
 H    -1.50504    -3.63873    -2.21905
 C     1.09896    -0.47849     0.15114
 C     2.06690     0.09313     1.12243
 C     1.63392     0.68873     2.29960
 H     0.56111     0.75470     2.52144
 C     2.57665     1.20199     3.19423
 H     2.24564     1.64896     4.13402
 O    -0.54753    -2.47504    -0.77586
 C     0.40059     1.40809    -3.24724
 C     1.07080     0.16624    -3.29923
 H     0.52300    -0.75705    -3.08625
 C     1.09361     2.59111    -3.49821
 C    -1.68078     0.35429    -2.85399
 H    -1.62573    -0.23805    -3.77812
 H    -2.69829     0.74470    -2.72544
 H    -1.36262    -0.23131    -1.98128
 C     0.44016     3.91274    -3.42164
 C     1.01131     4.95801    -4.30984
 C     0.22131     5.98418    -4.81131
 H    -0.84014     6.04585    -4.54044
 C     0.79043     6.93615    -5.66132
 H     0.16756     7.72815    -6.08318
 O    -0.91258     1.55356    -2.96093
 O    -0.46378     4.16176    -2.65967
 C     3.11966     1.31014    -3.86286
 C     2.41052     0.11744    -3.60433
 H     2.93183    -0.84370    -3.63759
 C     2.46815     2.54048    -3.80746
 C     5.09739     0.12244    -4.38832
 H     4.63108    -0.43717    -5.21095
 H     6.10258     0.44768    -4.68552
 H     5.12499    -0.47162    -3.46569
 C     3.19039     3.80697    -4.03860
 C     2.37538     4.90492    -4.61737
 C     2.95023     5.87414    -5.42902
 H     4.02622     5.84696    -5.64371
 C     2.14560     6.88100    -5.96881
 H     2.58404     7.62864    -6.63360
 O     4.43492     1.36781    -4.16950
 O     4.34932     3.97310    -3.74044
 C    -2.22550     2.63947     3.73588
 C    -2.72888     3.69301     4.53053
 H    -2.04901     4.46487     4.90526
 C    -3.07989     1.64201     3.26879
 C    -0.05551     3.58399     3.71381
 H    -0.39511     4.52992     3.26921
 H     0.88411     3.27000     3.24122
 H     0.05211     3.66778     4.80384
 C    -2.58616     0.50478     2.46703
 C    -3.56246    -0.06206     1.50135
 C    -3.14169    -0.64615     0.31354
 H    -2.07099    -0.72228     0.08521
 C    -4.09430    -1.12982    -0.58691
 H    -3.77333    -1.55939    -1.53812
 O    -0.92959     2.50692     3.37486
 O    -1.48624     0.02483     2.60631
 C    -4.94117     2.73951     4.36930
 C    -4.06738     3.74283     4.84252
 H    -4.45589     4.55484     5.46480
 C    -4.45214     1.69341     3.58870
 C    -6.83589     3.83298     5.27329
 H    -6.66472     4.75348     4.69778
 H    -7.90570     3.58669     5.26542
 H    -6.45185     3.92224     6.29841
 C    -5.33257     0.61260     3.10341
 C    -4.92518    -0.00593     1.81590
 C    -5.86885    -0.52791     0.94094
 H    -6.93461    -0.50959     1.20312
 C    -5.44834    -1.06916    -0.27649
 H    -6.18773    -1.44743    -0.98565
 O    -6.26874     2.69743     4.62019
 O    -6.29506     0.21631     3.71637
 O    -0.48167    -6.63522    -1.52753
 C    -6.74782    -3.93616    -6.28570
 H    -7.27179    -2.97594    -6.26484
 C    -6.79702    -6.35690    -6.05105
 C    -9.42290    -3.93387    -5.46451
 H    -8.94480    -3.35627    -4.66105
 H   -10.42252    -4.25598    -5.14518
 H    -9.46610    -3.35625    -6.39737
 C    -7.51417    -7.62431    -5.81168
 C    -6.69236    -8.72284    -5.24413
 C    -7.25943    -9.69599    -4.43173
 H    -8.33298    -9.66916    -4.20532
 C    -6.45073   -10.70726    -3.90785
 H    -6.88552   -11.46050    -3.24811
 O    -8.76032    -5.18207    -5.67020
 O    -8.67571    -7.79300    -6.09901
 C    -4.73531    -5.22454    -6.63426
 C    -5.41022    -3.98448    -6.59940
 H    -4.86796    -3.06199    -6.83066
 C    -5.42464    -6.40685    -6.37117
 C    -2.65636    -4.16985    -7.03287
 H    -2.72313    -3.56134    -6.11973
 H    -1.63648    -4.55968    -7.14510
 H    -2.96920    -3.59842    -7.91732
 C    -4.76827    -7.72655    -6.45430
 C    -5.33107    -8.77390    -5.56422
 C    -4.53625    -9.80149    -5.07350
 H    -3.47648    -9.85977    -5.35122
 C    -5.09842   -10.75971    -4.22702
 H    -4.47093   -11.55534    -3.81987
 O    -3.42122    -5.37029    -6.91534
 O    -3.87168    -7.97340    -7.22551
 C    -7.45050    -5.12712    -5.99984
 C     2.98369    -9.34181    -3.27360
 C     2.11142   -10.33986    -3.75914
 H     2.50288   -11.14540    -4.38745
 C     2.49349    -8.30281    -2.48396
 C     4.87499   -10.42417    -4.19988
 H     4.71209   -11.35197    -3.63426
 H     5.94347   -10.17469    -4.20027
 H     4.48345   -10.50198    -5.22286
 C     3.37016    -7.22045    -1.99494
 C     2.95120    -6.57759    -0.72320
 C     3.88448    -6.00344     0.13066
 H     4.95183    -6.02106    -0.12491
 C     3.45015    -5.39880     1.31261
 H     4.17956    -4.96320     1.99883
 O     4.31103    -9.29984    -3.52457
 O     4.33746    -6.82760    -2.60322
 C     0.26637    -9.24338    -2.65443
 C     0.77213   -10.29223    -3.45261
 H     0.09374   -11.06109    -3.83471
 C     1.11926    -8.25171    -2.17259
 C    -1.90980   -10.17302    -2.67712
 H    -1.59553   -11.12315    -2.22337
 H    -2.86009    -9.84764    -2.23596
 H    -1.98586   -10.25371    -3.76997
 C     0.61845    -7.11258    -1.37795
 C     1.58691    -6.52421    -0.41736
 C     1.15332    -5.89564     0.74301
 H     0.08119    -5.82846     0.96685
 C     2.09430    -5.34529     1.61660
 H     1.76273    -4.86661     2.54040
 O    -1.03281    -9.10918    -2.30625
 C    -0.10782    -5.17671    -4.79067
 C     0.56352    -6.41827    -4.83505
 H     0.01721    -7.34120    -4.61713
 C     0.58250    -3.99374    -5.04975
 C    -2.18461    -6.23094    -4.37565
 H    -2.14606    -6.82852    -5.29727
 H    -3.19996    -5.84146    -4.23004
 H    -1.85099    -6.81248    -3.50603
 C    -0.07247    -2.67292    -4.97294
 C     0.49595    -1.62565    -5.86027
 C    -0.29658    -0.59836    -6.35640
 H    -1.35785    -0.53969    -6.08411
 C     0.26954     0.35567    -7.20562
 H    -0.35331     1.15090    -7.62016
 O    -1.42104    -5.03103    -4.50480
 O    -0.97584    -2.42577    -4.20962
 C     2.60781    -5.27437    -5.41337
 C     1.90284    -6.46674    -5.14173
 H     2.42578    -7.42724    -5.16937
 C     1.95572    -4.04402    -5.36380
 C     4.58852    -6.46180    -5.92707
 H     4.11483    -7.04826    -6.72644
 H     5.58503    -6.13573    -6.25087
 H     4.63726    -7.02714    -4.98733
 C     2.67629    -2.77819    -5.60344
 C     1.85823    -1.67904    -6.17521
 C     2.42867    -0.70940    -6.98978
 H     3.50278    -0.73753    -7.21287
 C     1.62240     0.29956    -7.52200
 H     2.05862     1.04771    -8.18731
 O     3.91990    -5.21613    -5.73172
 O     3.83767    -2.61154    -5.31446
 C    -2.71229    -3.91717     2.17619
 C    -3.22133    -2.86542     2.96916
 H    -2.54316    -2.09433     3.34835
 C    -3.56334    -4.91778     1.70978
 C    -0.55088    -2.95507     2.15122
 H    -0.89578    -2.02039     1.68729
 H     0.39760    -3.26720     1.69661
 H    -0.45600    -2.84956     3.24009
 C    -3.06644    -6.06236     0.91975
 C    -4.03850    -6.64291    -0.04233
 C    -3.61321    -7.24795    -1.21800
 H    -2.54197    -7.31977    -1.44509
 C    -4.56094    -7.76458    -2.10489
 H    -4.23542    -8.21864    -3.04306
 O    -1.41411    -4.04387     1.82027
 O    -1.96891    -6.54473     1.07013
 C    -5.43132    -3.82198     2.80207
 C    -4.56060    -2.81771     3.27696
 H    -4.95310    -2.00760     3.89826
 C    -4.93692    -4.86871     2.02611
 C    -7.32761    -2.73346     3.70987
 H    -7.16736    -1.81276     3.13262
 H    -8.39586    -2.98424     3.71357
 H    -6.93573    -2.63907     4.73120
 C    -5.81240    -5.95790     1.54921
 C    -5.40164    -6.58918     0.26917
 C    -6.34123    -7.13600    -0.59509
 H    -7.40706    -7.11861    -0.33428
 C    -5.91583    -7.70821    -1.79626
 H    -6.65138    -8.11543    -2.49299
 O    -6.75971    -3.86456     3.04956
 O    -6.77059    -6.35780     2.16677
