  136
 
As     0.00000     0.00000     0.00000
Cl     2.26743    -0.50993    -0.19205
 C    -1.20325     3.04964    -0.05604
 C    -2.44789     2.30591    -0.46227
 C    -2.63687     0.75857     1.98643
 C    -1.74462    -0.23554     2.68251
 S     0.31652     2.21104    -0.61611
 S    -2.51996     0.56709     0.15188
 S     0.01821     0.07167     2.31749
As     4.28197     3.61764    -5.66781
Cl    -0.64719     4.37581    -5.65532
 C     3.07075     6.64359    -5.67484
 C     1.82839     5.90751    -6.09899
 C     1.61506     4.30914    -3.66603
 C     2.55819     3.36457    -2.96757
 S     4.58195     5.83019    -6.28579
 S     1.75353     4.16235    -5.50315
 S     4.30521     3.73493    -3.35224
As     1.88952     9.89759    -2.49204
Cl     1.09755    -9.03193    -7.47622
 C    -0.31720     7.47349    -2.31496
 C    -1.13853     8.61540    -1.77966
 C    -0.95455    10.08893    -4.28797
 C     0.14309    10.77584    -5.05478
 S     1.45809     7.68370    -1.95780
 S    -0.67275    10.26117    -2.46882
 S     1.75754     9.95590    -4.80493
As     4.75370     4.85382     3.04678
Cl    -3.22831   -12.80272    -1.73491
 C     2.56163     2.42617     3.08960
 C     1.69347     3.54172     3.60215
 C     1.91794     5.16460     1.20402
 C     3.07315     5.77675     0.45640
 S     4.30711     2.64174     3.58078
 S     2.19692     5.22108     3.02946
 S     4.63561     4.87082     0.72971
As    -1.94946     0.96949    -4.81481
Cl    -4.21696     1.47954    -4.62530
 C    -0.74487    -2.07975    -4.74090
 C     0.49959    -1.33227    -4.33963
 C     0.68436     0.19870    -6.79944
 C    -0.20535     1.19097    -7.49952
 S    -2.26545    -1.23832    -4.18753
 S     0.57124     0.40197    -4.96603
 S    -1.96906     0.88658    -7.13218
As    -6.23286    -2.64889     0.85243
Cl    -1.30375    -3.40888     0.83745
 C    -5.02282    -5.67464     0.86566
 C    -3.77896    -4.93876     1.28598
 C    -3.56687    -3.34374    -1.15043
 C    -4.51123    -2.40156    -1.84955
 S    -6.53230    -4.85903     1.47745
 S    -3.70425    -3.19471     0.68665
 S    -6.25729    -2.77349    -1.46293
As    -3.84887    -8.92669    -2.32416
Cl    -6.16161    -8.64756    -2.40085
 C    -1.63929    -6.49901    -2.51048
 C    -0.81759    -7.64263    -3.04160
 C    -0.99960    -9.10907    -0.53013
 C    -2.09512    -9.79529     0.23914
 S    -3.41518    -6.71274    -2.86420
 S    -1.28555    -9.28605    -2.34801
 S    -3.71223    -8.98021    -0.01166
As    -6.70537    -3.87904    -7.86562
Cl    -1.82870    -4.87846    -8.14561
 C    -4.50953    -1.45348    -7.91605
 C    -3.63959    -2.57180    -8.42381
 C    -3.86405    -4.19063    -6.02554
 C    -5.02124    -4.79525    -5.27468
 S    -6.25435    -1.66974    -8.41009
 S    -4.14884    -4.24844    -7.85075
 S    -6.58032    -3.88313    -5.54814
 H    -1.14220     3.20824     1.04798
 H    -1.18864     4.05530    -0.56395
 H    -2.53116     2.21408    -1.57966
 H    -3.34477     2.86198    -0.08345
 H    -2.36161     1.80809     2.26713
 H    -3.70066     0.57286     2.28466
 H    -1.99966    -1.29292     2.41873
 H    -1.83566    -0.11210     3.79853
 H     3.14245     6.75620    -4.56662
 H     3.07835     7.67086    -6.13473
 H     1.75371     5.82160    -7.21878
 H     0.93050     6.46414    -5.72342
 H     1.80471     5.37001    -3.36965
 H     0.56155     4.03601    -3.38590
 H     2.34140     2.29373    -3.21724
 H     2.47348     3.49184    -1.85380
 H    -0.45115     7.32606    -3.41399
 H    -0.61843     6.52128    -1.79404
 H    -1.02300     8.72893    -0.66836
 H    -2.21969     8.41602    -2.00428
 H    -1.03103     9.00628    -4.56062
 H    -1.93226    10.58187    -4.53427
 H     0.23626    11.85932    -4.78475
 H    -0.06056    10.69696    -6.15818
 H     2.50553     2.31693     1.97840
 H     2.24052     1.45261     3.55509
 H     1.72797     3.61247     4.72615
 H     0.63406     3.35064     3.28649
 H     1.73896     4.10481     0.88823
 H     0.99288     5.76358     0.98985
 H     3.22341     6.85317     0.72728
 H     2.89099     5.71078    -0.65155
 H    -0.75869    -3.08169    -4.22651
 H    -0.80543    -2.24529    -5.84370
 H     1.39629    -1.89102    -4.71487
 H     0.58296    -1.23253    -3.22317
 H     1.74836     0.38084    -7.10118
 H     0.40852    -0.85208    -7.07367
 H    -0.11588     1.06310    -8.61492
 H     0.05021     2.24957    -7.23965
 H    -5.03015    -6.70224     1.32402
 H    -5.09671    -5.78622    -0.24375
 H    -2.88218    -5.49685     0.90958
 H    -3.70195    -4.85073     2.40506
 H    -2.51369    -3.07051    -1.43149
 H    -3.75584    -4.40575    -1.44500
 H    -4.42707    -2.53049    -2.96312
 H    -4.29581    -1.32996    -1.60260
 H    -1.33970    -5.54901    -3.03633
 H    -1.50412    -6.34618    -1.41216
 H     0.26346    -7.44369    -2.81646
 H    -0.93202    -7.75904    -4.15261
 H    -0.02130    -9.60029    -0.28414
 H    -0.92332    -8.02536    -0.25996
 H    -1.89051    -9.71221     1.34256
 H    -2.18619   -10.88014    -0.02699
 H    -4.18679    -0.48186    -8.38347
 H    -4.45486    -1.34087    -6.80539
 H    -2.58173    -2.38184    -8.10338
 H    -3.67019    -2.64329    -9.54704
 H    -2.94236    -4.79522    -5.81275
 H    -3.67812    -3.13286    -5.71227
 H    -4.83734    -4.72673    -4.16732
 H    -5.17692    -5.87187    -5.54254
