  112
 
Br     0.00000     0.00000     0.00000
Br     4.80931    -6.30909    -4.42217
Br     1.87320    -2.02663    -2.20277
 C     4.56750    -2.64174    -1.50411
 C     5.74390    -3.40923    -1.62801
 C     5.82425    -4.50583    -2.47051
 C     4.71761    -4.82709    -3.25044
 C     3.54672    -4.08077    -3.19934
 C     3.47923    -3.01189    -2.32024
 H     5.15673    -1.42416     0.07101
 H     3.62805    -1.08443    -0.51882
 H     6.73729    -5.10669    -2.51615
 H     2.69834    -4.32840    -3.84414
 N     4.52282    -1.50951    -0.71234
Br     7.27890    -2.92245    -0.63746
Br     0.99436    -5.52595    -1.57854
Br    -1.66014    -2.26688     2.20334
Br    -4.35498    -6.70533     0.00552
 C    -1.69543    -5.95374    -0.70128
 C    -0.56385    -5.12040    -0.58598
 C    -0.54331    -4.01634     0.25079
 C    -1.66480    -3.75156     1.03059
 C    -2.79527    -4.55802     0.98092
 C    -2.80370    -5.63539     0.11024
 H    -1.03672    -7.15308    -2.26080
 H    -2.54488    -7.57156    -1.66875
 H     0.33532    -3.36658     0.28949
 H    -3.65808    -4.34922     1.62083
 N    -1.67484    -7.09644    -1.47899
Br    -2.65790     3.32671    -3.72112
Br     2.68766     4.48122    -2.11923
 C     0.03358     3.73421    -2.84372
 C    -1.09781     2.89932    -2.74015
 C    -1.11640     1.78004    -1.92387
 C     0.00371     1.50571    -1.14507
 C     1.13070     2.31804    -1.17570
 C     1.13882     3.40756    -2.03136
 H    -0.61639     4.94145    -4.40053
 H     0.88959     5.35667    -3.79615
 H    -1.99300     1.12692    -1.89877
 H     1.99181     2.10377    -0.53518
 N     0.01820     4.88021    -3.61789
Br     3.83046     0.98503     1.62676
Br     6.25049     4.44168    -2.13002
Br     9.21221     0.11463    -0.04689
 C     6.53296     0.72414     0.72298
 C     5.35429     1.49233     0.62735
 C     5.26285     2.60406    -0.19411
 C     6.35759     2.93986    -0.98459
 C     7.52909     2.19285    -0.96383
 C     7.60743     1.10676    -0.10685
 H     5.97013    -0.50690     2.29620
 H     7.49297    -0.83486     1.68171
 H     4.34967     3.20549    -0.21387
 H     8.37033     2.45452    -1.61332
 N     6.59327    -0.41297     1.50777
Br     0.01078     0.01055    -4.52505
Br     4.82094    -6.32767    -8.88231
Br     1.85543    -2.05518    -6.68968
 C     4.55750    -2.64021    -5.98994
 C     5.74423    -3.39073    -6.12354
 C     5.82962    -4.49559    -6.95442
 C     4.71928    -4.84024    -7.71903
 C     3.53930    -4.10903    -7.66351
 C     3.46825    -3.03023    -6.79664
 H     5.14780    -1.41468    -4.42305
 H     3.60045    -1.10674    -4.98623
 H     6.74935    -5.08562    -7.00206
 H     2.68672    -4.37684    -8.29519
 N     4.49966    -1.51545    -5.18917
Br     7.28529    -2.87084    -5.15943
Br     1.01026    -5.54898    -5.99113
Br    -1.65866    -2.21498    -2.28866
Br    -4.36848    -6.65759    -4.45566
 C    -1.70103    -5.92835    -5.15915
 C    -0.55785    -5.11293    -5.02766
 C    -0.53506    -4.00257    -4.20007
 C    -1.66462    -3.71535    -3.43998
 C    -2.80228    -4.51096    -3.49412
 C    -2.81124    -5.59637    -4.35497
 H    -1.04162    -7.12149    -6.72232
 H    -2.56850    -7.51785    -6.15616
 H     0.35144    -3.36444    -4.15389
 H    -3.67057    -4.28579    -2.86664
 N    -1.69455    -7.05664    -5.95564
Br    -2.71037     3.36001    -8.17083
Br     2.66851     4.50396    -6.65048
 C    -0.00380     3.77390    -7.33043
 C    -1.13432     2.93919    -7.21280
 C    -1.13969     1.81491    -6.40331
 C    -0.00475     1.53078    -5.64985
 C     1.12245     2.34136    -5.69569
 C     1.11538     3.43893    -6.54128
 H    -0.68053     4.99269    -8.86609
 H     0.83414     5.40781    -8.28283
 H    -2.01684     1.16270    -6.36476
 H     1.99572     2.11868    -5.07484
 N    -0.03230     4.92627    -8.09441
Br     3.76935     0.97321    -2.86799
Br     6.24421     4.46628    -6.54946
Br     9.18837     0.13573    -4.45629
 C     6.48807     0.71906    -3.73515
 C     5.30807     1.48373    -3.84215
 C     5.22702     2.60340    -4.65372
 C     6.33563     2.95313    -5.41851
 C     7.51027     2.21232    -5.38239
 C     7.57724     1.11623    -4.53744
 H     5.90146    -0.53243    -2.18874
 H     7.43339    -0.85336    -2.78106
 H     4.31198     3.20189    -4.68463
 H     8.36252     2.48678    -6.01165
 N     6.53625    -0.43099    -2.96883
