  108
 
Co     0.00000     0.00000     0.00000
Br    -7.89932    -3.27090     8.62478
Br    -1.74869     1.57313     4.53884
Br   -12.11479    -3.97904     9.08690
Br    -8.99554    -5.06894    10.05480
Co    -1.39223     1.03660     1.84128
Co    -7.50089   -11.89394     9.75256
Br    -8.44335    -5.21888     2.00776
Br   -10.29010    -6.82655     2.32671
Br   -10.61178    -8.73039     0.97396
Br    -6.77116    -7.13670     1.44643
Co    -6.18530   -13.02126     8.03527
Br    -5.22018    -8.74945     0.59339
Br    -3.06680    -9.31464     1.77029
Br    -1.41491    -7.93018     7.63709
Br    -1.83255    -7.12103     1.23820
Br    -0.56328    -5.52906     9.61404
Br     2.27262    -3.16079     8.66360
Br    -0.07688    -2.99939     9.76398
Br    -1.76780    -5.60101     7.25346
 N    -4.41313    -5.78136     1.26703
 H    -3.91728    -6.49830     0.67404
 C    -4.36873    -5.84049     2.64165
 H    -3.92562    -6.74047     3.11279
 C    -4.91001    -4.80734     3.41668
 H    -4.85831    -4.87210     4.51086
 C    -5.48651    -3.69719     2.79841
 H    -5.89399    -2.86379     3.39277
 C    -5.52146    -3.63640     1.39291
 H    -5.94995    -2.75572     0.89147
 C    -4.95631    -4.66476     0.63860
 C    -4.94188    -4.61707    -0.85034
 N    -4.11084    -3.68137    -1.46636
 H    -3.51821    -3.04271    -0.88634
 C    -4.07600    -3.56393    -2.82888
 H    -3.38617    -2.79276    -3.26252
 C    -4.89292    -4.38926    -3.63079
 H    -4.84227    -4.27494    -4.72602
 C    -5.73342    -5.31896    -3.03421
 H    -6.38579    -5.96202    -3.64399
 C    -5.75616    -5.43461    -1.62723
 H    -6.43277    -6.15797    -1.15664
 N    -1.05586    -7.73724    10.68913
 H    -1.86716    -7.82808    10.04337
 C    -1.29653    -7.14340    11.91973
 H    -2.25205    -6.60021    12.03910
 C    -0.34984    -7.19664    12.94590
 H    -0.54323    -6.66702    13.89601
 C     0.81371    -7.94627    12.76981
 H     1.57473    -8.00905    13.56999
 C     1.00943    -8.63862    11.55642
 H     1.91552    -9.25992    11.44447
 C     0.07153    -8.55423    10.52378
 C     0.33211    -9.27526     9.24663
 N    -0.77912    -9.82770     8.49895
 H    -1.61977   -10.16109     9.06492
 C    -0.49077   -10.64754     7.36755
 H    -1.36926   -11.16986     6.90952
 C     0.79926   -10.71816     6.86264
 H     0.98498   -11.31993     5.95094
 C     1.85579   -10.07531     7.51661
 H     2.89032   -10.12030     7.12432
 C     1.60112    -9.35197     8.71314
 H     2.46051    -8.84862     9.20815
 N    -7.35451    -4.98200     7.56104
 H   -10.68101    -4.50156     9.57709
 C    -7.79860    -5.14755     6.28818
 H    -8.48379    -4.38426     5.88248
 C    -7.40067    -6.26587     5.52741
 H    -7.79609    -6.40699     4.51943
 C    -6.53560    -7.20836     6.07871
 H    -6.23203    -8.10641     5.52015
 C    -6.07214    -7.02741     7.39711
 H    -5.42091    -7.78323     7.85479
 C    -6.50120    -5.91265     8.11719
 C    -6.11915    -5.68796     9.53473
 N    -6.81824    -6.42624    10.48541
 H    -7.41625    -7.23159    10.17473
 C    -6.55723    -6.25654    11.82401
 H    -7.10591    -6.89914    12.54321
 C    -5.63021    -5.29043    12.24275
 H    -5.45195    -5.16166    13.31794
 C    -4.93792    -4.53164    11.29922
 H    -4.20976    -3.77507    11.61603
 C    -5.18235    -4.73419     9.93231
 H    -4.66317    -4.13702     9.17122
 N     3.09560    -7.28281     0.80657
 H     3.34321    -7.68122     1.75602
 C     3.56141    -7.98111    -0.31097
 H     4.49207    -8.57098    -0.18225
 C     2.89212    -7.90159    -1.52881
 H     3.30574    -8.41781    -2.41171
 C     1.68606    -7.19766    -1.63264
 H     1.12429    -7.16562    -2.58420
 C     1.18645    -6.51002    -0.49951
 H     0.24546    -5.92864    -0.58448
 C     1.86918    -6.55924     0.69784
 C     1.52695    -5.76553     1.90913
 N     1.88259    -4.40685     1.88378
 H     2.13351    -3.95460     0.97450
 C     1.63490    -3.61653     2.97208
 H     1.83112    -2.51949     2.88325
 C     1.13168    -4.18440     4.16458
 H     0.99328    -3.52377     5.03848
 C     0.79122    -5.52736     4.20126
 H     0.37896    -5.97787     5.11451
 C     0.98075    -6.33051     3.05046
 H     0.67803    -7.38837     3.05950
