  236
 
Cl     0.00000     0.00000     0.00000
Cl     6.00027     0.22121    -1.22955
Cl     4.89713    10.28283    -0.94288
Cl     4.60233     8.62576     5.27262
 O     1.64659     0.64526   -10.14955
 O     1.60942    -2.76467    -7.49109
 O     1.09815    -4.91262    -5.91959
 H     1.43051    -4.51374    -6.77806
 O     0.56834    -5.74712    -3.51236
 H     0.47250    -5.93689    -2.49269
 O    -0.22855    -5.26112    -1.18239
 O    -2.30310    -2.51523     1.72380
 N     0.21476    -0.94494    -7.20936
 H    -0.81687    -1.05974    -7.02670
 N    -0.09163    -3.20117    -0.29308
 H     0.04405    -2.18744    -0.36458
 C     2.80688     1.36130   -10.53582
 H     2.50579     1.83052   -11.48293
 H     3.65450     0.68487   -10.69870
 H     3.05683     2.12967    -9.79527
 C     1.83111    -0.07773    -8.93601
 H     2.14539     0.61775    -8.13226
 H     2.60943    -0.84925    -9.08212
 C     0.44233    -0.68421    -8.67938
 H    -0.34058     0.04053    -9.03058
 H     0.29358    -1.61641    -9.27130
 C     0.90346    -2.16849    -6.71544
 C     0.60443    -2.60537    -5.35449
 C     0.73827    -3.96238    -5.04534
 C     0.45867    -4.42125    -3.72299
 C     0.11601    -3.50961    -2.72904
 C    -0.00747    -2.14548    -3.05196
 H    -0.28197    -1.41761    -2.27874
 C     0.22590    -1.70409    -4.33739
 H     0.14584    -0.63109    -4.55470
 C    -0.08528    -4.03201    -1.35211
 C    -0.33824    -3.73024     1.05209
 H     0.15503    -3.05282     1.79007
 H     0.11233    -4.74643     1.15704
 C    -1.84720    -3.79874     1.35366
 H    -2.41985    -4.22758     0.51701
 H    -2.03025    -4.40580     2.26653
 C    -2.88181    -1.76982     0.67002
 H    -2.95882    -0.75520     1.09086
 H    -3.87086    -2.17175     0.43223
 H    -2.24279    -1.73957    -0.21490
 O    -3.33926     1.30673     2.33020
 O    -0.05086     4.14783     2.40325
 O     1.92318     5.96101     2.02585
 H     1.01686     5.71566     2.37693
 O     4.39838     6.31164     1.34556
 H     5.40543     6.31280     1.16538
 O     6.37289     5.55938    -0.07779
 O     8.07557     2.72793    -3.13464
 N    -0.40153     2.67058     0.66454
 H    -0.38280     3.01131    -0.33316
 N     6.76492     3.38111    -0.47131
 H     6.48219     2.39396    -0.48622
 C    -3.67844     0.44543     3.40541
 H    -4.74502     0.24882     3.23883
 H    -3.52729     0.93973     4.37374
 H    -3.10406    -0.48685     3.35551
 C    -1.97408     1.70636     2.36834
 H    -1.32620     0.80852     2.31563
 H    -1.77339     2.25141     3.31044
 C    -1.83453     2.61040     1.13442
 H    -2.45811     2.19454     0.29531
 H    -2.22462     3.63266     1.32953
 C     0.45789     3.56789     1.47448
 C     1.84380     3.74556     1.04414
 C     2.49534     4.93647     1.37311
 C     3.85892     5.13302     0.98953
 C     4.54011     4.13257     0.30053
 C     3.87190     2.93453    -0.01370
 H     4.39253     2.13365    -0.55602
 C     2.55555     2.74539     0.34977
 H     2.07556     1.78896     0.10785
 C     5.94833     4.38620    -0.09908
 C     8.14048     3.66151    -0.90341
 H     8.76751     2.77066    -0.65613
 H     8.55132     4.53475    -0.34098
 C     8.22625     3.93436    -2.41944
 H     7.50857     4.70603    -2.74154
 H     9.25460     4.25351    -2.69434
 C     6.75661     2.47963    -3.58694
 H     6.79310     1.42472    -3.90287
 H     6.52725     3.13554    -4.43212
 H     6.01600     2.58423    -2.79090
 O     3.24500     9.65480     9.20661
 O     3.31010    13.05577     6.54490
 O     3.83550    15.19998     4.97565
 H     3.50905    14.80186     5.83684
 O     4.35890    16.03040     2.56549
 H     4.45100    16.21949     1.54553
 O     5.14429    15.53996     0.23212
 O     7.21116    12.79997    -2.67372
 N     4.69578    11.22963     6.26402
 H     5.72835    11.34157     6.08571
 N     4.99245    13.48159    -0.65816
 H     4.83793    12.47041    -0.58797
 C     2.09075     8.92298     9.58063
 H     2.38732     8.46217    10.53324
 H     1.23107     9.58721     9.73005
 H     1.86135     8.14778     8.84058
 C     3.07073    10.36237     7.98260
 H     2.76443     9.65824     7.18348
 H     2.29065    11.13486     8.11329
 C     4.46204    10.96654     7.73262
 H     5.24180    10.23868     8.08447
 H     4.61074    11.89663     8.32788
 C     4.01214    12.45520     5.76930
 C     4.31069    12.88947     4.40725
 C     4.18528    14.24746     4.09919
 C     4.46084    14.70374     2.77525
 C     4.79206    13.79026     1.77896
 C     4.90686    12.42524     2.10119
 H     5.17247    11.69496     1.32706
 C     4.67611    11.98576     3.38811
 H     4.74660    10.91195     3.60431
 C     4.99274    14.31181     0.40151
 C     5.24226    14.01000    -2.00314
 H     4.75188    13.33142    -2.74179
 H     4.79147    15.02593    -2.10931
 C     6.75146    14.08182    -2.30312
 H     7.32247    14.51163    -1.46580
 H     6.93398    14.68942    -3.21581
 C     7.78343    12.05276    -1.61746
 H     7.86375    11.03917    -2.03973
 H     8.77042    12.45540    -1.37238
 H     7.13816    12.02058    -0.73714
 O     8.23896     8.98223    -3.27310
 O     4.95160     6.12792    -3.34553
 O     2.97627     4.31650    -2.96564
 H     3.88327     4.56033    -3.31626
 O     0.49841     3.96999    -2.29079
 H    -0.51016     3.97272    -2.11673
 O    -1.48183     4.72702    -0.88143
 O    -3.17185     7.55048     2.19795
 N     5.29895     7.61570    -1.61545
 H     5.28009     7.27966    -0.61607
 N    -1.86074     6.90294    -0.46197
 H    -1.57376     7.88869    -0.44063
 C     8.58270     9.83805    -4.35126
 H     9.64559    10.04552    -4.17431
 H     8.44640     9.33447    -5.31683
 H     7.99992    10.76576    -4.31545
 C     6.87481     8.57928    -3.31739
 H     6.22474     9.47572    -3.26653
 H     6.67929     8.03484    -4.26073
 C     6.73236     7.67379    -2.08498
 H     7.35694     8.08696    -1.24526
 H     7.11980     6.65065    -2.28118
 C     4.44087     6.71226    -2.42061
 C     3.05533     6.53440    -1.98984
 C     2.40385     5.34271    -2.31629
 C     1.03944     5.14773    -1.93392
 C     0.35850     6.14858    -1.24536
 C     1.02754     7.34639    -0.93130
 H     0.50752     8.14758    -0.38873
 C     2.34348     7.53519    -1.29597
 H     2.82355     8.49179    -1.05497
 C    -1.05078     5.89765    -0.84812
 C    -3.23944     6.62644    -0.03801
 H    -3.86204     7.51997    -0.28639
 H    -3.65090     5.75638    -0.60502
 C    -3.33512     6.34942     1.47682
 H    -2.63103     5.56554     1.79897
 H    -4.36993     6.04414     1.74541
 C    -1.85378     7.78216     2.66141
 H    -1.88509     8.83327     2.99042
 H    -1.63399     7.11477     3.50022
 H    -1.10911     7.68252     1.86866
 C     1.44732    -1.01999     3.11857
 H     0.99580    -1.16244     2.11838
 H     2.20416    -1.80163     3.29959
 O     2.04947     0.27008     3.12096
 C     0.39800    -0.99203     4.22265
 H    -0.10079    -1.96206     4.31703
 H    -0.37714    -0.24272     4.01806
 H     0.85241    -0.73813     5.19064
 C     3.36547     0.29014     2.59531
 H     3.55301     1.38113     2.53073
 H     4.04523    -0.16586     3.33812
 C     3.49970    -0.39133     1.24305
 H     4.42683    -0.08425     0.74274
 H     2.66662    -0.14137     0.57327
 H     3.51745    -1.48297     1.32807
 C     3.64971     1.57316    -5.16251
 H     2.73707     2.18131    -5.30760
 H     4.22302     1.97211    -4.30882
 O     3.21574     0.24193    -4.90491
 C     4.50122     1.49863    -6.42404
 H     4.86243     2.48840    -6.71955
 H     3.92390     1.09363    -7.26480
 H     5.36662     0.83845    -6.27689
 C     3.02992    -0.03841    -3.52912
 H     2.70122    -1.09467    -3.56348
 H     4.00427     0.03218    -3.01176
 C     1.98911     0.85677    -2.87426
 H     1.64477     0.42151    -1.92906
 H     1.11396     0.99951    -3.52041
 H     2.37959     1.85792    -2.65536
 C     3.45953    11.30297    -4.06632
 H     3.91812    11.44766    -3.06965
 H     2.69902    12.08225    -4.24225
 O     2.86219    10.01071    -4.06150
 C     4.50012    11.27673    -5.17869
 H     5.00582    12.24360    -5.26870
 H     5.27055    10.51917    -4.98682
 H     4.03700    11.03414    -6.14532
 C     1.54257     9.99036    -3.54538
 H     1.35459     8.89943    -3.48235
 H     0.86768    10.44643    -4.29246
 C     1.39967    10.67165    -2.19382
 H     0.46954    10.36392    -1.69967
 H     2.22880    10.42230    -1.51897
 H     1.38160    11.76323    -2.27876
 C     1.25854     8.70716     4.22892
 H     2.17048     8.10262     4.39244
 H     0.69960     8.30019     3.36954
 O     1.69557    10.03679     3.96890
 C     0.38701     8.78713     5.47653
 H     0.03981     7.79557     5.78281
 H     0.94440     9.21631     6.31892
 H    -0.48791     9.42877     5.30637
 C     1.87724    10.31691     2.59244
 H     2.20526    11.37358     2.62618
 H     0.90143    10.24561     2.07812
 C     2.91646     9.42283     1.93370
 H     3.25764     9.85946     0.98768
 H     3.79383     9.27927     2.57670
 H     2.52623     8.42174     1.71447
 H     0.52013     0.03087    -6.62696
 H    -0.00450     1.55985     0.61585
 H     4.39007    10.25482     5.67904
 H     4.90105     8.72473    -1.57209
