  264
 
 O     0.00000     0.00000     0.00000
 O     1.91500    -0.86300     0.79300
 O     2.21700    -6.27800    -3.33300
 N     0.04800    -5.73300    -2.86200
 C     0.64500    -2.18600    -0.68400
 C    -0.43000    -2.30500    -1.57000
 C    -0.60200    -3.47800    -2.29600
 C     0.28900    -4.54800    -2.13100
 C     1.35000    -4.44300    -1.22500
 C     1.52700    -3.25900    -0.51300
 C     0.82900    -0.92300     0.06900
 C     1.01200    -6.52800    -3.40100
 C     0.50500    -7.77100    -4.08600
 H     1.87100    -0.04100     1.30100
 H    -0.92700    -5.95600    -2.99300
 H    -1.11000    -1.48500    -1.73200
 H    -1.42500    -3.54600    -2.98700
 H     1.98600    -5.29600    -1.05700
 H     2.32800    -3.20600     0.20400
 H    -0.53000    -7.68300    -4.29500
 H     0.60200    -8.58200    -3.41300
 H     1.11400    -7.95300    -4.93300
 O     0.86311    -5.38227     2.20569
 O    -1.05189    -4.51927     1.41169
 O    -1.35389     0.89573     5.53769
 N     0.81511     0.35073     5.06669
 C     0.21811    -3.19627     2.88969
 C     1.29311    -3.07727     3.77569
 C     1.46511    -1.90427     4.50169
 C     0.57511    -0.83427     4.33569
 C    -0.48689    -0.93927     3.42969
 C    -0.66289    -2.12227     2.71769
 C     0.03411    -4.45927     2.13569
 C    -0.14889     1.14673     5.60669
 C     0.35811     2.38873     6.29169
 H    -1.00789    -5.34127     0.90369
 H     1.79011     0.57373     5.19769
 H     1.97311    -3.89727     3.93769
 H     2.28811    -1.83627     5.19269
 H    -1.12289    -0.08627     3.26169
 H    -1.46489    -2.17627     2.00069
 H     1.39311     2.30073     6.50069
 H     0.26111     3.19973     5.61769
 H    -0.25089     2.57073     7.13869
 O     5.02990     0.00000     0.00000
 O     6.94490    -0.86300     0.79300
 O     7.24690    -6.27800    -3.33300
 N     5.07790    -5.73300    -2.86200
 C     5.67490    -2.18600    -0.68400
 C     4.59990    -2.30500    -1.57000
 C     4.42790    -3.47800    -2.29600
 C     5.31890    -4.54800    -2.13100
 C     6.37990    -4.44300    -1.22500
 C     6.55690    -3.25900    -0.51300
 C     5.85890    -0.92300     0.06900
 C     6.04190    -6.52800    -3.40100
 C     5.53490    -7.77100    -4.08600
 H     6.90090    -0.04100     1.30100
 H     4.10290    -5.95600    -2.99300
 H     3.91990    -1.48500    -1.73200
 H     3.60490    -3.54600    -2.98700
 H     7.01590    -5.29600    -1.05700
 H     7.35790    -3.20600     0.20400
 H     4.49990    -7.68300    -4.29500
 H     5.63190    -8.58200    -3.41300
 H     6.14390    -7.95300    -4.93300
 O     5.89301    -5.38227     2.20569
 O     3.97801    -4.51927     1.41169
 O     3.67601     0.89573     5.53769
 N     5.84501     0.35073     5.06669
 C     5.24801    -3.19627     2.88969
 C     6.32301    -3.07727     3.77569
 C     6.49501    -1.90427     4.50169
 C     5.60501    -0.83427     4.33569
 C     4.54301    -0.93927     3.42969
 C     4.36701    -2.12227     2.71769
 C     5.06401    -4.45927     2.13569
 C     4.88101     1.14673     5.60669
 C     5.38801     2.38873     6.29169
 H     4.02201    -5.34127     0.90369
 H     6.82001     0.57373     5.19769
 H     7.00301    -3.89727     3.93769
 H     7.31801    -1.83627     5.19269
 H     3.90701    -0.08627     3.26169
 H     3.56501    -2.17627     2.00069
 H     6.42301     2.30073     6.50069
 H     5.29101     3.19973     5.61769
 H     4.77901     2.57073     7.13869
 O    10.05980     0.00000     0.00000
 O    11.97480    -0.86300     0.79300
 O    12.27680    -6.27800    -3.33300
 N    10.10780    -5.73300    -2.86200
 C    10.70480    -2.18600    -0.68400
 C     9.62980    -2.30500    -1.57000
 C     9.45780    -3.47800    -2.29600
 C    10.34880    -4.54800    -2.13100
 C    11.40980    -4.44300    -1.22500
 C    11.58680    -3.25900    -0.51300
 C    10.88880    -0.92300     0.06900
 C    11.07180    -6.52800    -3.40100
 C    10.56480    -7.77100    -4.08600
 H    11.93080    -0.04100     1.30100
 H     9.13280    -5.95600    -2.99300
 H     8.94980    -1.48500    -1.73200
 H     8.63480    -3.54600    -2.98700
 H    12.04580    -5.29600    -1.05700
 H    12.38780    -3.20600     0.20400
 H     9.52980    -7.68300    -4.29500
 H    10.66180    -8.58200    -3.41300
 H    11.17380    -7.95300    -4.93300
 O    10.92291    -5.38227     2.20569
 O     9.00791    -4.51927     1.41169
 O     8.70591     0.89573     5.53769
 N    10.87491     0.35073     5.06669
 C    10.27791    -3.19627     2.88969
 C    11.35291    -3.07727     3.77569
 C    11.52491    -1.90427     4.50169
 C    10.63491    -0.83427     4.33569
 C     9.57291    -0.93927     3.42969
 C     9.39691    -2.12227     2.71769
 C    10.09391    -4.45927     2.13569
 C     9.91091     1.14673     5.60669
 C    10.41791     2.38873     6.29169
 H     9.05191    -5.34127     0.90369
 H    11.84991     0.57373     5.19769
 H    12.03291    -3.89727     3.93769
 H    12.34791    -1.83627     5.19269
 H     8.93691    -0.08627     3.26169
 H     8.59491    -2.17627     2.00069
 H    11.45291     2.30073     6.50069
 H    10.32091     3.19973     5.61769
 H     9.80891     2.57073     7.13869
 O     1.26595     6.71267     0.00000
 O     3.18095     5.84967     0.79300
 O     3.48295     0.43467    -3.33300
 N     1.31395     0.97967    -2.86200
 C     1.91095     4.52667    -0.68400
 C     0.83595     4.40767    -1.57000
 C     0.66395     3.23467    -2.29600
 C     1.55495     2.16467    -2.13100
 C     2.61595     2.26967    -1.22500
 C     2.79295     3.45367    -0.51300
 C     2.09495     5.78967     0.06900
 C     2.27795     0.18467    -3.40100
 C     1.77095    -1.05833    -4.08600
 H     3.13695     6.67167     1.30100
 H     0.33895     0.75667    -2.99300
 H     0.15595     5.22767    -1.73200
 H    -0.15905     3.16667    -2.98700
 H     3.25195     1.41667    -1.05700
 H     3.59395     3.50667     0.20400
 H     0.73595    -0.97033    -4.29500
 H     1.86795    -1.86933    -3.41300
 H     2.37995    -1.24033    -4.93300
 O     2.12906     1.33040     2.20569
 O     0.21406     2.19340     1.41169
 O    -0.08794     7.60840     5.53769
 N     2.08106     7.06340     5.06669
 C     1.48406     3.51640     2.88969
 C     2.55906     3.63540     3.77569
 C     2.73106     4.80840     4.50169
 C     1.84106     5.87840     4.33569
 C     0.77906     5.77340     3.42969
 C     0.60306     4.59040     2.71769
 C     1.30006     2.25340     2.13569
 C     1.11706     7.85940     5.60669
 C     1.62406     9.10140     6.29169
 H     0.25806     1.37140     0.90369
 H     3.05606     7.28640     5.19769
 H     3.23906     2.81540     3.93769
 H     3.55406     4.87640     5.19269
 H     0.14306     6.62640     3.26169
 H    -0.19894     4.53640     2.00069
 H     2.65906     9.01340     6.50069
 H     1.52706     9.91240     5.61769
 H     1.01506     9.28340     7.13869
 O     6.29585     6.71267     0.00000
 O     8.21085     5.84967     0.79300
 O     8.51285     0.43467    -3.33300
 N     6.34385     0.97967    -2.86200
 C     6.94085     4.52667    -0.68400
 C     5.86585     4.40767    -1.57000
 C     5.69385     3.23467    -2.29600
 C     6.58485     2.16467    -2.13100
 C     7.64585     2.26967    -1.22500
 C     7.82285     3.45367    -0.51300
 C     7.12485     5.78967     0.06900
 C     7.30785     0.18467    -3.40100
 C     6.80085    -1.05833    -4.08600
 H     8.16685     6.67167     1.30100
 H     5.36885     0.75667    -2.99300
 H     5.18585     5.22767    -1.73200
 H     4.87085     3.16667    -2.98700
 H     8.28185     1.41667    -1.05700
 H     8.62385     3.50667     0.20400
 H     5.76585    -0.97033    -4.29500
 H     6.89785    -1.86933    -3.41300
 H     7.40985    -1.24033    -4.93300
 O     7.15896     1.33040     2.20569
 O     5.24396     2.19340     1.41169
 O     4.94196     7.60840     5.53769
 N     7.11096     7.06340     5.06669
 C     6.51396     3.51640     2.88969
 C     7.58896     3.63540     3.77569
 C     7.76096     4.80840     4.50169
 C     6.87096     5.87840     4.33569
 C     5.80896     5.77340     3.42969
 C     5.63296     4.59040     2.71769
 C     6.32996     2.25340     2.13569
 C     6.14696     7.85940     5.60669
 C     6.65396     9.10140     6.29169
 H     5.28796     1.37140     0.90369
 H     8.08596     7.28640     5.19769
 H     8.26896     2.81540     3.93769
 H     8.58396     4.87640     5.19269
 H     5.17296     6.62640     3.26169
 H     4.83096     4.53640     2.00069
 H     7.68896     9.01340     6.50069
 H     6.55696     9.91240     5.61769
 H     6.04496     9.28340     7.13869
 O    11.32575     6.71267     0.00000
 O    13.24075     5.84967     0.79300
 O    13.54275     0.43467    -3.33300
 N    11.37375     0.97967    -2.86200
 C    11.97075     4.52667    -0.68400
 C    10.89575     4.40767    -1.57000
 C    10.72375     3.23467    -2.29600
 C    11.61475     2.16467    -2.13100
 C    12.67575     2.26967    -1.22500
 C    12.85275     3.45367    -0.51300
 C    12.15475     5.78967     0.06900
 C    12.33775     0.18467    -3.40100
 C    11.83075    -1.05833    -4.08600
 H    13.19675     6.67167     1.30100
 H    10.39875     0.75667    -2.99300
 H    10.21575     5.22767    -1.73200
 H     9.90075     3.16667    -2.98700
 H    13.31175     1.41667    -1.05700
 H    13.65375     3.50667     0.20400
 H    10.79575    -0.97033    -4.29500
 H    11.92775    -1.86933    -3.41300
 H    12.43975    -1.24033    -4.93300
 O    12.18886     1.33040     2.20569
 O    10.27386     2.19340     1.41169
 O     9.97186     7.60840     5.53769
 N    12.14086     7.06340     5.06669
 C    11.54386     3.51640     2.88969
 C    12.61886     3.63540     3.77569
 C    12.79086     4.80840     4.50169
 C    11.90086     5.87840     4.33569
 C    10.83886     5.77340     3.42969
 C    10.66286     4.59040     2.71769
 C    11.35986     2.25340     2.13569
 C    11.17686     7.85940     5.60669
 C    11.68386     9.10140     6.29169
 H    10.31786     1.37140     0.90369
 H    13.11586     7.28640     5.19769
 H    13.29886     2.81540     3.93769
 H    13.61386     4.87640     5.19269
 H    10.20286     6.62640     3.26169
 H     9.86086     4.53640     2.00069
 H    12.71886     9.01340     6.50069
 H    11.58686     9.91240     5.61769
 H    11.07486     9.28340     7.13869
