  136
 
 O     0.00000     0.00000     0.00000
 H     1.06430     0.00000     0.00000
 C    -0.19670     1.31676     0.00000
 O     0.72463     2.10044     0.06826
 C    -4.27272     2.56236    -0.19979
 C    -1.61815     1.71414    -0.07761
 N    -5.60910     2.98876    -0.32803
 H    -5.66010     3.82098    -0.03680
 H    -6.24333     2.42487     0.11143
 C    -2.65872     0.79396     0.04625
 H    -2.33535    -0.22430     0.24207
 C    -3.23901     3.47822    -0.36053
 H    -3.49272     4.54207    -0.59562
 C    -3.97529     1.21600    -0.00336
 H    -4.76558     0.52169     0.21458
 C    -1.93007     3.05713    -0.29413
 H    -1.09095     3.70582    -0.33330
 O     1.54683    -5.73014    -2.82668
 H     1.12618    -5.96482    -3.77635
 C     1.33440    -6.89856    -2.22447
 O     0.73627    -7.80008    -2.76959
 C     2.85122    -7.21108     1.75133
 C     1.87805    -6.97590    -0.85169
 N     3.40050    -7.35049     3.04092
 H     2.97715    -8.00977     3.44958
 H     3.38393    -6.54932     3.56168
 C     2.38271    -5.86032    -0.18483
 H     2.30393    -4.93124    -0.74154
 C     2.38366    -8.33335     1.07674
 H     2.46002    -9.33171     1.57495
 C     2.85575    -5.97398     1.11084
 H     3.12642    -5.09104     1.65811
 C     1.89921    -8.21287    -0.20616
 H     1.45987    -9.00649    -0.75540
 O    -4.88903     2.36454     3.45853
 H    -5.95333     2.36454     3.45853
 C    -4.69233     1.04778     3.45853
 O    -5.61439     0.26355     3.38990
 C    -0.61705    -0.19838     3.65795
 C    -3.27088     0.65040     3.53614
 N     0.72008    -0.62421     3.78656
 H     0.77108    -1.45644     3.49533
 H     1.35430    -0.06032     3.34710
 C    -2.23030     1.57059     3.41228
 H    -2.55313     2.58864     3.21565
 C    -1.65076    -1.11423     3.81869
 H    -1.39630    -2.17752     4.05414
 C    -0.91374     1.14855     3.46189
 H    -0.12419     1.84229     3.24358
 C    -2.95969    -0.69315     3.75229
 H    -3.79808    -1.34127     3.79183
 O    -0.12356    -5.70477     3.39008
 H     0.29765    -5.47030     4.33895
 C     0.08943    -4.53656     2.78706
 O     0.68700    -3.63484     3.33300
 C    -1.42795    -4.22384    -1.18792
 C    -0.45551    -4.45958     1.41473
 N    -1.97723    -4.08442    -2.47751
 H    -1.55387    -3.42515    -2.88617
 H    -1.96066    -4.88559    -2.99827
 C    -0.95943    -5.57460     0.74824
 H    -0.88140    -6.50424     1.30459
 C    -0.96039    -3.10157    -0.51333
 H    -1.03620    -2.10341    -1.01236
 C    -1.43192    -5.46114    -0.54824
 H    -1.70260    -6.34407    -1.09551
 C    -0.47593    -3.22205     0.76956
 H    -0.03660    -2.42843     1.31881
 O     4.66587     3.51951     2.29260
 H     5.73017     3.51951     2.29260
 C     4.46917     4.83627     2.29260
 O     5.39049     5.61995     2.36085
 C     0.39315     6.08187     2.09280
 C     3.04772     5.23365     2.21498
 N    -0.94324     6.50827     1.96456
 H    -0.99424     7.34049     2.25579
 H    -1.57746     5.94438     2.40403
 C     2.00714     4.31347     2.33884
 H     2.33052     3.29521     2.53466
 C     1.42685     6.99773     1.93206
 H     1.17315     8.06158     1.69698
 C     0.69058     4.73551     2.28923
 H    -0.09971     4.04120     2.50718
 C     2.73579     6.57664     1.99847
 H     3.57492     7.22533     1.95929
 O     6.21270    -2.21063    -0.53408
 H     5.79204    -2.44530    -1.48376
 C     6.00026    -3.37905     0.06813
 O     5.40214    -4.28056    -0.47700
 C     7.51709    -3.69156     4.04393
 C     6.54391    -3.45638     1.44090
 N     8.06637    -3.83098     5.33351
 H     7.64302    -4.49025     5.74218
 H     8.04980    -3.02981     5.85427
 C     7.04858    -2.34080     2.10777
 H     6.96980    -1.41173     1.55105
 C     7.04953    -4.81384     3.36934
 H     7.12589    -5.81219     3.86755
 C     7.52161    -2.45446     3.40344
 H     7.79229    -1.57153     3.95071
 C     6.56507    -4.69336     2.08644
 H     6.12574    -5.48698     1.53719
 O    -0.22316     5.88406     5.75112
 H    -1.28746     5.88406     5.75112
 C    -0.02646     4.56730     5.75112
 O    -0.94853     3.78306     5.68250
 C     4.04882     3.32114     5.95055
 C     1.39499     4.16991     5.82874
 N     5.38594     2.89530     6.07916
 H     5.43694     2.06308     5.78793
 H     6.02017     3.45919     5.63969
 C     2.43557     5.09010     5.70488
 H     2.11274     6.10816     5.50824
 C     3.01511     2.40528     6.11129
 H     3.26956     1.34199     6.34674
 C     3.75213     4.66806     5.75449
 H     4.54168     5.36181     5.53618
 C     1.70617     2.82637     6.04489
 H     0.86779     2.17824     6.08443
 O     4.54231    -2.18526     5.68268
 H     4.96351    -1.95079     6.63155
 C     4.75530    -1.01704     5.07966
 O     5.35287    -0.11533     5.62560
 C     3.23792    -0.70433     1.10467
 C     4.21035    -0.94007     3.70733
 N     2.68864    -0.56491    -0.18491
 H     3.11199     0.09436    -0.59358
 H     2.70521    -1.36608    -0.70567
 C     3.70643    -2.05509     3.04083
 H     3.78447    -2.98473     3.59718
 C     3.70548     0.41795     1.77926
 H     3.62967     1.41610     1.28024
 C     3.23394    -1.94163     1.74435
 H     2.96327    -2.82456     1.19708
 C     4.18994     0.29747     3.06216
 H     4.62927     1.09109     3.61141
