  304
 
 C     0.00000     0.00000     0.00000
 C     1.39009     0.04468    -0.03493
 C     2.05147     1.30385     0.02774
 C     1.22644     2.46276     0.09942
 C    -0.15543     2.31171     0.18221
 C     4.26223     0.17094    -0.01219
 C     4.11015     2.69180    -0.14861
 N    -0.79087     1.10465     0.11749
 N     3.43364     1.39647     0.12212
 H    -0.53325    -0.95692    -0.06760
 H     1.94326    -0.88726    -0.09946
 H     1.65977     3.45821     0.11802
 H    -0.81047     3.18434     0.32022
 H     4.13284    -0.43480     0.92352
 H     5.34240     0.44625    -0.11798
 H     3.96219    -0.43942    -0.90178
 H     3.69520     3.18078    -1.06736
 H     5.21060     2.53321    -0.29591
 H     3.95853     3.36197     0.73830
 C     2.64786    -2.74060    -2.46974
 C     1.25891    -2.80708    -2.50802
 C     0.54662    -3.19760    -1.34166
 C     1.31447    -3.53642    -0.19467
 C     2.70452    -3.43756    -0.25053
 C    -1.59891    -2.93611    -2.55367
 C    -1.56303    -3.88981    -0.22291
 N     3.38786    -3.04451    -1.36328
 N    -0.84787    -3.13677    -1.28780
 H     3.21478    -2.43798    -3.36022
 H     0.74667    -2.57421    -3.43868
 H     0.83921    -3.84436     0.73075
 H     3.31997    -3.67353     0.63113
 H    -1.43680    -1.87403    -2.88961
 H    -2.69146    -3.08463    -2.38203
 H    -1.25782    -3.63661    -3.35913
 H    -1.13334    -4.91344    -0.07862
 H    -2.64665    -3.99647    -0.48110
 H    -1.47351    -3.30710     0.73023
 C    10.72468    -1.56384    -2.54377
 C     9.33696    -1.61609    -2.51407
 C     8.68246    -2.88321    -2.55480
 C     9.51395    -4.04023    -2.61914
 C    10.89523    -3.87956    -2.69253
 C     6.46374    -1.76087    -2.60247
 C     6.62258    -4.28555    -2.41582
 N    11.52188    -2.66788    -2.63806
 N     7.30685    -2.98101    -2.59134
 H    11.25239    -0.60316    -2.49512
 H     8.77764    -0.68673    -2.45286
 H     9.08616    -5.03604    -2.63918
 H    11.55785    -4.74982    -2.81981
 H     6.59036    -1.24765    -3.59182
 H     5.38700    -2.03496    -2.46698
 H     6.75634    -1.06442    -1.77328
 H     7.04413    -4.83056    -1.53215
 H     5.52537    -4.12524    -2.23901
 H     6.75399    -4.90319    -3.34226
 C     6.16268    -3.49034     3.22779
 C     7.54994    -3.41390     3.27920
 C     8.26717    -2.99307     2.12120
 C     7.49728    -2.66589     0.96706
 C     6.11144    -2.78892     1.01183
 C    10.43473    -3.31831     3.31032
 C    10.38015    -2.37190     0.95322
 N     5.42229    -3.19398     2.11937
 N     9.64694    -2.93228     2.11387
 H     5.60071    -3.80169     4.11658
 H     8.05755    -3.67434     4.20256
 H     7.97301    -2.33833     0.04756
 H     5.49996    -2.56124     0.12486
 H    10.33693    -4.42423     3.47678
 H    11.51319    -3.06601     3.16208
 H    10.06500    -2.77551     4.22006
 H     9.94189    -1.38013     0.66048
 H    11.45935    -2.21657     1.20784
 H    10.30002    -3.08149     0.08803
 C     1.96725     4.65151    -3.31161
 C     3.35813     4.70731    -3.32303
 C     4.00705     5.97166    -3.26697
 C     3.17497     7.12503    -3.23327
 C     1.78803     6.96577    -3.22049
 C     6.21696     4.84171    -3.29844
 C     6.06764     7.35755    -3.45025
 N     1.16597     5.75356    -3.25999
 N     5.39321     6.06950    -3.13580
 H     1.44395     3.68754    -3.34863
 H     3.91888     3.77936    -3.38837
 H     3.60390     8.12193    -3.20891
 H     1.11429     7.83318    -3.17005
 H     6.07327     4.21231    -2.37982
 H     7.29716     5.10880    -3.38190
 H     5.92599     4.26123    -4.21111
 H     5.65145     7.82537    -4.37815
 H     7.16528     7.19912    -3.60656
 H     5.92255     8.04503    -2.57617
 C     4.61769     1.91493    -5.74799
 C     3.22994     1.84578    -5.79008
 C     2.51668     1.44152    -4.62646
 C     3.28686     1.10537    -3.47858
 C     4.67460     1.21533    -3.53007
 C     0.36232     1.71274    -5.82660
 C     0.41124     0.75996    -3.48811
 N     5.35921     1.61085    -4.64154
 N     1.12739     1.47326    -4.57745
 H     5.18645     2.22111    -6.63564
 H     2.71746     2.10353    -6.71354
 H     2.80670     0.79306    -2.55681
 H     5.28977     0.98929    -2.64604
 H     0.48796     2.79434    -6.11101
 H    -0.72322     1.51275    -5.66064
 H     0.72478     1.06575    -6.66699
 H     0.86044    -0.24889    -3.29917
 H    -0.66808     0.62507    -3.75026
 H     0.48333     1.38149    -2.55569
 C    12.71231     3.08236    -5.90424
 C    11.32461     3.03647    -5.85510
 C    10.66781     1.76967    -5.86371
 C    11.49526     0.61136    -5.94004
 C    12.87619     0.76666    -6.02857
 C     8.44755     2.88943    -5.89971
 C     8.60615     0.36559    -5.73406
 N    13.50708     1.97696    -5.99408
 N     9.29422     1.67796    -5.78093
 H    13.23914     4.04330    -5.87953
 H    10.76927     3.96828    -5.80848
 H    11.06560    -0.38422    -5.94417
 H    13.53482    -0.10774    -6.14407
 H     8.57609     3.34513    -6.91429
 H     7.37150     2.61975    -5.74570
 H     8.73573     3.63441    -5.11213
 H     9.03755    -0.25171    -4.90123
 H     7.51356     0.51568    -5.52424
 H     8.72615    -0.17374    -6.70803
 C     8.11609     1.15611    -0.07596
 C     9.50151     1.24786    -0.02348
 C    10.21931     1.68136    -1.17727
 C     9.45099     1.99972    -2.33438
 C     8.06680     1.86910    -2.29114
 C    12.38419     1.35301     0.00374
 C    12.33950     2.30472    -2.34290
 N     7.37789     1.45511    -1.18674
 N    11.59421     1.78361    -1.17246
 H     7.54689     0.83128     0.80587
 H    10.01166     1.00456     0.90394
 H     9.92919     2.32244    -3.25325
 H     7.45663     2.09187    -3.17906
 H    12.29379     0.24175     0.13662
 H    13.46081     1.61709    -0.13588
 H    12.00700     1.86402     0.93134
 H    11.89897     3.28335    -2.66827
 H    13.41341     2.48045    -2.07208
 H    12.28537     1.56907    -3.18641
 C    -0.30221     4.35716     6.05562
 C     1.08660     4.40688     6.03674
 C     1.74268     5.67099     6.08125
 C     0.91382     6.82910     6.13044
 C    -0.46850     6.67250     6.19964
 C     3.95758     4.54488     6.09049
 C     3.79896     7.06780     5.92400
 N    -1.09752     5.46258     6.14475
 N     3.12174     5.76928     6.17165
 H    -0.83263     3.39783     5.99999
 H     1.64391     3.47553     5.99640
 H     1.34286     7.82515     6.14441
 H    -1.12815     7.54534     6.32144
 H     3.83018     3.97519     7.04890
 H     5.03533     4.82048     5.96992
 H     3.65901     3.89890     5.22438
 H     3.37738     7.57280     5.01666
 H     4.89753     6.90881     5.76278
 H     3.65695     7.72599     6.82097
 C     2.31136     1.63657     3.60071
 C     0.92334     1.56017     3.55779
 C     0.20871     1.15708     4.72061
 C     0.97682     0.82343     5.87125
 C     2.36503     0.93535     5.81976
 C    -1.94565     1.43316     3.51617
 C    -1.90205     0.49030     5.86095
 N     3.05022     1.33767     4.71062
 N    -1.18096     1.18682     4.76441
 H     2.87927     1.94529     2.71121
 H     0.41232     1.79589     2.62704
 H     0.50236     0.50350     6.79277
 H     2.97827     0.70087     6.70291
 H    -1.83085     2.51950     3.24510
 H    -3.03016     1.22071     3.67412
 H    -1.57093     0.80230     2.66784
 H    -1.45930    -0.51836     6.06658
 H    -2.98124     0.35285     5.59571
 H    -1.83245     1.12369     6.78252
 C    10.42277     2.79533     3.51598
 C     9.03347     2.74591     3.56774
 C     8.37556     1.48370     3.50377
 C     9.20375     0.32635     3.41743
 C    10.58425     0.48314     3.32865
 C     6.15774     2.61028     3.51314
 C     6.31523     0.08666     3.65689
 N    11.21532     1.69302     3.38939
 N     6.99682     1.38843     3.44571
 H    10.95381     3.75434     3.57568
 H     8.47802     3.67412     3.65969
 H     8.77238    -0.66882     3.39311
 H    11.24398    -0.38561     3.18734
 H     6.27768     3.17101     2.54865
 H     5.08012     2.33141     3.63761
 H     6.45619     3.26387     4.37236
 H     6.73077    -0.43738     4.55536
 H     5.21570     0.24549     3.81683
 H     6.45835    -0.54784     2.74284
 C     5.82945     0.90728     9.34913
 C     7.21922     0.96420     9.38805
 C     7.93122     1.35155     8.21800
 C     7.15789     1.68672     7.07095
 C     5.76971     1.58475     7.12648
 C    10.09174     1.06079     9.41361
 C    10.03188     2.01757     7.06992
 N     5.08527     1.20310     8.24459
 N     9.32100     1.30921     8.16680
 H     5.27079     0.61459    10.24575
 H     7.73055     0.70800    10.31111
 H     7.63271     1.99302     6.14268
 H     5.15397     1.81057     6.24169
 H     9.95472    -0.01784     9.69846
 H    11.17892     1.24790     9.23932
 H     9.74640     1.71289    10.25626
 H     9.59273     3.03319     6.89031
 H    11.11714     2.13750     7.31454
 H     9.93607     1.40054     6.13607
 C     1.66117     8.99841     2.74211
 C     3.05080     9.05685     2.74789
 C     3.69640    10.32476     2.77978
 C     2.86155    11.47687     2.78065
 C     1.47510    11.31491     2.78739
 C     5.91034     9.20206     2.80726
 C     5.75417    11.71902     2.61265
 N     0.85673    10.10013     2.76259
 N     5.07884    10.42966     2.91659
 H     1.14108     8.03311     2.71922
 H     3.61471     8.12880     2.71067
 H     3.28805    12.47449     2.78436
 H     0.80057    12.18368     2.82575
 H     5.76571     8.60706     3.74846
 H     6.98864     9.47027     2.71254
 H     5.62287     8.58456     1.91663
 H     5.32504    12.20073     1.69749
 H     6.84779    11.55825     2.43298
 H     5.62625    12.39805     3.49597
 C     4.28573     6.29953     0.32937
 C     2.90086     6.20747     0.27893
 C     2.18586     5.77817     1.43685
 C     2.95643     5.46275     2.59359
 C     4.34088     5.59534     2.54745
 C     0.01911     6.09095     0.25476
 C     0.07135     5.14859     2.60710
 N     5.02659     6.00638     1.44110
 N     0.81003     5.68833     1.44089
 H     4.85470     6.61792    -0.55529
 H     2.38878     6.46000    -0.64568
 H     2.47830     5.13756     3.51104
 H     4.95396     5.37577     3.43409
 H     0.10737     7.20077     0.10339
 H    -1.05696     5.82766     0.39925
 H     0.39779     5.56588    -0.66344
 H     0.51154     4.16373     2.91752
 H    -1.00491     4.98438     2.34330
 H     0.13543     5.87012     3.46269
 C    12.40750     7.43328     0.19378
 C    11.01792     7.39553     0.24970
 C    10.35344     6.13485     0.21859
 C    11.17538     4.97226     0.14982
 C    12.55537     5.11910     0.04596
 C     8.14136     7.27233     0.23222
 C     8.28608     4.74577     0.38235
 N    13.19490     6.32597     0.08602
 N     8.97509     6.04646     0.19553
 H    12.93967     8.39154     0.22965
 H    10.46979     8.33003     0.30715
 H    10.73930     3.97801     0.15123
 H    13.20670     4.24289    -0.08467
 H     8.27033     7.81898    -0.73800
 H     7.06201     6.99966     0.35673
 H     8.43938     7.93841     1.08149
 H     8.71093     4.19775     1.26382
 H     7.19087     4.90871     0.56201
 H     8.41615     4.12895    -0.54550
 C     7.78296     5.56000     5.99794
 C     9.17095     5.62715     6.03908
 C     9.88613     6.02574     4.87470
 C     9.11608     6.36227     3.72660
 C     7.72911     6.25711     3.77926
 C    12.03951     5.73738     6.07109
 C    11.99757     6.69539     3.73680
 N     7.04265     5.86481     4.89192
 N    11.27370     5.99024     4.82625
 H     7.21403     5.25365     6.88500
 H     9.68403     5.38353     6.96531
 H     9.59754     6.66739     2.80301
 H     7.11437     6.48347     2.89512
 H    11.91290     4.65402     6.34740
 H    13.12524     5.93761     5.90521
 H    11.67976     6.37921     6.91719
 H    11.55002     7.70212     3.53802
 H    13.07491     6.83745     4.00857
 H    11.93628     6.06336     2.81091
