  184
 
 N     0.00000     0.00000     0.00000
Br     5.12165    -0.48860    -0.20869
Br     6.97088     3.11982    -0.82635
Br     8.52754     0.06772    -0.36595
Fe     6.33814     0.94657    -1.73921
Br     5.16546     1.88569    -3.64488
Br    -2.55299    -2.82348    -8.41511
Br     1.05926     0.20306    -8.90143
Br     0.90851    -2.94821    -7.46620
Br    -1.73129    -0.03626    -6.62729
Fe    -0.67886    -1.32804    -8.57733
Br    -3.07150    -0.32389    -3.64869
Br    -3.23351     2.92433    -6.73979
Br    -5.15515    -0.92688    -6.40090
Br    -6.38501     2.17195    -6.51638
Fe    -4.03438     1.06532    -5.42893
Br     5.18351     4.68269     1.99888
Br     0.66979     3.13727     1.42374
Br     2.14819     6.05911     0.69436
Br     3.63936     2.62822    -0.54644
Fe     3.03062     3.84681     1.49717
 C    -6.18295    -1.55376   -11.54416
 C    -5.44203    -0.90860   -10.56664
 C    -4.17806    -0.37786   -10.87142
 C    -3.65146    -0.63613   -12.14178
 C    -4.41750    -1.29371   -13.09678
 C    -3.49306     0.45988    -9.85216
 C    -2.13162     0.99340   -10.27254
 H    -6.28222    -2.08866   -13.55694
 H    -7.18971    -1.95277   -11.33966
 H    -5.84295    -0.81296    -9.55434
 H    -2.64421    -0.29697   -12.40575
 H    -4.04730    -1.49113   -14.11841
 N    -5.68435    -1.70715   -12.80509
 C     2.80509     1.66721    -6.59716
 C     2.92811     0.58994    -5.73335
 C     1.86659     0.23796    -4.88677
 C     0.72389     1.04391    -4.89868
 C     0.61985     2.10552    -5.79064
 C     1.92045    -0.97709    -4.02414
 C     3.15383    -0.99810    -3.12629
 H     1.53443     3.13746    -7.33773
 H     3.61592     1.96953    -7.27658
 H     3.85921     0.01496    -5.71750
 H    -0.10935     0.82799    -4.22062
 H    -0.28398     2.73995    -5.85253
 N     1.64537     2.39083    -6.63978
 C    -3.73329     4.14767   -10.29303
 C    -4.52629     3.38634   -11.13694
 C    -5.86197     3.11305   -10.79691
 C    -6.35710     3.63087    -9.59861
 C    -5.52891     4.38129    -8.76896
 C    -6.67225     2.28924   -11.73280
 C    -8.16573     2.21523   -11.44431
 H    -3.61851     5.13598    -8.46660
 H    -2.68768     4.39578   -10.53906
 H    -4.11378     3.01485   -12.08116
 H    -7.38877     3.44966    -9.29201
 H    -5.88617     4.79919    -7.81351
 N    -4.23468     4.62301    -9.11434
 C    -1.23341     0.57752    -0.10162
 C    -1.45044     1.63171    -0.97604
 C    -0.39890     2.10661    -1.77162
 C     0.82969     1.44065    -1.71117
 C     1.02101     0.40275    -0.80701
 C    -0.56264     3.30370    -2.64492
 C    -1.81564     3.19984    -3.50881
 H     0.15429    -0.74339     0.69173
 H    -2.03180     0.17036     0.53076
 H    -2.44655     2.08230    -1.03648
 H     1.65202     1.73247    -2.37234
 H     1.98802    -0.12354    -0.71219
 H    -3.42914    -0.09103    -8.88548
 H    -4.15397     1.32270    -9.58255
 H    -1.46321     0.21298   -10.65536
 H    -2.21445     1.74198   -11.07457
 H    -1.63635     1.52186    -9.43952
 H     1.00350    -1.06591    -3.40056
 H     1.90165    -1.89037    -4.66250
 H     3.20336    -0.10384    -2.49487
 H     3.14061    -1.86962    -2.45505
 H     4.08443    -1.05126    -3.70125
 H    -6.26059     1.24991   -11.75265
 H    -6.49715     2.64162   -12.77909
 H    -8.39445     1.46553   -10.67410
 H    -8.71749     1.88317   -12.34034
 H    -8.59290     3.16174   -11.09489
 H    -0.59971     4.22017    -2.00841
 H     0.32615     3.46557    -3.29384
 H    -2.73453     3.18529    -2.91177
 H    -1.79412     2.29558    -4.12802
 H    -1.89234     4.05835    -4.18853
 N    -4.69667    -5.48952     1.77964
Br     0.35179    -6.11791     1.83593
Br     2.22008    -2.20094     1.37701
Br     3.49527    -5.29813     1.60912
Fe     1.09530    -4.23993     0.51865
Br     0.08765    -2.88613    -1.27338
Br    -8.13531    -7.91797    -6.91135
Br    -3.61925    -6.33988    -6.28048
Br    -5.08322    -9.26103    -5.59265
Br    -6.61191    -5.78350    -4.37597
Fe    -5.99430    -7.06259    -6.37897
Br    -8.08129    -5.00958    -1.26102
Br    -8.06689    -2.63880    -4.71065
Br    -9.91628    -6.25921    -4.04836
Br   -11.48146    -3.22811    -4.52452
Fe    -9.26299    -4.07319    -3.16202
Br    -0.35561    -0.31097     3.48668
Br    -3.96057    -3.34020     4.00435
Br    -3.81480    -0.18270     2.56230
Br    -1.16787    -3.14499     1.74954
Fe    -2.22849    -1.80295     3.67866
 C   -10.48842    -6.30763    -9.24080
 C    -9.72910    -5.51962    -8.38915
 C    -8.40106    -5.19722    -8.71631
 C    -7.87674    -5.70035    -9.90940
 C    -8.67129    -6.47789   -10.74685
 C    -7.63000    -4.33336    -7.78058
 C    -6.12786    -4.25791    -8.02411
 H   -10.55097    -7.30173   -11.06567
 H   -11.52918    -6.58871    -9.00910
 H   -10.16517    -5.16414    -7.44957
 H    -6.84887    -5.47983   -10.20706
 H    -8.29501    -6.88109   -11.70088
 N    -9.95957    -6.76626   -10.41332
 C    -1.73695    -3.72583    -4.76793
 C    -1.54105    -4.74734    -3.85057
 C    -2.61216    -5.20081    -3.06833
 C    -3.83856    -4.53619    -3.17798
 C    -4.01032    -3.53736    -4.12859
 C    -2.48173    -6.38624    -2.17269
 C    -1.24315    -6.30467    -1.28679
 H    -3.11244    -2.44973    -5.65196
 H    -0.92278    -3.34073    -5.39565
 H    -0.54532    -5.18971    -3.74701
 H    -4.67455    -4.80218    -2.52339
 H    -4.97755    -3.02512    -4.27543
 N    -2.97042    -3.16126    -4.92499
 C    -8.18176    -0.33569    -7.99085
 C    -8.91052    -1.00773    -8.95894
 C   -10.13381    -1.61305    -8.62867
 C   -10.64233    -1.39904    -7.34316
 C    -9.89156    -0.71098    -6.39806
 C   -10.80157    -2.48037    -9.63402
 C   -12.15032    -3.03860    -9.20304
 H    -8.06086     0.17067    -5.97204
 H    -7.20372     0.12101    -8.21271
 H    -8.53249    -1.06706    -9.98259
 H   -11.62112    -1.79911    -7.06067
 H   -10.24791    -0.54370    -5.36590
 N    -8.65626    -0.22796    -6.71563
 C    -5.84684    -4.75196     1.73036
 C    -5.94208    -3.65633     0.88594
 C    -4.86300    -3.30322     0.06193
 C    -3.73025    -4.12276     0.07858
 C    -3.65132    -5.19806     0.95625
 C    -4.89257    -2.07784    -0.78659
 C    -6.08716    -2.06626    -1.73644
 H    -4.60611    -6.25543     2.45968
 H    -6.67321    -5.05958     2.38782
 H    -6.86606    -3.07027     0.86455
 H    -2.88792    -3.90975    -0.58923
 H    -2.75174    -5.83778     1.02898
 H    -7.83314    -4.64934    -6.72804
 H    -8.05182    -3.29834    -7.81324
 H    -5.60342    -3.89032    -7.12577
 H    -5.68623    -5.21519    -8.31819
 H    -5.87784    -3.53819    -8.81590
 H    -3.38513    -6.52058    -1.53689
 H    -2.45429    -7.31245    -2.79591
 H    -1.29831    -5.44078    -0.61430
 H    -1.15601    -7.20086    -0.65760
 H    -0.31529    -6.23065    -1.86485
 H   -10.12218    -3.33295    -9.89064
 H   -10.88233    -1.94362   -10.60701
 H   -12.04896    -3.78377    -8.40002
 H   -12.64001    -3.57805   -10.03226
 H   -12.83446    -2.26945    -8.82619
 H    -4.91534    -1.17136    -0.13937
 H    -3.95063    -1.97033    -1.36882
 H    -7.03987    -1.99713    -1.20123
 H    -6.11675    -2.96812    -2.35771
 H    -6.03964    -1.20660    -2.42026
