  184
 
 N     0.00000     0.00000     0.00000
Br     5.18944     0.00000     0.00000
Br     7.43716     3.08952     0.00000
Br     8.02930     0.28646    -2.51136
Fe     6.40069     1.48019    -1.32000
Br     5.02894     2.52179    -2.86029
Br     1.99303    -3.74557   -10.79236
Br     4.93161    -2.23265    -8.88570
Br     3.40045    -5.55567    -7.78498
Br     1.44878    -2.30997    -7.36330
Fe     2.97058    -3.46896    -8.71894
Br    -0.08566    -0.99837    -3.91221
Br    -0.24602     1.52256    -6.77206
Br    -2.49314    -1.56758    -6.77257
Br    -3.08588     1.23609    -4.26070
Fe    -1.45673     0.04219    -5.45124
Br     2.95093     5.26795     4.02113
Br     0.01181     3.75521     2.11364
Br     1.54357     7.07762     1.01241
Br     3.49518     3.83235     0.59208
Fe     1.97284     4.99152     1.94689
 C    -1.22019    -1.22102   -10.73509
 C    -0.23396    -0.37271   -10.23626
 C     0.78272     0.04247   -11.09413
 C     0.76649    -0.40937   -12.41038
 C    -0.26611    -1.25688   -12.81109
 C     1.89944     0.98061   -10.59627
 C     2.95637     0.81277   -10.53499
 H    -2.01298    -2.30214   -12.33802
 H    -2.00182    -1.53312   -10.05790
 H    -0.25616    -0.04330    -9.20643
 H     1.53631    -0.11068   -13.10681
 H    -0.26468    -1.59884   -13.83556
 N    -1.25145    -1.66424   -12.00048
 C     5.96772     0.73542    -6.41441
 C     5.83325    -0.38995    -5.60315
 C     4.56497    -0.72275    -5.13485
 C     3.48923     0.08332    -5.49803
 C     3.73061     1.18786    -6.31462
 C     4.35679    -1.95641    -4.23421
 C     3.99463    -2.01492    -3.22702
 H     5.08663     2.36211    -7.38713
 H     6.95819     0.98055    -6.77152
 H     6.69377    -0.99013    -5.34380
 H     2.48970    -0.14114    -5.15538
 H     2.88680     1.80307    -6.58758
 N     4.94373     1.52227    -6.77379
 C    -1.43169     5.21882    -7.72971
 C    -2.42154     4.37420    -8.22695
 C    -3.43670     3.96189    -7.36563
 C    -3.41519     4.41269    -6.04837
 C    -2.37885     5.25624    -5.65083
 C    -4.55834     3.02744    -7.86074
 C    -5.61495     3.19816    -7.91947
 H    -0.63134     6.29868    -6.12847
 H    -0.65088     5.52995    -8.40862
 H    -2.40361     4.04598    -9.25577
 H    -4.18381     4.11588    -5.34980
 H    -2.37563     5.59764    -4.62612
 N    -1.39560     5.66238    -6.46457
 C    -1.02430     0.78713    -0.35764
 C    -0.88929     1.91232    -1.16808
 C     0.37910     2.24488    -1.63745
 C     1.45390     1.43815    -1.27558
 C     1.21234     0.33294    -0.45994
 C     0.58713     3.47860    -2.53728
 C     0.94968     3.53630    -3.54572
 H    -0.14285    -0.84107     0.61326
 H    -2.01486     0.54166    -0.00103
 H    -1.74936     2.51352    -1.42670
 H     2.45402     1.66193    -1.61884
 H     2.05663    -0.28334    -0.18817
 H     1.60757     1.22622    -9.57520
 H     1.80487     1.86649   -11.22426
 H     3.24479     0.69039    -9.49099
 H     3.21402    -0.08855   -11.09117
 H     3.48503     1.66579   -10.96040
 H     3.67439    -2.58962    -4.80121
 H     5.33929    -2.42662    -4.19309
 H     2.92567    -1.80228    -3.21228
 H     4.17127    -3.01655    -2.83505
 H     4.51874    -1.28546    -2.60954
 H    -4.46490     2.14121    -7.23308
 H    -4.26983     2.78103    -8.88258
 H    -6.04052     3.19106    -6.91601
 H    -6.07744     2.41168    -8.51585
 H    -5.80131     4.16532    -8.38634
 H    -0.39526     3.94906    -2.57835
 H     1.26975     4.11170    -1.97044
 H     0.12588     3.78669    -4.21412
 H     1.37301     2.57450    -3.83526
 H     1.71828     4.30633    -3.61205
 N    -4.58940    -5.94462     1.72663
Br     0.60003    -5.94462     1.72663
Br     2.84775    -2.85510     1.72663
Br     3.43989    -5.65816    -0.78473
Fe     1.81128    -4.46443     0.40663
Br     0.43954    -3.42283    -1.13366
Br    -2.59637    -9.69019    -9.06573
Br     0.34220    -8.17727    -7.15907
Br    -1.18896   -11.50029    -6.05835
Br    -3.14063    -8.25459    -5.63667
Fe    -1.61882    -9.41358    -6.99231
Br    -4.67507    -6.94300    -2.18558
Br    -4.83542    -4.42207    -5.04543
Br    -7.08255    -7.51220    -5.04594
Br    -7.67528    -4.70853    -2.53407
Fe    -6.04614    -5.90244    -3.72461
Br    -1.63848    -0.67667     5.74776
Br    -4.57759    -2.18942     3.84027
Br    -3.04584     1.13299     2.73904
Br    -1.09423    -2.11227     2.31871
Fe    -2.61657    -0.95311     3.67352
 C    -5.80959    -7.16565    -9.00845
 C    -4.82337    -6.31734    -8.50963
 C    -3.80669    -5.90215    -9.36749
 C    -3.82292    -6.35399   -10.68375
 C    -4.85552    -7.20150   -11.08446
 C    -2.68996    -4.96401    -8.86964
 C    -1.63304    -5.13185    -8.80836
 H    -6.60239    -8.24676   -10.61139
 H    -6.59123    -7.47774    -8.33127
 H    -4.84557    -5.98792    -7.47980
 H    -3.05309    -6.05531   -11.38018
 H    -4.85409    -7.54346   -12.10893
 N    -5.84085    -7.60887   -10.27385
 C     1.37832    -5.20920    -4.68778
 C     1.24384    -6.33457    -3.87652
 C    -0.02443    -6.66737    -3.40821
 C    -1.10017    -5.86130    -3.77140
 C    -0.85879    -4.75676    -4.58799
 C    -0.23262    -7.90103    -2.50758
 C    -0.59478    -7.95955    -1.50039
 H     0.49722    -3.58252    -5.66050
 H     2.36879    -4.96408    -5.04489
 H     2.10436    -6.93475    -3.61717
 H    -2.09971    -6.08576    -3.42875
 H    -1.70261    -4.14155    -4.86094
 N     0.35433    -4.42235    -5.04716
 C    -6.02110    -0.72581    -6.00308
 C    -7.01094    -1.57042    -6.50032
 C    -8.02610    -1.98273    -5.63900
 C    -8.00460    -1.53194    -4.32174
 C    -6.96826    -0.68838    -3.92420
 C    -9.14774    -2.91718    -6.13411
 C   -10.20435    -2.74647    -6.19284
 H    -5.22074     0.35406    -4.40184
 H    -5.24028    -0.41468    -6.68199
 H    -6.99301    -1.89864    -7.52914
 H    -8.77321    -1.82875    -3.62317
 H    -6.96503    -0.34699    -2.89949
 N    -5.98500    -0.28224    -4.73794
 C    -5.61370    -5.15749     1.36899
 C    -5.47869    -4.03230     0.55855
 C    -4.21030    -3.69974     0.08918
 C    -3.13550    -4.50647     0.45105
 C    -3.37706    -5.61168     1.26669
 C    -4.00228    -2.46602    -0.81065
 C    -3.63973    -2.40833    -1.81909
 H    -4.73225    -6.78569     2.33989
 H    -6.60427    -5.40296     1.72561
 H    -6.33877    -3.43110     0.29993
 H    -2.13539    -4.28269     0.10779
 H    -2.53278    -6.22796     1.53847
 H    -2.98183    -4.71840    -7.84857
 H    -2.78454    -4.07813    -9.49763
 H    -1.34461    -5.25423    -7.76436
 H    -1.37539    -6.03318    -9.36454
 H    -1.10437    -4.27884    -9.23377
 H    -0.91502    -8.53424    -3.07458
 H     0.74988    -8.37124    -2.46646
 H    -1.66373    -7.74690    -1.48565
 H    -0.41814    -8.96117    -1.10842
 H    -0.07066    -7.23008    -0.88291
 H    -9.05430    -3.80342    -5.50645
 H    -8.85924    -3.16359    -7.15595
 H   -10.62992    -2.75356    -5.18938
 H   -10.66684    -3.53294    -6.78922
 H   -10.39071    -1.77930    -6.65971
 H    -4.98466    -1.99556    -0.85172
 H    -3.31965    -1.83292    -0.24381
 H    -4.46353    -2.15794    -2.48749
 H    -3.21639    -3.37012    -2.10863
 H    -2.87112    -1.63829    -1.88542
