   60
 
Cu     0.00000     0.00000     0.00000
Cl     2.25589     0.00000     0.00000
Cl    -0.03430     2.25932     0.00000
Cl    -2.33762    -0.23301    -0.17063
Cl    -0.16695    -2.34409    -0.23346
Cu    -2.50444    -2.57805    -0.40379
Cl    -4.75906    -2.57690    -0.40406
Cl    -2.46954    -4.83653    -0.40475
 C    -2.32255     5.49296    -3.82877
 C    -3.34727     4.45239    -3.89386
 C    -3.11536     3.12753    -3.62506
 C    -1.89669     2.85764    -3.07288
 C    -0.97763     3.91655    -2.83660
 N    -1.11555     5.18258    -3.31761
 C    -4.33903     1.97547    -3.47866
 C    -4.10712     0.65061    -3.20986
 C    -5.55770     2.24536    -4.03084
 C    -5.13044    -0.38977    -3.27493
 C    -6.47603     1.18635    -4.26779
 N    -6.33817    -0.07928    -3.78542
 H    -2.53127     6.50100    -4.18711
 H    -4.35856     4.74776    -4.17341
 H    -1.62877     1.83334    -2.81380
 H    -0.10048     3.69918    -2.22712
 H    -0.92532     5.82943    -2.55223
 H    -3.09578     0.35557    -2.93013
 H    -5.82599     3.26971    -4.28932
 H    -4.92106    -1.39794    -2.91738
 H    -7.35232     1.40294    -4.87877
 H    -7.03108    -0.20924    -3.04827
Cu    -2.46603    -0.16947     3.13294
Cl    -0.21014    -0.16947     3.13294
Cl    -2.50033     2.08985     3.13294
Cl    -4.80366    -0.40248     2.96231
Cl    -2.63298    -2.51356     2.89948
Cu    -4.97048    -2.74752     2.72914
Cl    -7.22510    -2.74637     2.72887
Cl    -4.93557    -5.00600     2.72819
 C    -4.78859     5.32349    -0.69583
 C    -5.81331     4.28292    -0.76093
 C    -5.58139     2.95806    -0.49212
 C    -4.36273     2.68817     0.06005
 C    -3.44366     3.74708     0.29634
 N    -3.58159     5.01311    -0.18467
 C    -6.80507     1.80600    -0.34573
 C    -6.57315     0.48114    -0.07692
 C    -8.02373     2.07589    -0.89790
 C    -7.59647    -0.55924    -0.14200
 C    -8.94206     1.01688    -1.13485
 N    -8.80421    -0.24875    -0.65249
 H    -4.99730     6.33153    -1.05417
 H    -6.82460     4.57828    -1.04048
 H    -4.09481     1.66387     0.31914
 H    -2.56651     3.52971     0.90582
 H    -3.39136     5.65995     0.58070
 H    -5.56182     0.18610     0.20280
 H    -8.29203     3.10024    -1.15639
 H    -7.38709    -1.56742     0.21555
 H    -9.81836     1.23347    -1.74583
 H    -9.49712    -0.37871     0.08466
