  640
 
 N     0.00000     0.00000     0.00000
 C     0.89669    -1.64458    -2.10669
 C     1.01239    -2.06659    -0.77197
 H     1.45192    -3.03434    -0.52415
 C     0.54952    -1.21978     0.24547
 H     0.61252    -1.51740     1.29990
 C    -0.08289     0.40893    -1.29464
 H    -0.50501     1.40937    -1.46672
 C     0.34429    -0.38277    -2.37060
 H     0.24078    -0.02400    -3.39665
 N     2.07247    -4.26700    -5.30622
 C     1.32333    -2.52751    -3.21595
 C     0.53260    -2.64450    -4.36967
 H    -0.39284    -2.06934    -4.47713
 C     0.93817    -3.52052    -5.38572
 H     0.33491    -3.64006    -6.29682
 C     2.84236    -4.13112    -4.19225
 H     3.75974    -4.73312    -4.16373
 C     2.50759    -3.27660    -3.13224
 H     3.16179    -3.19136    -2.26045
 N     2.11910    -8.40315    -2.89702
 C     1.28364    -6.72155    -0.79547
 C     1.18396    -6.29843    -2.12977
 H     0.77544    -5.31713    -2.37745
 C     1.61568    -7.16407    -3.14501
 H     1.56400    -6.86637    -4.19985
 C     2.18810    -8.81211    -1.60175
 H     2.57386    -9.82662    -1.42905
 C     1.78923    -8.00259    -0.52879
 H     1.87559    -8.36103     0.49907
 N     0.18361    -4.09751     2.42806
 C     0.88477    -5.83111     0.31792
 C     1.70961    -5.70460     1.44593
 H     2.63773    -6.27957     1.52768
 C     1.33039    -4.82766     2.47074
 H     1.96513    -4.69597     3.35862
 C    -0.62197    -4.24743     1.34156
 H    -1.55094    -3.66283     1.34537
 C    -0.30891    -5.09533     0.26942
 H    -0.98592    -5.18881    -0.58350
 N    -4.74523    -3.75122    -0.04159
 C    -3.78709    -5.36652     2.06155
 C    -3.80733    -5.84574     0.74288
 H    -3.45435    -6.85554     0.51607
 C    -4.28734    -5.01106    -0.27520
 H    -4.30561    -5.34624    -1.31955
 C    -4.74489    -3.30620     1.24345
 H    -5.13230    -2.29204     1.40405
 C    -4.27542    -4.07617     2.31823
 H    -4.29325    -3.67356     3.33383
 N    -2.14329    -7.70860     5.26629
 C    -3.23786    -6.20072     3.15471
 C    -3.91319    -6.31103     4.37861
 H    -4.88029    -5.82343     4.52347
 C    -3.33355    -7.06806     5.40753
 H    -3.82962    -7.17704     6.38109
 C    -1.51530    -7.62585     4.06214
 H    -0.57506    -8.18106     3.97466
 C    -2.02409    -6.88688     2.98607
 H    -1.48869    -6.85376     2.03266
 N    -1.05768    -4.09911     7.94606
 C    -2.08810    -2.53384     5.84092
 C    -2.03455    -2.02750     7.14826
 H    -2.38831    -1.01624     7.36424
 C    -1.51700    -2.83792     8.16841
 H    -1.46652    -2.48027     9.20459
 C    -1.09113    -4.57026     6.67043
 H    -0.69898    -5.58387     6.51931
 C    -1.59633    -3.82521     5.59503
 H    -1.60116    -4.24487     4.58625
 N    -3.80865    -0.24337     2.63743
 C    -2.66779    -1.72427     4.74493
 C    -2.00115    -1.60021     3.51749
 H    -1.02799    -2.07195     3.36522
 C    -2.60177    -0.85229     2.49329
 H    -2.10870    -0.72472     1.51971
 C    -4.43373    -0.35021     3.84140
 H    -5.39291     0.17179     3.93078
 C    -3.90073    -1.07468     4.91621
 H    -4.43142    -1.12182     5.87219
 N     8.92859     0.16243     0.10805
 C     9.80801    -1.52054    -1.97416
 C     9.90711    -1.93113    -0.63577
 H    10.32714    -2.90398    -0.37646
 C     9.45492    -1.06431     0.36968
 H     9.50957    -1.35106     1.42748
 C     8.85306     0.55636    -1.19147
 H     8.44355     1.56006    -1.37557
 C     9.27303    -0.25451    -2.25551
 H     9.18034     0.09259    -3.28686
 N    11.04315    -4.10041    -5.18254
 C    10.24546    -2.40408    -3.07834
 C     9.45208    -2.54132    -4.22765
 H     8.51169    -1.98999    -4.32924
 C     9.87972    -3.39957    -5.24961
 H     9.27313    -3.53926    -6.15578
 C    11.81461    -3.94543    -4.07201
 H    12.75571    -4.50964    -4.05554
 C    11.45224    -3.11652    -3.00088
 H    12.10256    -3.01921    -2.12827
 N    11.02024    -8.26187    -2.81549
 C    10.22509    -6.56801    -0.71171
 C    10.08756    -6.15772    -2.04635
 H     9.66325    -5.18285    -2.29161
 C    10.50361    -7.02852    -3.06387
 H    10.42969    -6.74034    -4.11988
 C    11.12427    -8.65868    -1.51878
 H    11.51974    -9.67026    -1.34712
 C    10.75008    -7.84068    -0.44345
 H    10.87141    -8.18230     0.58603
 N     9.15093    -3.96297     2.53373
 C     9.84257    -5.67520     0.40506
 C    10.71307    -5.49639     1.49091
 H    11.67286    -6.02189     1.53284
 C    10.33353    -4.63553     2.52950
 H    10.99689    -4.47074     3.39059
 C     8.30966    -4.15466     1.48151
 H     7.35701    -3.61089     1.51975
 C     8.61498    -4.99610     0.40213
 H     7.90781    -5.12871    -0.42066
 N     4.20801    -3.59135     0.09949
 C     5.16896    -5.20709     2.20146
 C     5.10876    -5.70059     0.88916
 H     5.42895    -6.72239     0.66573
 C     4.62570    -4.86626    -0.12833
 H     4.56987    -5.21533    -1.16688
 C     4.24855    -3.13105     1.37841
 H     3.89087    -2.10491     1.53382
 C     4.71963    -3.90129     2.45242
 H     4.73178    -3.48709     3.46359
 N     6.79895    -7.58866     5.38407
 C     5.71553    -6.04570     3.29269
 C     5.06976    -6.11687     4.53539
 H     4.13473    -5.57905     4.70800
 C     5.64047    -6.89851     5.55130
 H     5.16254    -6.98815     6.53660
 C     7.40418    -7.53237     4.16679
 H     8.32294    -8.12029     4.06166
 C     6.89763    -6.77952     3.09934
 H     7.41104    -6.77155     2.13337
 N     7.84155    -3.97557     8.08940
 C     6.85598    -2.36820     5.99391
 C     6.91925    -1.87333     7.30535
 H     6.59225    -0.85416     7.52977
 C     7.41362    -2.70504     8.32028
 H     7.47027    -2.35760     9.35967
 C     7.79948    -4.43615     6.81028
 H     8.16668    -5.45819     6.65197
 C     7.31524    -3.67041     5.73983
 H     7.30015    -4.08415     4.72889
 N     5.17777    -0.04220     2.79397
 C     6.29543    -1.54098     4.90118
 C     6.94177    -1.46357     3.65890
 H     7.89078    -1.97880     3.49392
 C     6.35389    -0.70497     2.63543
 H     6.83168    -0.61289     1.65036
 C     4.57421    -0.10184     4.01201
 H     3.64155     0.46366     4.11210
 C     5.09768    -0.83174     5.08751
 H     4.58476    -0.84016     6.05357
 N     1.85579     8.61587     0.21251
 C     2.67203     6.90943    -1.87550
 C     2.77200     6.49724    -0.53796
 H     3.17338     5.51506    -0.28266
 C     2.34829     7.37481     0.47073
 H     2.39705     7.08541     1.52789
 C     1.78803     9.01445    -1.08612
 H     1.41060    10.03113    -1.26606
 C     2.17665     8.19227    -2.15287
 H     2.08896     8.54035    -3.18389
 N     3.75166     4.27185    -5.09541
 C     3.05983     6.00839    -2.98414
 C     2.22628     5.87495    -4.10536
 H     1.29263     6.44250    -4.17925
 C     2.60379     5.00052    -5.13323
 H     1.96739     4.87011    -6.01977
 C     4.55987     4.42050    -4.01043
 H     5.48617     3.83175    -4.01518
 C     4.25317     5.27200    -2.93935
 H     4.93443     5.36734    -2.08971
 N     3.94789     0.16033    -2.67591
 C     3.06530     1.82301    -0.57777
 C     2.97295     2.24782    -1.91267
 H     2.55508     3.22456    -2.16287
 C     3.42653     1.39173    -2.92597
 H     3.37699     1.69079    -3.98067
 C     4.01556    -0.24839    -1.38072
 H     4.41886    -1.25595    -1.20577
 C     3.59387     0.55192    -0.30884
 H     3.68103     0.19077     0.71814
 N     1.86653     4.44391     2.61297
 C     2.63139     2.70567     0.52882
 C     3.41477     2.82432     1.68679
 H     4.33635     2.24484     1.80273
 C     3.00490     3.70483     2.69724
 H     3.60837     3.83321     3.60726
 C     1.09810     4.29850     1.49893
 H     0.17383     4.88959     1.47033
 C     1.44323     3.44765     0.43944
 H     0.79433     3.35790    -0.43585
 N    -3.08602     4.76415     0.14478
 C    -2.07496     3.17589     2.24191
 C    -2.11636     2.68412     0.92886
 H    -1.76238     1.67412     0.70593
 C    -2.62285     3.50638    -0.08722
 H    -2.65930     3.16208    -1.12838
 C    -3.06491     5.22145     1.42562
 H    -3.45935     6.23267     1.58531
 C    -2.56821     4.46511     2.49716
 H    -2.57073     4.87536     3.50974
 N    -0.36745     0.88942     5.45491
 C    -1.50333     2.35761     3.33568
 C    -2.17138     2.24208     4.56310
 H    -3.14699     2.71224     4.70799
 C    -1.57317     1.50245     5.59395
 H    -2.06641     1.38612     6.56817
 C     0.25429     0.97926     4.24797
 H     1.20950     0.45041     4.16136
 C    -0.27717     1.69483     3.16650
 H     0.25035     1.72574     2.20894
 N     0.60704     4.42025     8.12730
 C    -0.37538     6.01313     6.01808
 C    -0.33639     6.50770     7.33063
 H    -0.68343     7.52089     7.54964
 C     0.15585     5.68419     8.35243
 H     0.19159     6.03255     9.39204
 C     0.58936     3.96085     6.84751
 H     0.97332     2.94411     6.69430
 C     0.10805     4.71955     5.76982
 H     0.11472     4.30701     4.75799
 N    -2.04251     8.35690     2.82580
 C    -0.93559     6.83869     4.92364
 C    -0.26688     6.95454     3.69673
 H     0.69507     6.46163     3.53969
 C    -0.85112     7.72064     2.67649
 H    -0.35747     7.84094     1.70249
 C    -2.67032     8.25837     4.02913
 H    -3.61582     8.80440     4.12130
 C    -2.15478     7.51403     5.09848
 H    -2.68794     7.46926     6.05313
 N    10.75964     8.73973     0.33426
 C    11.59657     7.03891    -1.74927
 C    11.70436     6.63120    -0.41121
 H    12.11904     5.65564    -0.15376
 C    11.27078     7.50673     0.59523
 H    11.32759     7.22194     1.65326
 C    10.68058     9.13235    -0.96565
 H    10.28619    10.14199    -1.14813
 C    11.07903     8.31225    -2.03017
 H    10.98397     8.65425    -3.06278
 N    12.75126     4.45504    -4.98369
 C    12.00519     6.14838    -2.85871
 C    11.17031     5.99007    -3.97533
 H    10.21875     6.52758    -4.04310
 C    11.57347     5.13473    -5.00916
 H    10.93579     4.98114    -5.89135
 C    13.56077     4.62860    -3.90339
 H    14.51208     4.08153    -3.92029
 C    13.22485     5.45591    -2.82238
 H    13.90380     5.56921    -1.97376
 N    12.85410     0.32049    -2.60231
 C    12.00422     1.98862    -0.49807
 C    11.88397     2.40756    -1.83217
 H    11.45497     3.38018    -2.07784
 C    12.32553     1.54934    -2.84945
 H    12.26247     1.84444    -3.90449
 C    12.94410    -0.08406    -1.30705
 H    13.35144    -1.09128    -1.13511
 C    12.54214     0.72087    -0.23141
 H    12.65183     0.36918     0.79586
 N    10.84050     4.57731     2.73024
 C    11.58888     2.87007     0.61632
 C    12.41848     3.02649     1.73733
 H    13.36895     2.48806     1.81299
 C    12.01212     3.88718     2.76609
 H    12.64527     4.03855     3.65219
 C    10.03580     4.40321     1.64661
 H     9.08932     4.95896     1.65392
 C    10.37069     3.56500     0.57372
 H     9.69172     3.44781    -0.27506
 N     5.89408     4.94475     0.29774
 C     6.88887     3.34328     2.39318
 C     6.80795     2.84034     1.08578
 H     7.12553     1.81762     0.86440
 C     6.30693     3.66835     0.07131
 H     6.23197     3.31231    -0.96389
 C     5.95538     5.41423     1.57293
 H     5.60041     6.44116     1.72765
 C     6.44316     4.65074     2.64356
 H     6.47092     5.06997     3.65214
 N     8.57677     1.01672     5.58688
 C     7.45301     2.51682     3.48462
 C     6.80971     2.43870     4.72836
 H     5.86238     2.95576     4.89655
 C     7.39996     1.67762     5.74874
 H     6.92395     1.58195     6.73437
 C     9.17811     1.07892     4.36789
 H    10.11312     0.51705     4.26597
 C     8.65000     1.80782     3.29387
 H     9.15851     1.81573     2.32532
 N     9.52190     4.55877     8.28513
 C     8.57514     6.18175     6.18251
 C     8.61599     6.66704     7.49878
 H     8.28634     7.68531     7.72469
 C     9.09031     5.82817     8.51668
 H     9.12708     6.16840     9.55913
 C     9.50230     4.10777     7.00234
 H     9.87090     3.08597     6.84395
 C     9.03753     4.88118     5.92811
 H     9.03913     4.47311     4.91450
 N     6.95486     8.55795     2.99140
 C     8.03256     7.02066     5.08972
 C     8.68451     7.09349     3.85001
 H     9.62347     6.56057     3.68315
 C     8.11590     7.87041     2.82979
 H     8.59655     7.95825     1.84599
 C     6.34472     8.50209     4.20599
 H     5.42587     9.08970     4.30710
 C     6.84681     7.75006     5.27642
 H     6.32695     7.73977     6.23873
 N     0.92908     0.73887    10.93166
 C     1.78965    -0.94444     8.84152
 C     1.88485    -1.36122    10.17856
 H     2.29633    -2.33944    10.43333
 C     1.44117    -0.49493    11.18803
 H     1.49096    -0.78759    12.24443
 C     0.86002     1.13999     9.63401
 H     0.46428     2.14994     9.45406
 C     1.26986     0.32907     8.56585
 H     1.17997     0.68289     7.53676
 N     2.95926    -3.57861     5.65094
 C     2.21129    -1.83554     7.73719
 C     1.41822    -1.95683     6.58596
 H     0.49393    -1.38013     6.47742
 C     1.82146    -2.83766     5.57312
 H     1.21289    -2.96431     4.66632
 C     3.73342    -3.43531     6.76110
 H     4.65481    -4.03108     6.78693
 C     3.39770    -2.58096     7.82084
 H     4.05254    -2.49155     8.69182
 N     3.02371    -7.72734     8.05992
 C     2.18667    -6.03705    10.15332
 C     2.09035    -5.61866     8.81730
 H     1.68374    -4.63768     8.56514
 C     2.52279    -6.48860     7.80606
 H     2.47381    -6.19491     6.75005
 C     3.08961    -8.13175     9.35680
 H     3.47369    -9.14621     9.53361
 C     2.68971    -7.31782    10.42608
 H     2.77322    -7.67229    11.45561
 N     1.07746    -3.40142    13.36452
 C     1.78536    -5.14211    11.26237
 C     2.60797    -5.00971    12.39130
 H     3.53722    -5.58250    12.47664
 C     2.22552    -4.12918    13.41198
 H     2.85830    -3.99220    14.30038
 C     0.27429    -3.55687    12.27696
 H    -0.65601    -2.97407    12.27720
 C     0.59084    -4.40803    11.20842
 H    -0.08418    -4.50446    10.35410
 N    -3.84620    -3.05970    10.90758
 C    -2.88115    -4.66859    13.01226
 C    -2.90025    -5.14960    11.69460
 H    -2.54472    -6.15893    11.46925
 C    -3.38320    -4.31766    10.67512
 H    -3.40002    -4.65366     9.63110
 C    -3.84651    -2.61272    12.19206
 H    -4.23768    -1.59998    12.35170
 C    -3.37317    -3.37927    13.26744
 H    -3.39145    -2.97531    14.28261
 N    -1.23321    -7.00507    16.21889
 C    -2.32976    -5.49954    14.10696
 C    -3.00589    -5.61179    15.33008
 H    -3.97350    -5.12552    15.47525
 C    -2.42566    -6.36894    16.35887
 H    -2.92340    -6.48122    17.33132
 C    -0.60234    -6.91773    15.01636
 H     0.34097    -7.46788    14.93083
 C    -1.11267    -6.18047    13.93999
 H    -0.57618    -6.14476    12.98758
 N    -0.14236    -3.39785    18.90003
 C    -1.17428    -1.83620    16.79368
 C    -1.11944    -1.32763    18.10011
 H    -1.47223    -0.31558    18.31441
 C    -0.60170    -2.13659    19.12123
 H    -0.55214    -1.77782    20.15710
 C    -0.17681    -3.87120    17.62530
 H     0.21545    -4.88484    17.47529
 C    -0.68362    -3.12824    16.54924
 H    -0.69003    -3.54967    15.54124
 N    -2.90285     0.45024    13.59209
 C    -1.75619    -1.02847    15.69769
 C    -1.09338    -0.90678    14.46813
 H    -0.12190    -1.38104    14.31256
 C    -1.69654    -0.15880    13.44534
 H    -1.20603    -0.03133    12.47061
 C    -3.52510     0.34408    14.79774
 H    -4.48471     0.86466    14.88890
 C    -2.98851    -0.37819    15.87204
 H    -3.51574    -0.42313    16.82984
 N     9.82823     0.85641    11.05895
 C    10.70294    -0.82203     8.97152
 C    10.80388    -1.23593    10.30888
 H    11.22373    -2.20972    10.56508
 C    10.35394    -0.37131    11.31711
 H    10.41040    -0.66051    12.37417
 C     9.75007     1.25311     9.76042
 H     9.34159     2.25758     9.57914
 C    10.16697     0.44420     8.69357
 H    10.07158     0.79391     7.66322
 N    11.93554    -3.41096     5.76986
 C    11.14103    -1.70451     7.86684
 C    10.34882    -1.84279     6.71715
 H     9.41130    -1.28767     6.61147
 C    10.77379    -2.70795     5.69975
 H    10.16546    -2.85131     4.79522
 C    12.70849    -3.25122     6.87887
 H    13.64904    -3.81607     6.89750
 C    12.34730    -2.41788     7.94663
 H    12.99789    -2.31818     8.81874
 N    11.92298    -7.57789     8.13740
 C    11.12994    -5.87766    10.23662
 C    10.99413    -5.47027     8.90086
 H    10.57138    -4.49542     8.65272
 C    11.40971    -6.34395     7.88565
 H    11.33829    -6.05787     6.82884
 C    12.02532    -7.97202     9.43505
 H    12.41878    -8.98405     9.60905
 C    11.65235    -7.15075    10.50826
 H    11.77258    -7.49018    11.53858
 N    10.05119    -3.26743    13.47652
 C    10.74722    -4.98200    11.35119
 C    11.61559    -4.80177    12.43862
 H    12.57518    -5.32744    12.48325
 C    11.23416    -3.93890    13.47517
 H    11.89527    -3.77275    14.33771
 C     9.21187    -3.46075    12.42297
 H     8.25857    -2.91795    12.45930
 C     9.51988    -4.30251    11.34475
 H     8.81483    -4.43453    10.51977
 N     5.11794    -2.89499    11.04446
 C     6.07264    -4.51311    13.14731
 C     6.01557    -5.00529    11.83430
 H     6.33513    -6.02758    11.61161
 C     5.53689    -4.16930    10.81615
 H     5.48574    -4.51610     9.77657
 C     5.15337    -2.43668    12.32430
 H     4.79384    -1.41129    12.48020
 C     5.62208    -3.20784    13.39854
 H     5.63170    -2.79468    14.41032
 N     7.70257    -6.89107    16.33236
 C     6.61859    -5.35106    14.23914
 C     5.97175    -5.42259    15.48124
 H     5.03666    -4.88500    15.65332
 C     6.54249    -6.20361    16.49771
 H     6.06287    -6.29461    17.48225
 C     8.30957    -6.83345    15.11579
 H     9.23017    -7.41907    15.01233
 C     7.80271    -6.08269    14.04751
 H     8.31699    -6.07390    13.08203
 N     8.75279    -3.27392    19.04242
 C     7.76787    -1.66746    16.94633
 C     7.83352    -1.17103    18.25707
 H     7.50892    -0.15111    18.48061
 C     8.32745    -2.00250    19.27243
 H     8.38526    -1.65409    20.31147
 C     8.70753    -3.73646    17.76409
 H     9.07185    -4.75955    17.60646
 C     8.22316    -2.97137    16.69347
 H     8.20460    -3.38704    15.68333
 N     6.08507     0.65479    13.74617
 C     7.20642    -0.84119    15.85336
 C     7.84580    -0.77336    14.60689
 H     8.79048    -1.29536    14.43825
 C     7.25660    -0.01517    13.58393
 H     7.72949     0.07087    12.59599
 C     5.48764     0.60307    14.96751
 H     4.55771     1.17252    15.07038
 C     6.01415    -0.12404    16.04340
 H     5.50706    -0.12373    17.01256
 N     2.75455     9.31307    11.15864
 C     3.56983     7.61288     9.06573
 C     3.67114     7.19704    10.40205
 H     4.07331     6.21429    10.65414
 C     3.24778     8.07160    11.41341
 H     3.29787     7.77944    12.46979
 C     2.68505     9.71491     9.86104
 H     2.30715    10.73172     9.68362
 C     3.07260     8.89564     8.79166
 H     2.98284     9.24651     7.76165
 N     4.64799     4.97020     5.85049
 C     3.95872     6.71360     7.95616
 C     3.12495     6.57869     6.83579
 H     2.19267     7.14799     6.75962
 C     3.50016     5.69907     5.81157
 H     2.86104     5.56394     4.92739
 C     5.45854     5.12389     6.93278
 H     6.38585     4.53653     6.92832
 C     5.15283     5.97835     8.00165
 H     5.83516     6.07645     8.85019
 N     4.85602     0.84626     8.28472
 C     3.97320     2.51994    10.37421
 C     3.88044     2.93753     9.03709
 H     3.46238     3.91273     8.78134
 C     4.33393     2.07597     8.02822
 H     4.28384     2.36898     6.97183
 C     4.92352     0.44405     9.58202
 H     5.32713    -0.56264     9.76178
 C     4.50153     1.24986    10.64952
 H     4.58790     0.89365    11.67837
 N     2.77046     5.14498    13.56050
 C     3.53905     3.40661    11.47759
 C     4.31961     3.52456    12.63774
 H     5.24046     2.94438    12.75582
 C     3.90823     4.40532    13.64732
 H     4.50932     4.53362    14.55888
 C     2.00506     5.00087    12.44425
 H     1.08097     5.59243    12.41367
 C     2.35281     4.15142    11.38458
 H     1.70704     4.06529    10.50684
 N    -2.19263     5.45890    11.09634
 C    -1.17681     3.87274    13.19237
 C    -1.21296     3.38257    11.87868
 H    -0.85195     2.37578    11.65329
 C    -1.72262     4.20391    10.86307
 H    -1.75520     3.86139     9.82104
 C    -2.17445     5.91489    12.37788
 H    -2.57291     6.92449    12.53821
 C    -1.67568     5.15978    13.44880
 H    -1.68067     5.56868    14.46202
 N     0.53433     1.59201    16.40673
 C    -0.60431     3.05610    14.28669
 C    -1.27229     2.94017    15.51415
 H    -2.24798     3.40973    15.65970
 C    -0.67268     2.20185    16.54537
 H    -1.16628     2.08451    17.51946
 C     1.15677     1.68321    15.20006
 H     2.11395     1.15775    15.11459
 C     0.62383     2.39664    14.11819
 H     1.15177     2.42964    13.16082
 N     1.52472     5.11804    19.08856
 C     0.54152     6.70616    16.97606
 C     0.58349     7.20469    18.28721
 H     0.23847     8.21899    18.50389
 C     1.07626     6.38351    19.31049
 H     1.11424     6.73514    20.34901
 C     1.50394     4.65462    17.81030
 H     1.88570     3.63671    17.65957
 C     1.02205     5.41083    16.73112
 H     1.02586     4.99499    15.72063
 N    -1.13102     9.04611    13.78352
 C    -0.02030     7.52973    15.88086
 C     0.64344     7.63980    14.65063
 H     1.60305     7.14265    14.49089
 C     0.05757     8.40530    13.63107
 H     0.54728     8.52198    12.65466
 C    -1.75399     8.95295    14.98963
 H    -2.69755     9.50178    15.08487
 C    -1.23593     8.21011    16.05893
 H    -1.76521     8.17109    17.01592
 N    11.64847     9.42991    11.28099
 C    12.48871     7.73792     9.19190
 C    12.59947     7.32696    10.52877
 H    13.01788     6.35201    10.78315
 C    12.16395     8.19791    11.53818
 H    12.22278     7.91036    12.59532
 C    11.56653     9.82576     9.98222
 H    11.16890    10.83453     9.80244
 C    11.96598     9.00991     8.91491
 H    11.86759     9.35477     7.88335
 N    13.64356     5.14746     5.96322
 C    12.89901     6.84940     8.08164
 C    12.06493     6.68948     6.96485
 H    11.11516     7.22938     6.89360
 C    12.46661     5.82834     5.93510
 H    11.82753     5.67112     5.05453
 C    14.45416     5.32578     7.04203
 H    15.40548     4.77896     7.02712
 C    14.11867     6.15694     8.12001
 H    14.79795     6.27308     8.96793
 N    13.74740     1.00867     8.35206
 C    12.90262     2.68288    10.45339
 C    12.78711     3.10135     9.11872
 H    12.36367     4.07610     8.87132
 C    13.22603     2.24000     8.10290
 H    13.16635     2.53434     7.04740
 C    13.83312     0.60462     9.64773
 H    14.23554    -0.40448     9.82095
 C    13.43310     1.41239    10.72200
 H    13.53834     1.06089    11.74971
 N    11.74241     5.27568    13.67936
 C    12.48970     3.56669    11.56663
 C    13.31783     3.72071    12.68916
 H    14.26683     3.17971    12.76593
 C    12.91242     4.58264    13.71713
 H    13.54400     4.73354    14.60427
 C    10.93927     5.10451    12.59434
 H     9.99416     5.66250    12.59989
 C    11.27390     4.26605    11.52131
 H    10.59682     4.15299    10.67054
 N     6.80015     5.63498    11.24381
 C     7.79547     4.03656    13.34122
 C     7.71763     3.53302    12.03392
 H     8.03718     2.51053    11.81390
 C     7.21724     4.35979    11.01807
 H     7.14639     4.00431     9.98246
 C     6.85730     6.10450    12.51911
 H     6.49818     7.13007    12.67346
 C     7.34594     5.34292    13.59061
 H     7.37128     5.76278    14.59910
 N     9.48170     1.71215    16.53747
 C     8.35983     3.21207    14.43406
 C     7.71631     3.13528    15.67768
 H     6.76991     3.65386    15.84588
 C     8.30530     2.37353    16.69844
 H     7.82799     2.27746    17.68352
 C    10.08433     1.77435    15.31899
 H    11.01921     1.21214    15.21797
 C     9.55728     2.50324    14.24458
 H    10.06669     2.51125    13.27658
 N    10.44352     5.25880    19.23645
 C     9.49482     6.88118    17.13448
 C     9.54131     7.36842    18.44989
 H     9.21542     8.38790    18.67563
 C    10.01645     6.52980    19.46750
 H    10.05724     6.87153    20.50934
 C    10.41833     4.80565    17.95460
 H    10.78275     3.78234    17.79655
 C     9.95247     5.57872    16.88076
 H     9.94934     5.16866    15.86789
 N     7.85994     9.25167    13.94598
 C     8.94857     7.71867    16.04238
 C     9.59038     7.78315    14.79716
 H    10.52590     7.24578    14.62510
 C     9.01627     8.55804    13.77817
 H     9.48964     8.63956    12.79009
 C     7.25990     9.20388    15.16607
 H     6.34449     9.79595    15.27235
 C     7.76787     8.45490    16.23541
 H     7.25602     8.45223    17.20198
