   60
 
Cu     0.00000     0.00000     0.00000
Cl     2.26266    -0.11462    -0.31375
Cl    -0.00824     2.25905     0.23764
Cl    -2.31945    -0.09243     0.31141
Cl    -0.13598    -2.26026    -0.45331
Cu    -2.46235    -2.35116    -0.15511
Cl    -4.71937    -2.25161     0.16127
Cl    -2.50146    -4.60273    -0.43960
 C    -2.40392     5.55495    -3.40281
 C    -3.38647     4.57037    -3.51017
 C    -3.14344     3.25526    -3.06325
 C    -1.88640     2.99043    -2.49343
 C    -0.91689     3.99301    -2.38932
 N    -1.18286     5.25856    -2.84685
 C    -4.17311     2.19159    -3.19122
 C    -3.95230     0.88667    -2.70542
 C    -5.40838     2.44824    -3.80924
 C    -4.93190    -0.09893    -2.83169
 C    -6.38089     1.44938    -3.91615
 N    -6.13239     0.19155    -3.43147
 H    -2.56967     6.59398    -3.76675
 H    -4.35257     4.87725    -3.95120
 H    -1.61304     1.99864    -2.09323
 H     0.08470     3.78878    -1.94849
 H    -0.46557     6.02703    -2.70318
 H    -3.00647     0.58731    -2.22059
 H    -5.66185     3.42843    -4.24786
 H    -4.77468    -1.13447    -2.45282
 H    -7.37059     1.65265    -4.38175
 H    -6.85862    -0.57542    -3.57897
Cu    -2.44138    -0.15361     2.90744
Cl    -0.18231    -0.23560     2.59451
Cl    -2.42500     2.10469     3.18097
Cl    -4.75556    -0.24115     3.21129
Cl    -2.57477    -2.41036     2.44539
Cu    -4.90581    -2.50134     2.75379
Cl    -7.16360    -2.36742     3.07063
Cl    -4.92246    -4.75611     2.50381
 C    -4.85346     5.37839    -0.48016
 C    -5.83398     4.39213    -0.58997
 C    -5.59752     3.08225    -0.12412
 C    -4.34921     2.82503     0.46749
 C    -3.37856     3.82720     0.56511
 N    -3.63892     5.08739     0.09187
 C    -6.62419     2.01569    -0.25362
 C    -6.38917     0.70614     0.21252
 C    -7.86957     2.27199    -0.85220
 C    -7.36576    -0.28298     0.09034
 C    -8.83549     1.26711    -0.96503
 N    -8.57522     0.00593    -0.49340
 H    -5.01737     6.41458    -0.85327
 H    -6.79297     4.69400    -1.04827
 H    -4.08289     1.84078     0.89019
 H    -2.37964     3.62529     1.01163
 H    -2.91646     5.85652     0.23029
 H    -5.43309     0.40608     0.67776
 H    -8.13646     3.25763    -1.27078
 H    -7.20142    -1.32001     0.46157
 H    -9.82900     1.46651    -1.42599
 H    -9.29004    -0.76420    -0.64494
