  188
 
 S     0.00000     0.00000     0.00000
 O    -1.92202    -2.88014    -2.56421
 O     0.46270    -2.52427    -1.92360
 O     0.79504    -4.16369    -6.16460
 N    -0.04327    -3.91736    -4.03995
 C     0.33252    -3.46446    -5.28958
 C     0.05833    -1.99780    -5.39161
 C    -0.41220    -1.41797    -4.19823
 C    -0.72373    -0.07813    -4.15556
 H    -1.02604     0.41928    -3.22673
 C    -0.64266     0.66978    -5.34320
 H    -0.95099     1.71927    -5.33018
 C    -0.18709     0.09305    -6.51764
 H    -0.14780     0.67933    -7.44004
 C     0.20654    -1.25399    -6.54219
 H     0.60660    -1.70105    -7.45515
 H     0.03349    -4.90410    -3.75842
 O     1.35653     0.25469    -0.39755
 O    -1.02861    -0.12256    -1.01154
 O    -1.33454     1.55164     3.22112
 N    -0.51031     1.29262     1.09265
 C    -0.88139     0.84601     2.34659
 C    -0.61391    -0.62163     2.45253
 C    -0.12951    -1.20195     1.26474
 C     0.20473    -2.53623     1.22967
 H     0.53228    -3.02956     0.30658
 C     0.11374    -3.28289     2.41740
 H     0.43999    -4.32677     2.41341
 C    -0.37380    -2.71087     3.58112
 H    -0.43266    -3.29796     4.50143
 C    -0.77557    -1.36608     3.60034
 H    -1.19136    -0.92016     4.50713
 H    -0.58439     2.27980     0.81068
 O    -4.03725    -6.51651    -0.31468
 N    -5.13378    -4.59440    -0.78502
 N    -3.14262    -4.59442     0.53097
 C    -4.11463    -5.28653    -0.19965
 C    -2.10857    -5.37438     1.14777
 C    -1.02257    -5.73301     0.33925
 H    -1.01514    -5.44825    -0.71764
 C     0.02966    -6.45391     0.88931
 H     0.88110    -6.73125     0.26622
 C     0.00570    -6.81295     2.23727
 H     0.84979    -7.35797     2.66921
 C    -1.08362    -6.47039     3.02752
 H    -1.09112    -6.74994     4.08293
 C    -2.16608    -5.75717     2.49497
 C    -3.30471    -5.45360     3.34972
 H    -3.56346    -6.25238     4.06088
 C    -4.01650    -4.31769     3.33990
 H    -4.82951    -4.17674     4.07068
 C    -3.81768    -3.18206     2.45199
 C    -4.07430    -1.89498     2.94605
 H    -4.36783    -1.78508     3.99358
 C    -3.97000    -0.78130     2.12327
 H    -4.17769     0.21571     2.51438
 C    -3.60317    -0.93195     0.78492
 H    -3.55985    -0.06029     0.12397
 C    -3.31687    -2.19365     0.27920
 H    -3.00417    -2.31633    -0.76751
 C    -3.42777    -3.31461     1.11087
 H    -5.14393    -3.58865    -0.87579
 H    -5.78618    -5.10489    -1.37973
 O     3.47169     3.92211    -2.61129
 N     4.54394     1.98611    -2.14184
 N     2.57582     2.01955    -3.49406
 C     3.53846     2.69286    -2.73536
 C     1.53637     2.80368    -4.09549
 C     0.45982     3.16173    -3.27371
 H     0.46885     2.88554    -2.21470
 C    -0.60532     3.87186    -3.81266
 H    -1.44925     4.14938    -3.17924
 C    -0.60516     4.21996    -5.16354
 H    -1.46155     4.75128    -5.58837
 C     0.47703     3.88458    -5.96607
 H     0.46732     4.15920    -7.02270
 C     1.57375     3.18501    -5.44421
 C     2.70669     2.89723    -6.31189
 H     2.95082     3.70291    -7.02038
 C     3.43154     1.76987    -6.31275
 H     4.24071     1.64047    -7.04926
 C     3.24454     0.62743    -5.43115
 C     3.50121    -0.65378    -5.93963
 H     3.79429    -0.75058    -6.98853
 C     3.39533    -1.77627    -5.12934
 H     3.59831    -2.76888    -5.53246
 C     3.03023    -1.63962    -3.78890
 H     2.98383    -2.51917    -3.13831
 C     2.74952    -0.38332    -3.26735
 H     2.43960    -0.27200    -2.21862
 C     2.85930     0.74617    -4.08747
 H     4.52995     0.98156    -2.03688
 H     5.19253     2.48939    -1.53657
 S    -0.55921    -2.63158    -2.94292
 S     7.22496     0.10982    -0.04354
 O     5.32266    -2.77040    -2.58770
 O     7.69578    -2.40260    -1.91837
 O     8.08725    -4.03812    -6.15965
 N     7.22320    -3.79871    -4.04419
 C     7.61512    -3.34134    -5.28745
 C     7.34101    -1.87530    -5.39041
 C     6.84532    -1.30124    -4.20448
 C     6.51772     0.03475    -4.16650
 H     6.17990     0.52428    -3.24572
 C     6.62103     0.78709    -5.34990
 H     6.30445     1.83412    -5.34144
 C     7.10863     0.21765    -6.51511
 H     7.16869     0.80700    -7.43405
 C     7.50783    -1.12790    -6.53597
 H     7.92622    -1.57225    -7.44233
 H     7.30666    -4.78583    -3.76423
 O     8.57654     0.35381    -0.46219
 O     6.17772    -0.01490    -1.03634
 O     5.94324     1.70818     3.17727
 N     6.73720     1.42115     1.03923
 C     6.38275     0.99197     2.30398
 C     6.65187    -0.47450     2.42609
 C     7.10903    -1.07611     1.23827
 C     7.43600    -2.41289     1.21918
 H     7.73294    -2.92627     0.29666
 C     7.38032    -3.13608     2.42342
 H     7.70646    -4.18044     2.42997
 C     6.92546    -2.54121     3.58906
 H     6.89907    -3.11006     4.52261
 C     6.51773    -1.19808     3.59096
 H     6.11823    -0.73722     4.49718
 H     6.67097     2.40599     0.74910
 O     3.22828    -6.33481    -0.34510
 N     2.18891    -4.38503    -0.84144
 N     4.13579    -4.43535     0.53643
 C     3.17432    -5.10401    -0.23031
 C     5.16933    -5.22719     1.13959
 C     6.24945    -5.58829     0.32286
 H     6.24697    -5.31098    -0.73589
 C     7.31141    -6.30235     0.86387
 H     8.15773    -6.57931     0.23288
 C     7.30495    -6.65505     2.21340
 H     8.15909    -7.18875     2.64070
 C     6.21725    -6.32119     3.00974
 H     6.21966    -6.60297     4.06432
 C     5.12493    -5.61527     2.48609
 C     3.98834    -5.32344     3.34845
 H     3.73308    -6.13254     4.04891
 C     3.27300    -4.18989     3.35258
 H     2.46164    -4.05868     4.08665
 C     3.46642    -3.04428     2.47598
 C     3.21403    -1.76312     2.98780
 H     2.93205    -1.66710     4.04000
 C     3.30674    -0.63983     2.17712
 H     3.10526     0.35188     2.58322
 C     3.65480    -0.77654     0.83221
 H     3.68425     0.10142     0.17813
 C     3.94242    -2.03130     0.31010
 H     4.24798    -2.13793    -0.74071
 C     3.84700    -3.16256     1.13068
 H     2.21721    -3.38045    -0.94193
 H     1.53103    -4.87730    -1.44427
 O    10.76634     4.02588    -2.61557
 N    11.86623     2.10519    -2.14640
 N     9.89891     2.10983    -3.49784
 C    10.85304     2.79741    -2.74108
 C     8.86155     2.89067    -4.10851
 C     7.77744     3.24857    -3.29623
 H     7.77496     2.96742    -2.23855
 C     6.72111     3.96762    -3.84127
 H     5.87382     4.24734    -3.21312
 C     6.73800     4.32568    -5.18950
 H     5.89121     4.86988    -5.61751
 C     7.82626     3.98692    -5.98307
 H     7.82962     4.26936    -7.03786
 C     8.91411     3.27718    -5.45545
 C    10.05547     2.98627    -6.31199
 H    10.30865     3.79014    -7.01937
 C    10.77898     1.85775    -6.30550
 H    11.59768     1.72802    -7.03192
 C    10.58229     0.71414    -5.42761
 C    10.83394    -0.56827    -5.93574
 H    11.12884    -0.66733    -6.98432
 C    10.72212    -1.69034    -5.12577
 H    10.92431    -2.68385    -5.52783
 C    10.35560    -1.55181    -3.78585
 H    10.30673    -2.43076    -3.13478
 C    10.07739    -0.29409    -3.26545
 H     9.76555    -0.18111    -2.21740
 C    10.19103     0.83521    -4.08561
 H    11.87903     1.09896    -2.06069
 H    12.51346     2.61513    -1.54645
 S     6.68857    -2.51572    -2.95178
