   80
 
As     0.00000     0.00000     0.00000
As     3.60683    -0.33679    -0.07513
As     2.13568     2.97781     0.13442
 S     4.16119     2.02726    -0.41428
 S     0.18605     2.37930    -0.60033
 S     1.79208    -0.36336    -1.41333
 C     0.50840     0.43265     1.92401
 C     3.05690    -0.06097     1.82891
 C     2.17136     2.36537     2.02155
 C     1.92876     0.86987     2.33659
 C     1.97032     0.78119     3.89091
As    -2.55206     4.08050     4.59424
As    -2.80317     3.87768     0.80706
As    -4.22413     1.24963     2.96793
 S    -3.33265     1.52860     0.90662
 S    -3.04468     1.74907     4.83255
 S    -1.41601     3.98065     2.62297
 C    -4.42793     4.60881     4.14448
 C    -4.61519     4.45263     1.47115
 C    -5.59912     2.67991     2.99239
 C    -5.20942     4.16340     2.87781
 C    -6.54547     4.96452     2.93253
As     1.94524    -0.33501     9.81619
As    -1.66024    -0.00567     9.84768
As    -0.18090    -3.31711     9.66636
 S    -2.21433    -2.36890    10.18745
 S     1.75754    -2.71269    10.42311
 S     0.13694     0.02956    11.20849
 C     1.46070    -0.77715     7.88746
 C    -1.08952    -0.28442     7.95097
 C    -0.19973    -2.71032     7.77646
 C     0.04532    -1.21586     7.45922
 C     0.02136    -1.13166     5.90428
As     4.49232    -4.44061     5.25615
As     4.81420    -4.25519     9.03364
As     6.20436    -1.62168     6.86035
 S     5.34564    -1.90700     8.93383
 S     4.98615    -2.10921     5.01784
 S     3.39158    -4.34730     7.24590
 C     6.37695    -4.97043     5.66392
 C     6.61227    -4.83221     8.33564
 C     7.57606    -3.05508     6.81177
 C     7.18285    -4.53801     6.92010
 C     8.51335    -5.34562     6.83504
 H     0.19037    -0.40022     2.58691
 H    -0.21200     1.23676     2.21807
 H     4.00742     0.27912     2.32712
 H     2.88651    -1.06748     2.27831
 H     3.15977     2.66004     2.45198
 H     1.42365     2.96585     2.59490
 H     2.85239     1.28328     4.29672
 H     2.01444    -0.25918     4.23030
 H     1.09189     1.25269     4.34221
 H    -4.52482     5.71542     4.25012
 H    -5.02572     4.26082     5.03115
 H    -4.74149     5.53903     1.24892
 H    -5.32948     3.99311     0.73480
 H    -6.18281     2.53298     3.93455
 H    -6.31963     2.42946     2.17343
 H    -6.37169     6.03559     2.79240
 H    -7.05309     4.82584     3.89215
 H    -7.23450     4.64005     2.14678
 H     2.18499    -1.58326     7.60792
 H     1.78738     0.05258     7.22508
 H    -0.91504     0.72078     7.50015
 H    -2.03399    -0.62646     7.44346
 H     0.55242    -3.31238     7.21110
 H    -1.18419    -3.00659     7.33813
 H     0.90340    -1.60743     5.46438
 H    -0.85785    -1.63202     5.48978
 H    -0.01566    -0.09214     5.56147
 H     6.95646    -4.61018     4.76947
 H     6.47217    -6.07554     5.54367
 H     7.33999    -4.37947     9.06298
 H     6.74112    -5.91907     8.55119
 H     8.30549    -2.81356     7.62525
 H     8.15024    -2.90226     5.86486
 H     9.21311    -5.04324     7.61953
 H     8.33361    -6.41856     6.95301
 H     9.01077    -5.18954     5.87261
