  200
 
Ge     0.00000     0.00000     0.00000
 C     3.36643    -0.04611     0.04493
 C     4.59348     0.57157     0.05738
 C     5.26938     0.89923    -1.15576
 C     4.72890     0.52193    -2.35634
 C     3.42451    -0.06558    -2.40269
 C     2.67382    -0.23392    -1.19967
 C     4.53831    -1.44696     2.56239
 C     2.23880    -2.78431     1.01901
 C     1.58025    -0.48515     2.93148
 C     2.87145    -0.48272    -3.65512
 C     1.28168    -0.57111    -1.32421
 C     2.06562    -0.05342     4.14070
 C     0.19398    -0.84175     2.80470
 C     1.60854    -1.00931    -3.70479
 C     0.79135    -0.99780    -2.53529
 C     1.24437    -0.03302     5.30741
 C    -0.51613    -1.00256     1.56596
 C    -0.54388    -1.03388     4.01052
 C    -1.64967     0.38871    -0.97776
 C     0.59586     1.72370     0.67763
 C    -0.01225    -0.57460     5.25687
 C    -1.76071    -1.58286     1.56426
 C    -1.82316    -1.67553     3.97609
 C    -2.39338    -1.99913     2.77353
Ge     2.87086    -1.04666     1.61513
Ge    -8.56173    -0.18052     3.75189
 C    -8.69142    -0.45962     5.65602
 C    -9.07192     0.61394     6.42130
 C    -9.63802     0.43439     7.71773
 C    -9.91465    -0.82975     8.16589
 C    -9.51090    -1.96944     7.40102
 C    -8.76400    -1.78834     6.19842
 C    -9.63367     1.41239     3.37297
 C    -9.55885    -1.66330     2.98842
 C    -6.91261    -0.01814     2.76901
 C    -9.84812    -3.28906     7.84237
 C    -8.12787    -2.94707     5.63656
 C    -6.54722     1.23693     2.34345
 C    -6.27512    -1.17571     2.20586
 C    -9.39445    -4.38232     7.15416
Ge    -6.47613    -2.77662     4.65700
 C    -8.46316    -4.19865     6.08931
 C    -5.62960     1.41668     1.26537
 C    -6.33162    -2.50301     2.75588
 C    -5.52159    -0.99347     1.00758
 C    -5.45983    -4.39113     5.09046
 C    -5.52258    -1.33159     5.54509
 C    -5.17615     0.32544     0.57293
 C    -5.95115    -3.57484     1.98598
 C    -5.11321    -2.12995     0.23811
 C    -5.38892    -3.39384     0.68596
 H     5.12032     0.80209     0.98688
 H     6.23461     1.40588    -1.09915
 H     5.27168     0.66841    -3.28992
 H     5.31522    -1.71611     1.81712
 H     4.35286    -2.31592     3.22855
 H     4.89878    -0.59254     3.16529
 H     3.09733    -3.47770     0.96799
 H     1.48618    -3.15203     1.74679
 H     1.75384    -2.70113     0.02224
 H     3.47007    -0.37338    -4.55905
 H     3.10309     0.25467     4.27360
 H     1.18898    -1.39859    -4.63487
 H    -0.24707    -1.30680    -2.67070
 H     1.65309     0.38005     6.23085
 H    -1.38564     0.92674    -1.90974
 H    -2.20514    -0.53220    -1.23671
 H    -2.28696     1.03876    -0.34308
 H     1.69828     1.82094     0.57674
 H     0.33073     1.78866     1.75489
 H     0.09618     2.52867     0.10818
 H    -0.63142    -0.65323     6.14789
 H    -2.34603    -1.71292     0.65288
 H    -2.31835    -1.90305     4.91759
 H    -3.34419    -2.53337     2.71488
 H    -9.00115     1.64046     6.05742
 H    -9.88201     1.31829     8.30994
 H   -10.43508    -0.99184     9.10722
 H    -9.10468     2.34536     3.64381
 H    -9.88276     1.43508     2.29284
 H   -10.57186     1.33918     3.96277
 H    -8.86857    -2.36050     2.46401
 H   -10.05629    -2.21973     3.81302
 H   -10.31062    -1.26678     2.28247
 H   -10.46255    -3.40169     8.73388
 H    -6.95800     2.14733     2.78351
 H    -9.68831    -5.39710     7.42611
 H    -7.99187    -5.10350     5.70200
 H    -5.33469     2.43017     0.98899
 H    -4.39806    -4.21123     4.83459
 H    -5.83700    -5.27169     4.53656
 H    -5.54271    -4.58923     6.17969
 H    -4.47788    -1.64520     5.72220
 H    -6.03225    -1.12115     6.50980
 H    -5.53585    -0.40990     4.92463
 H    -4.53763     0.44010    -0.30244
 H    -6.02434    -4.60719     2.33530
 H    -4.59548    -1.96887    -0.70684
 H    -5.14785    -4.27557     0.08907
Ge     2.61077     5.16604     2.39642
 C     5.97247     5.13019     2.45877
 C     7.19694     5.75370     2.47760
 C     7.87352     6.09661     1.26923
 C     7.34289     5.71296     0.06522
 C     6.04156     5.11902     0.01220
 C     5.28712     4.94258     1.21129
 C     7.13492     3.73806     4.96275
 C     4.83542     2.37588     3.41194
 C     4.18686     4.68513     5.33973
 C     5.49133     4.70566    -1.24307
 C     3.90054     4.59269     1.08205
 C     4.67181     5.10193     6.55377
 C     2.79639     4.34440     5.20451
 C     4.23251     4.16601    -1.29687
 C     3.41814     4.15198    -0.12618
 C     3.83491     5.16310     7.70996
 C     2.10166     4.16057     3.96104
 C     2.05272     4.15887     6.40660
 C     0.96399     5.57036     1.41846
 C     3.20588     6.88444     3.08302
 C     2.57593     4.63080     7.65345
 C     0.87210     3.54790     3.95175
 C     0.78029     3.50574     6.36728
 C     0.22634     3.15865     5.16329
Ge     5.46496     4.11479     4.01687
Ge    -5.99203     5.00811     6.13239
 C    -6.13582     4.74174     8.03993
 C    -6.55097     5.81354     8.79220
 C    -7.07406     5.64244    10.10809
 C    -7.31085     4.37842    10.57756
 C    -6.90250     3.23930     9.81310
 C    -6.17393     3.41927     8.59959
 C    -7.05501     6.60714     5.75804
 C    -6.98703     3.52488     5.35936
 C    -4.34043     5.18523     5.15277
 C    -7.22861     1.92117    10.26598
 C    -5.55254     2.25709     8.02725
 C    -3.98728     6.44095     4.71958
 C    -3.68371     4.03242     4.60061
 C    -6.79511     0.82651     9.56697
Ge    -3.90293     2.40837     7.04041
 C    -5.90037     1.00428     8.46995
 C    -3.05009     6.62810     3.65966
 C    -3.74501     2.70199     5.14352
 C    -2.91501     4.21964     3.41119
 C    -2.87378     0.79940     7.47587
 C    -2.94894     3.85082     7.92447
 C    -2.57615     5.54014     2.97683
 C    -3.34885     1.63268     4.37791
 C    -2.48417     3.08609     2.65085
 C    -2.75350     1.81892     3.09442
 H     7.72419     5.97819     3.40722
 H     8.82862     6.62160     1.33208
 H     7.89310     5.85707    -0.86337
 H     7.91869     3.52022     4.20977
 H     6.97701     2.84950     5.60758
 H     7.45903     4.59259     5.58648
 H     5.68949     1.67486     3.37395
 H     4.06904     2.01269     4.12832
 H     4.37487     2.45620     2.40392
 H     6.08748     4.82954    -2.14715
 H     5.72102     5.35254     6.71149
 H     3.81320     3.78684    -2.23102
 H     2.38803     3.81249    -0.25274
 H     4.23671     5.59945     8.62632
 H     1.23316     6.13550     0.50328
 H     0.41035     4.65587     1.13077
 H     0.32259     6.20498     2.06568
 H     4.31013     6.98148     2.99951
 H     2.92880     6.94216     4.15724
 H     2.71396     7.69187     2.50995
 H     1.95100     4.56067     8.54050
 H     0.32035     3.36584     3.02889
 H     0.28146     3.28225     7.30790
 H    -0.72377     2.62431     5.10376
 H    -6.55344     6.83434     8.40550
 H    -7.31249     6.52798    10.69938
 H    -7.81086     4.21760    11.53088
 H    -6.50817     7.53172     6.01973
 H    -7.31663     6.62949     4.68070
 H    -7.98481     6.54985     6.36164
 H    -6.29958     2.83391     4.82520
 H    -7.48217     2.96754     6.18408
 H    -7.74305     3.91915     4.65632
 H    -7.83003     1.81443    11.16743
 H    -4.42577     7.35158     5.13321
 H    -7.07820    -0.18602     9.85660
 H    -5.47431     0.09797     8.03768
 H    -2.75423     7.64460     3.38929
 H    -1.81698     0.97340     7.18718
 H    -3.25976    -0.09749     6.95567
 H    -2.92538     0.63100     8.57267
 H    -1.90543     3.53435     8.10402
 H    -3.46451     4.05920     8.88627
 H    -2.96654     4.77266     7.30470
 H    -1.93094     5.65678     2.10735
 H    -3.43978     0.60062     4.72375
 H    -1.95352     3.25259     1.71378
 H    -2.48289     0.93764     2.50897
