  180
 
 O     0.00000     0.00000     0.00000
 C     0.27800    -0.15800     6.90100
 C    -0.24000     0.26300     8.11300
 C    -0.71700    -0.70600     9.05100
 H    -0.88600    -2.62800     9.02900
 H    -0.32500    -4.22100     7.51600
 H     0.28800    -3.86100     6.20100
 H     1.01300     1.09100     5.47700
 N    -0.56700    -1.98800     8.54800
 N    -0.00100    -3.60900     7.01500
 N     0.41200    -1.42200     6.44800
 N    -0.20200     1.62200     8.17000
 N     0.31600     2.06100     7.05800
 N     0.61500     0.99100     6.27600
 O    -1.22000    -0.50200    10.14800
 C    -0.04600    -2.32400     7.31600
 C    -0.43700     3.39600    -5.36900
 C    -0.76200     5.56200    -4.95400
 C    -0.24400     5.98300    -6.16600
 C     0.23200     5.01400    -7.10400
 H     0.40100     3.09200    -7.08200
 H    -0.15900     1.49900    -5.56900
 H    -0.77200     1.85900    -4.25400
 H    -1.49800     6.81100    -3.53000
 N     0.08300     3.73200    -6.60100
 N    -0.48300     2.11100    -5.06800
 N    -0.89700     4.29800    -4.50100
 N    -0.28200     7.34200    -6.22300
 N    -0.80100     7.78100    -5.11100
 N    -1.10000     6.71100    -4.32900
 O     0.73600     5.21800    -8.20100
 C    -1.17400     1.82200     2.83200
 C    -1.49900    -0.34400     3.24700
 C    -0.98000    -0.76500     2.03500
 C    -0.50400     0.20400     1.09700
 H    -0.33500     2.12600     1.12000
 H    -0.89500     3.71900     2.63200
 H    -1.50900     3.35900     3.94700
 H    -2.23400    -1.59300     4.67100
 N    -0.65300     1.48600     1.60000
 N    -1.21900     3.10700     3.13300
 N    -1.63300     0.92000     3.70000
 N    -1.01800    -2.12400     1.97800
 N    -1.53700    -2.56300     3.09000
 N    -1.83600    -1.49300     3.87200
 C     0.69000    -3.89800    -0.88500
 C     1.01500    -6.06400    -1.30000
 C     0.49700    -6.48500    -0.08800
 C     0.02000    -5.51600     0.85000
 H    -0.14900    -3.59400     0.82800
 H     0.41200    -2.00100    -0.68500
 H     1.02500    -2.36100    -2.00000
 H     1.75000    -7.31300    -2.72300
 N     0.16900    -4.23400     0.34700
 N     0.73600    -2.61300    -1.18600
 N     1.14900    -4.80000    -1.75300
 N     0.53400    -7.84400    -0.03100
 N     1.05300    -8.28300    -1.14300
 N     1.35200    -7.21300    -1.92500
 O    -0.48300    -5.72000     1.94700
 O    -3.56300     0.00000     0.00000
 C    -3.28500    -0.15800     6.90100
 C    -3.80300     0.26300     8.11300
 C    -4.28000    -0.70600     9.05100
 H    -4.44900    -2.62800     9.02900
 H    -3.88800    -4.22100     7.51600
 H    -3.27500    -3.86100     6.20100
 H    -2.55000     1.09100     5.47700
 N    -4.13000    -1.98800     8.54800
 N    -3.56400    -3.60900     7.01500
 N    -3.15100    -1.42200     6.44800
 N    -3.76500     1.62200     8.17000
 N    -3.24700     2.06100     7.05800
 N    -2.94800     0.99100     6.27600
 O    -4.78300    -0.50200    10.14800
 C    -3.60900    -2.32400     7.31600
 C    -4.00000     3.39600    -5.36900
 C    -4.32500     5.56200    -4.95400
 C    -3.80700     5.98300    -6.16600
 C    -3.33100     5.01400    -7.10400
 H    -3.16200     3.09200    -7.08200
 H    -3.72200     1.49900    -5.56900
 H    -4.33500     1.85900    -4.25400
 H    -5.06100     6.81100    -3.53000
 N    -3.48000     3.73200    -6.60100
 N    -4.04600     2.11100    -5.06800
 N    -4.46000     4.29800    -4.50100
 N    -3.84500     7.34200    -6.22300
 N    -4.36400     7.78100    -5.11100
 N    -4.66300     6.71100    -4.32900
 O    -2.82700     5.21800    -8.20100
 C    -4.73700     1.82200     2.83200
 C    -5.06200    -0.34400     3.24700
 C    -4.54300    -0.76500     2.03500
 C    -4.06700     0.20400     1.09700
 H    -3.89800     2.12600     1.12000
 H    -4.45800     3.71900     2.63200
 H    -5.07200     3.35900     3.94700
 H    -5.79700    -1.59300     4.67100
 N    -4.21600     1.48600     1.60000
 N    -4.78200     3.10700     3.13300
 N    -5.19600     0.92000     3.70000
 N    -4.58100    -2.12400     1.97800
 N    -5.10000    -2.56300     3.09000
 N    -5.39900    -1.49300     3.87200
 C    -2.87300    -3.89800    -0.88500
 C    -2.54800    -6.06400    -1.30000
 C    -3.06600    -6.48500    -0.08800
 C    -3.54300    -5.51600     0.85000
 H    -3.71200    -3.59400     0.82800
 H    -3.15100    -2.00100    -0.68500
 H    -2.53800    -2.36100    -2.00000
 H    -1.81300    -7.31300    -2.72300
 N    -3.39400    -4.23400     0.34700
 N    -2.82700    -2.61300    -1.18600
 N    -2.41400    -4.80000    -1.75300
 N    -3.02900    -7.84400    -0.03100
 N    -2.51000    -8.28300    -1.14300
 N    -2.21100    -7.21300    -1.92500
 O    -4.04600    -5.72000     1.94700
 O    -7.12600     0.00000     0.00000
 C    -6.84800    -0.15800     6.90100
 C    -7.36600     0.26300     8.11300
 C    -7.84300    -0.70600     9.05100
 H    -8.01200    -2.62800     9.02900
 H    -7.45100    -4.22100     7.51600
 H    -6.83800    -3.86100     6.20100
 H    -6.11300     1.09100     5.47700
 N    -7.69300    -1.98800     8.54800
 N    -7.12700    -3.60900     7.01500
 N    -6.71400    -1.42200     6.44800
 N    -7.32800     1.62200     8.17000
 N    -6.81000     2.06100     7.05800
 N    -6.51100     0.99100     6.27600
 O    -8.34600    -0.50200    10.14800
 C    -7.17200    -2.32400     7.31600
 C    -7.56300     3.39600    -5.36900
 C    -7.88800     5.56200    -4.95400
 C    -7.37000     5.98300    -6.16600
 C    -6.89400     5.01400    -7.10400
 H    -6.72500     3.09200    -7.08200
 H    -7.28500     1.49900    -5.56900
 H    -7.89800     1.85900    -4.25400
 H    -8.62400     6.81100    -3.53000
 N    -7.04300     3.73200    -6.60100
 N    -7.60900     2.11100    -5.06800
 N    -8.02300     4.29800    -4.50100
 N    -7.40800     7.34200    -6.22300
 N    -7.92700     7.78100    -5.11100
 N    -8.22600     6.71100    -4.32900
 O    -6.39000     5.21800    -8.20100
 C    -8.30000     1.82200     2.83200
 C    -8.62500    -0.34400     3.24700
 C    -8.10600    -0.76500     2.03500
 C    -7.63000     0.20400     1.09700
 H    -7.46100     2.12600     1.12000
 H    -8.02100     3.71900     2.63200
 H    -8.63500     3.35900     3.94700
 H    -9.36000    -1.59300     4.67100
 N    -7.77900     1.48600     1.60000
 N    -8.34500     3.10700     3.13300
 N    -8.75900     0.92000     3.70000
 N    -8.14400    -2.12400     1.97800
 N    -8.66300    -2.56300     3.09000
 N    -8.96200    -1.49300     3.87200
 C    -6.43600    -3.89800    -0.88500
 C    -6.11100    -6.06400    -1.30000
 C    -6.62900    -6.48500    -0.08800
 C    -7.10600    -5.51600     0.85000
 H    -7.27500    -3.59400     0.82800
 H    -6.71400    -2.00100    -0.68500
 H    -6.10100    -2.36100    -2.00000
 H    -5.37600    -7.31300    -2.72300
 N    -6.95700    -4.23400     0.34700
 N    -6.39000    -2.61300    -1.18600
 N    -5.97700    -4.80000    -1.75300
 N    -6.59200    -7.84400    -0.03100
 N    -6.07300    -8.28300    -1.14300
 N    -5.77400    -7.21300    -1.92500
 O    -7.60900    -5.72000     1.94700
