  180
 
 O     0.00000     0.00000     0.00000
 C     0.43617     0.58816     6.78561
 C    -0.01298     1.11956     8.03777
 C    -0.50859     0.25380     9.07434
 H    -0.74404    -1.83083     9.41284
 H    -0.39466    -3.61996     7.82141
 H     0.25710    -3.24959     6.20964
 H     1.17599     1.75882     5.09755
 N    -0.49240    -1.13975     8.67898
 N    -0.11951    -2.91839     7.10667
 N     0.46920    -0.74130     6.44682
 N     0.12506     2.51473     7.98438
 N     0.59839     2.84331     6.83377
 N     0.81448     1.71693     6.06325
 O    -0.96277     0.51869    10.16933
 C    -0.02320    -1.59095     7.41943
 C     0.16927     4.18883    -5.32319
 C    -0.30740     6.37184    -4.71831
 C     0.14103     6.89183    -5.97431
 C     0.64323     6.01700    -7.00177
 H     0.87723     3.92888    -7.32016
 H     0.55648     2.15806    -5.70274
 H    -0.09180     2.54355    -4.09007
 H    -1.06969     7.55836    -3.04963
 N     0.62957     4.62686    -6.59094
 N     0.27285     2.86647    -4.99510
 N    -0.32750     5.04759    -4.36026
 N    -0.00607     8.28607    -5.93887
 N    -0.48894     8.62536    -4.79437
 N    -0.69914     7.50678    -4.01137
 O     1.09923     6.27855    -8.09509
 C    -0.85765     2.09975     2.78294
 C    -1.36110    -0.07524     3.39798
 C    -0.93785    -0.60271     2.13561
 C    -0.43603     0.26339     1.10351
 H    -0.15692     2.34526     0.78200
 H    -0.45160     4.12561     2.39871
 H    -1.07093     3.74579     4.02212
 H    -2.11448    -1.24568     5.07966
 N    -0.41606     1.65296     1.51197
 N    -0.71979     3.41993     3.11231
 N    -1.35994     1.25089     3.75123
 N    -1.10815    -1.99484     2.17487
 N    -1.57728    -2.32551     3.32651
 N    -1.75751    -1.20314     4.11272
 C     1.02842    -3.79552    -0.70284
 C     1.53439    -5.97511    -1.29746
 C     1.09679    -6.49340    -0.03734
 C     0.57972    -5.62090     0.98392
 H     0.29759    -3.53707     1.28636
 H     0.61529    -1.77007    -0.33061
 H     1.27201    -2.15058    -1.94110
 H     2.30351    -7.16125    -2.96501
 N     0.56891    -4.23372     0.56426
 N     0.91017    -2.47607    -1.03602
 N     1.53676    -4.65238    -1.66159
 N     1.26694    -7.88488    -0.06221
 N     1.75070    -8.22390    -1.20667
 N     1.93849    -7.10920    -1.99926
 O     0.12715    -5.88296     2.07853
 O    -3.61927    -0.00938     0.31069
 C    -3.21039     0.55201     7.10128
 C    -3.65344     1.08153     8.35610
 C    -4.14817     0.21399     9.39154
 H    -4.38341    -1.87092     9.72953
 H    -4.03241    -3.65950     8.13405
 H    -3.38926    -3.28273     6.51935
 H    -2.47089     1.72556     5.41529
 N    -4.14138    -1.17900     8.99263
 N    -3.76438    -2.95565     7.41869
 N    -3.18057    -0.77698     6.76067
 N    -3.51146     2.47641     8.30610
 N    -3.04214     2.80726     7.15459
 N    -2.83251     1.68173     6.37972
 O    -4.60045     0.47864    10.48713
 C    -3.67033    -1.62850     7.73310
 C    -3.46865     4.14941    -5.01264
 C    -3.94032     6.33480    -4.41101
 C    -3.48926     6.85075    -5.66770
 C    -2.98232     5.97376    -6.69076
 H    -2.74219     3.88526    -7.00270
 H    -3.09189     2.11505    -5.38890
 H    -3.75310     2.50870    -3.78251
 H    -4.70153     7.52789    -2.74365
 N    -2.99413     4.58473    -6.27523
 N    -3.38008     2.82610    -4.68531
 N    -3.96489     5.01130    -4.05167
 N    -3.63738     8.24484    -5.63657
 N    -4.12115     8.58711    -4.49320
 N    -4.33110     7.47216    -3.70624
 O    -2.52042     6.23240    -7.78220
 C    -4.49357     2.08411     3.09387
 C    -4.99400    -0.09315     3.70317
 C    -4.56852    -0.61750     2.44022
 C    -4.06129     0.25101     1.41173
 H    -3.78429     2.33421     1.09810
 H    -4.09486     4.11241     2.71294
 H    -4.72439     3.72856     4.33137
 H    -5.74811    -1.26812     5.38162
 N    -4.04179     1.63918     1.82603
 N    -4.36599     3.40499     3.42381
 N    -4.99633     1.23210     4.05925
 N    -4.74046    -2.00932     2.47560
 N    -5.21124    -2.34284     3.62583
 N    -5.39140    -1.22265     4.41486
 C    -2.61998    -3.81394    -0.39200
 C    -2.11154    -5.99526    -0.97555
 C    -2.54678    -6.50829     0.28785
 C    -3.06696    -5.63127     1.30508
 H    -3.34403    -3.54542     1.59719
 H    -3.02711    -1.78320    -0.03088
 H    -2.37388    -2.18098    -1.63939
 H    -1.33993    -7.18682    -2.63647
 N    -3.08633    -4.24696     0.87395
 N    -2.73891    -2.49643    -0.73284
 N    -2.10956    -4.67469    -1.34674
 N    -2.37412    -7.89964     0.26803
 N    -1.89162    -8.24375    -0.87535
 N    -1.70640    -7.13127    -1.67347
 O    -3.52004    -5.88826     2.40028
 O    -7.26143    -0.05510     0.62694
 C    -6.84199     0.53118     7.40686
 C    -7.28173     1.06366     8.66152
 C    -7.76971     0.19817     9.70099
 H    -8.00160    -1.88648    10.04546
 H    -7.67637    -3.67516     8.44761
 H    -7.04528    -3.30673     6.82712
 H    -6.10375     1.70022     5.71760
 N    -7.75792    -1.19607     9.30864
 N    -7.41269    -2.97399     7.72825
 N    -6.81630    -0.79849     7.06758
 N    -7.14061     2.45871     8.60801
 N    -6.67321     2.78684     7.45496
 N    -6.46509     1.65932     6.68241
 O    -8.21518     0.46549    10.79974
 C    -7.30357    -1.64752     8.04332
 C    -7.11571     4.12779    -4.70367
 C    -7.58653     6.31137    -4.09267
 C    -7.13276     6.83227    -5.34453
 C    -6.62692     5.95847    -6.37172
 H    -6.38533     3.87204    -6.69379
 H    -6.72765     2.09863    -5.08863
 H    -7.39544     2.47620    -3.48200
 H    -8.34666     7.49710    -2.41992
 N    -6.64419     4.56788    -5.96612
 N    -7.02427     2.80314    -4.38284
 N    -7.61354     4.98517    -3.74014
 N    -7.27658     8.22641    -5.30883
 N    -7.76284     8.56397    -4.16551
 N    -7.97575     7.44579    -3.38372
 O    -6.16606     6.22185    -7.46430
 C    -8.13879     2.04388     3.40609
 C    -8.63744    -0.13220     4.02066
 C    -8.20917    -0.65906     2.75940
 C    -7.70212     0.20646     1.72824
 H    -7.42953     2.29038     1.41105
 H    -7.73649     4.06956     3.01984
 H    -8.37329     3.69573     4.63654
 H    -9.38830    -1.30369     5.70340
 N    -7.68543     1.59584     2.13936
 N    -8.01090     3.36567     3.73253
 N    -8.64204     1.19429     4.37267
 N    -8.37915    -2.05112     2.79846
 N    -8.85095    -2.38194     3.94902
 N    -9.03425    -1.26019     4.73441
 C    -6.25698    -3.85429    -0.08280
 C    -5.74500    -6.03323    -0.67044
 C    -6.17902    -6.54963     0.59199
 C    -6.69488    -5.67617     1.61384
 H    -6.96523    -3.58922     1.91181
 H    -6.67490    -1.82754     0.28164
 H    -6.03357    -2.21573    -1.33292
 H    -4.96879    -7.22088    -2.33397
 N    -6.70820    -4.28966     1.18870
 N    -6.38638    -2.53728    -0.42292
 N    -5.74752    -4.71229    -1.04007
 N    -6.00533    -7.94095     0.56908
 N    -5.52229    -8.28135    -0.57516
 N    -5.33913    -7.16788    -1.37123
 O    -7.14418    -5.93486     2.71038
