  104
 
 C     0.00000     0.00000     0.00000
 C     1.39655     0.00243    -0.06677
 C     2.09133     1.21481    -0.09719
 C     1.39452     2.42721    -0.05961
 C    -2.63267     4.76325     1.35885
 C    -3.85800     4.66278     2.02724
 C    -4.54499     3.44805     2.06071
 C    -4.00530     2.32557     1.42608
 C    -2.20630     1.22523     0.04500
 C    -0.77308     3.72941    -0.01635
 C    -0.70387     1.20985     0.02446
 C    -0.00433     2.43364    -0.00716
 C    -2.77359     2.41424     0.76766
 C    -2.07804     3.64222     0.73099
 H    -0.53746    -0.95069     0.03785
 H     1.93616    -0.94635    -0.08460
 H     3.17816     1.21920    -0.14221
 H     1.94548     3.36649    -0.07224
 H    -2.12643     5.72944     1.31732
 H    -4.27929     5.53827     2.51785
 H    -5.50007     3.37482     2.57851
 H    -4.55150     1.38285     1.43050
 H    -2.55432     1.30577    -1.02001
 H    -2.59649     0.27192     0.48645
 H    -0.99940     3.98209    -1.08858
 H    -0.13771     4.54394     0.40279
 C    -3.09817    -2.70587     0.80214
 C    -3.91281    -1.76148     1.43274
 C    -3.45735    -1.10301     2.57833
 C    -2.18660    -1.37835     3.09420
 C     2.33887    -2.85973     2.14750
 C     3.24353    -3.26049     1.15827
 C     2.78491    -3.90563     0.00777
 C     1.41954    -4.16159    -0.15457
 C    -0.96053    -4.04464     0.68212
 C    -0.02353    -2.68810     3.04279
 C    -1.83129    -2.99917     1.32012
 C    -1.37264    -2.33361     2.47451
 C     0.50702    -3.75203     0.82458
 C     0.96869    -3.09362     1.98507
 H    -3.45377    -3.21313    -0.09656
 H    -4.89861    -1.53889     1.01901
 H    -4.09207    -0.37239     3.07304
 H    -1.83339    -0.84920     3.97728
 H     2.71428    -2.37693     3.05344
 H     4.30853    -3.07302     1.28784
 H     3.49025    -4.20888    -0.76365
 H     1.06935    -4.69247    -1.03877
 H    -1.16114    -5.01768     1.20491
 H    -1.23345    -4.16070    -0.39687
 H    -0.16473    -3.55941     3.73815
 H     0.37130    -1.83227     3.63762
 C     2.75072     4.62775     2.69451
 C     4.14746     4.63974     2.62528
 C     4.83778     5.85547     2.63816
 C     4.13540     7.06348     2.70039
 C     0.15278     9.36570     4.18472
 C    -1.04743     9.25612     4.89647
 C    -1.73412     8.04048     4.93412
 C    -1.21996     6.92623     4.26330
 C     0.53840     5.84022     2.81554
 C     1.95550     8.34643     2.72225
 C     2.04036     5.83248     2.74935
 C     2.73617     7.05903     2.73347
 C    -0.01094     7.02272     3.56443
 C     0.67960     8.25333     3.51825
 H     2.21823     3.67453     2.71505
 H     4.69190     3.69542     2.58330
 H     5.92569     5.86746     2.61599
 H     4.68288     8.00546     2.72788
 H     0.66456    10.32918     4.14160
 H    -1.45003    10.12279     5.41845
 H    -2.67042     7.96041     5.48592
 H    -1.76665     5.98442     4.27376
 H     0.15206     5.91494     1.76346
 H     0.17107     4.88441     3.27156
 H     1.69226     8.57409     1.65538
 H     2.59113     9.18230     3.09939
 C    -0.27955     1.93663     3.64437
 C    -1.08746     2.87813     4.29016
 C    -0.63913     3.49894     5.45908
 C     0.61470     3.17906     5.99183
 C     5.11722     1.69598     5.07292
 C     6.03355     1.34687     4.07423
 C     5.59227     0.74062     2.89633
 C     4.23048     0.47998     2.71196
 C     1.84083     0.56748     3.51838
 C     2.74264     1.80779     5.95210
 C     0.97011     1.60177     4.17800
 C     1.41785     2.21989     5.36456
 C     3.30677     0.84960     3.69526
 C     3.75149     1.45803     4.89015
 H    -0.62832     1.46849     2.72005
 H    -2.06279     3.12921     3.86900
 H    -1.26240     4.23711     5.95873
 H     0.96381     3.68184     6.89352
 H     5.48382     2.14019     6.00140
 H     7.09211     1.54912     4.21764
 H     6.30771     0.46968     2.12203
 H     3.89012    -0.02148     1.80623
 H     1.63494    -0.41923     4.01450
 H     1.58457     0.48719     2.43045
 H     2.56297     0.89240     6.58024
 H     3.13529     2.60898     6.62179
