  100
 
In     0.00000     0.00000     0.00000
 N     0.11813     2.12515     0.41339
 C    -0.07150     3.28229     0.47490
 S    -0.29740     4.87193     0.59695
 N    -2.06106     0.40880    -0.56414
 C    -3.05368     0.95478    -0.87266
 S    -4.40467     1.71569    -1.32700
 N     0.65059     0.44698    -2.16516
 C     1.87010     0.98988    -2.40029
 H     2.51254     1.18336    -1.52682
 C     2.30954     1.29995    -3.68972
 H     3.30315     1.72980    -3.83939
 C     1.46931     1.05595    -4.77230
 H     1.79150     1.29147    -5.79006
 C     0.21126     0.50958    -4.53085
 H    -0.48400     0.31237    -5.34905
 C    -0.16747     0.21124    -3.22023
 H    -1.16097    -0.22234    -3.01738
 N    -0.12997    -2.12760    -0.39755
 N     2.05457    -0.41995     0.58424
 N    -0.65515    -0.44598     2.16806
 C     0.03410    -3.28962    -0.43454
 C     3.03488    -0.97710     0.91238
 C    -1.87129    -0.99654     2.40090
 C     0.15625    -0.19723     3.22531
 S     0.22828    -4.88651    -0.51701
 S     4.36634    -1.75374     1.39797
 H    -2.50762    -1.19983     1.52525
 C    -2.31299    -1.30437     3.69018
 C    -0.22641    -0.48763     4.53621
 H     1.14799     0.23823     3.02156
 H    -3.30199    -1.74420     3.83754
 C    -1.48057    -1.04388     4.77462
 H     0.46419    -0.28126     5.35638
 H    -1.80354    -1.27842     5.79200
 N    -7.18235    -6.55445    -5.42168
 C    -7.64782    -5.92783    -4.32053
 H    -8.56781    -5.34430    -4.45222
 C    -7.00540    -6.00769    -3.07983
 H    -7.43116    -5.50876    -2.21157
 C    -5.83662    -6.76061    -2.97784
 H    -5.33214    -6.87125    -2.01531
 C    -5.33288    -7.38530    -4.11639
 H    -4.41552    -7.96855    -4.07527
 C    -6.04430    -7.27016    -5.31769
 H    -5.69855    -7.76310    -6.23536
 N    -3.23199    -5.09482     2.67808
 C    -2.77917    -5.73235     1.57810
 H    -1.85721    -6.31351     1.70547
 C    -3.43689    -5.66844     0.34446
 H    -3.01955    -6.17456    -0.52404
 C    -4.61040    -4.92202     0.24986
 H    -5.12755    -4.82441    -0.70678
 C    -5.10245    -4.28743     1.38795
 H    -6.02270    -3.70929     1.35265
 C    -4.37455    -4.38576     2.58086
 H    -4.71093    -3.88499     3.49761
 K    -5.31552    -8.12364     2.51280
 O    -6.77226    -6.34641     4.37371
 C    -6.33910    -6.68355     5.69083
 H    -6.62791    -7.72189     5.93551
 H    -6.81653    -5.98713     6.40492
 C    -4.82506    -6.49947     5.66392
 H    -4.51499    -5.69329     4.97060
 H    -4.42491    -6.28632     6.67216
 O    -4.29954    -7.75178     5.21943
 C    -2.88017    -7.72020     5.07704
 H    -2.43862    -7.58248     6.08094
 H    -2.58046    -6.87694     4.42214
 C    -2.50335    -9.07111     4.47294
 H    -1.47489    -9.36700     4.75123
 H    -3.20775    -9.87081     4.76785
 O    -2.55325    -8.86675     3.06034
 C    -2.22738   -10.03600     2.31511
 H    -2.87028   -10.88053     2.62769
 H    -1.16737   -10.29162     2.49957
 C    -8.15944    -6.58270     4.15854
 H    -8.39859    -7.64698     4.34723
 H    -8.74667    -5.94903     4.84821
 O    -3.85115    -9.88965     0.64059
 O    -6.32497    -8.49011    -0.19939
 O    -8.07972    -7.37073     1.95560
 C    -2.46504    -9.64734     0.85457
 C    -8.39547    -6.19662     2.69731
 C    -4.28580    -9.55787    -0.67709
 C    -5.79998    -9.74186    -0.64661
 C    -7.74436    -8.52275    -0.05587
 C    -8.12383    -7.16982     0.54246
 H    -2.23173    -8.58132     0.66823
 H    -1.87481   -10.27550     0.16213
 H    -7.74645    -5.35812     2.38141
 H    -9.45324    -5.93301     2.51216
 H    -3.99593    -8.52131    -0.92788
 H    -3.81100   -10.25855    -1.38894
 H    -6.10793   -10.54818     0.04834
 H    -6.20018    -9.95453    -1.65532
 H    -8.18508    -8.66608    -1.05906
 H    -8.04177    -9.36316     0.60357
 H    -9.15069    -6.87289     0.26061
 H    -7.41844    -6.37123     0.24766
