  106
 
Ba     0.00000     0.00000     0.00000
Cl     3.47461     0.00000     0.00000
 H     0.18120     4.60387     0.00000
 H    -1.21975     3.57003    -0.36983
 H     1.57082     3.20709    -1.50329
 H     0.20698     3.96513    -2.35978
 O     0.31152     2.65347     0.67515
 C    -0.13309     3.60143    -0.29059
 C     0.48564     3.23230    -1.60254
 O     0.00943     1.95010    -1.97906
 C     0.55011     1.51567    -3.21436
 C    -0.15834     0.24807    -3.61127
 O     0.16415    -0.76083    -2.65806
 C    -0.48390    -1.98934    -2.94726
 C    -0.02867     3.02787     2.00248
Cl    -3.47461     0.00000     0.00000
 O    -2.70132    -0.73337     0.92072
 O    -2.53050     0.60739    -0.85352
 O    -4.21339    -0.90102    -0.79295
 O    -4.26466     0.93880     0.64737
 O    -0.31152    -2.65347    -0.67515
 C     0.13309    -3.60143     0.29059
 C    -0.48564    -3.23230     1.60254
 O    -0.00943    -1.95010     1.97906
 C    -0.55011    -1.51567     3.21436
 C     0.15834    -0.24807     3.61127
 O    -0.16415     0.76083     2.65806
 C     0.48390     1.98934     2.94726
 C     0.02867    -3.02787    -2.00248
Ba    -3.97316    -7.54658     1.83841
Cl     3.84502    -5.92484    -0.98919
 O     4.61995    -6.38930     0.08974
 O     4.78686    -5.48575    -1.94315
 O     3.12787    -4.78365    -0.57578
 O     3.03218    -6.93175    -1.49130
 O    -4.23429    -5.66968     3.83942
 C    -3.78358    -6.06485     5.13158
 C    -4.42000    -7.38145     5.44765
 O    -3.96889    -8.33750     4.50146
 C    -4.52851    -9.62000     4.72295
 C    -3.84525   -10.59180     3.79908
 O    -4.17406   -10.23882     2.45807
 C    -3.54943   -11.09531     1.51507
 C    -3.87563    -4.33185     3.52208
Cl    -0.49917    -7.60341     1.80486
 O    -1.27410    -7.13895     0.72593
 O    -1.44142    -8.04204     2.75803
 O     0.21708    -8.74480     1.39180
 O     0.31276    -6.59671     2.30732
 O    -3.71161    -9.42395    -0.16181
 C    -4.16232    -9.02878    -1.45397
 C    -3.52499    -7.71198    -1.77040
 O    -3.97610    -6.75592    -0.82421
 C    -3.41690    -5.47296    -1.04648
 C    -4.09974    -4.50163    -0.12183
 O    -3.77093    -4.85461     1.21918
 C    -4.39597    -3.99765     2.16139
 C    -4.06977   -10.76111     0.15439
 O     2.67593     0.60203     0.98973
 O     2.73724    -1.15917    -0.36170
 O     3.55180     0.81606    -1.13172
 O     4.70816    -0.35657     0.53166
 H     1.61747     1.32409    -3.10419
 H     0.39487     2.28024    -3.97556
 H     0.17025    -0.06300    -4.60292
 H    -1.23540     0.41521    -3.62123
 H    -0.26788    -2.28668    -3.97343
 H    -1.56060    -1.87610    -2.82079
 H     0.42371     3.99124     2.23782
 H    -1.11215     3.10303     2.09472
 H     1.21975    -3.57003     0.36983
 H    -0.18120    -4.60387     0.00000
 H    -0.20698    -3.96513     2.35978
 H    -1.57082    -3.20709     1.50329
 H    -0.39487    -2.28024     3.97556
 H    -1.61747    -1.32409     3.10419
 H     1.23540    -0.41521     3.62123
 H    -0.17025     0.06300     4.60292
 H     1.56060     1.87610     2.82080
 H     0.26788     2.28668     3.97343
 H     1.11215    -3.10303    -2.09472
 H    -0.42371    -3.99124    -2.23782
 H    -2.69834    -6.16662     5.13199
 H    -4.07908    -5.32154     5.87203
 H    -4.13591    -7.69560     6.45200
 H    -5.50451    -7.28926     5.38893
 H    -4.36851    -9.91948     5.75872
 H    -5.59768    -9.59844     4.51198
 H    -2.76577   -10.53840     3.94043
 H    -4.18950   -11.60450     4.00890
 H    -2.46985   -10.94750     1.54254
 H    -3.78011   -12.13389     1.75220
 H    -2.79025    -4.23225     3.53278
 H    -4.31002    -3.65323     4.25617
 H    -3.86729    -9.77234    -2.19436
 H    -5.24751    -8.92647    -1.45425
 H    -2.44052    -7.80452    -1.71150
 H    -3.80881    -7.39779    -2.77481
 H    -2.34750    -5.49411    -0.83659
 H    -3.57805    -5.17354    -2.08208
 H    -3.75550    -3.48888    -0.33146
 H    -5.17924    -4.55496    -0.26298
 H    -4.16522    -2.95914     1.92402
 H    -5.47555    -4.14544     2.13373
 H    -3.63500   -11.43929    -0.57988
 H    -5.15512   -10.86108     0.14344
