  146
 
 C     0.00000     0.00000     0.00000
 O     1.37512     0.00000     0.00000
 C     2.02429     1.27676     0.00000
 H     1.85434     1.74276     0.85702
 H     1.66961     1.83695    -0.73525
 C     3.49480     1.06103    -0.18520
 H     3.64711     0.43853    -0.93910
 H     3.93247     1.92225    -0.40197
 O     4.06729     0.52221     1.00217
 C     5.47777     0.46786     0.89289
 H     5.81842     1.33553     0.56089
 H     5.73356    -0.23360     0.24158
 C     6.08696     0.16282     2.22172
 H     5.74511     0.80038     2.89913
 H     7.07014     0.26588     2.17010
 O     5.76443    -1.16600     2.61288
 C     6.54555    -1.62554     3.71019
 H     6.37996    -2.59310     3.83467
 H     7.50415    -1.51080     3.48888
 C     6.25889    -0.91523     5.00538
 H     6.55793     0.02694     4.94771
 H     6.74824    -1.35285     5.74584
 O     4.86445    -0.96323     5.25331
 C     4.54119    -0.48560     6.54796
 H     4.84010    -1.13611     7.23112
 H     5.00298     0.37438     6.71451
 C     3.06238    -0.29303     6.64137
 H     2.74587     0.27667     5.89493
 H     2.83141     0.15169     7.49510
 O     2.43858    -1.57843     6.57403
 C    -0.79351     1.14372     0.03119
 H    -0.39231     2.00380     0.05955
 C    -2.17530     1.01536     0.01980
 H    -2.71704     1.79592     0.03549
 C     1.06790    -1.59264     6.59804
 C     0.26602    -0.45271     6.64178
 H     0.66463     0.40921     6.67646
 C    -0.60335    -1.24805    -0.04610
 H    -0.06226    -2.02848    -0.07317
 C    -1.71136    -1.82577     6.58617
 O    -3.08648    -1.82577     6.58617
 C    -3.73565    -3.10253     6.58617
 H    -3.56570    -3.56852     5.72915
 H    -3.38096    -3.66272     7.32142
 C    -5.20616    -2.88679     6.77137
 H    -5.35847    -2.26429     7.52527
 H    -5.64382    -3.74802     6.98814
 O    -5.77864    -2.34798     5.58400
 C    -7.18912    -2.29363     5.69328
 H    -7.52977    -3.16130     6.02528
 H    -7.44492    -1.59217     6.34460
 C    -7.79832    -1.98859     4.36445
 H    -7.45646    -2.62615     3.68704
 H    -8.78149    -2.09164     4.41607
 O    -7.47579    -0.65977     3.97330
 C    -8.25690    -0.20023     2.87598
 H    -8.09132     0.76733     2.75150
 H    -9.21550    -0.31496     3.09730
 C    -7.97024    -0.91054     1.58079
 H    -8.26928    -1.85271     1.63846
 H    -8.45959    -0.47291     0.84033
 O    -6.57580    -0.86254     1.33286
 C    -6.25254    -1.34016     0.03821
 H    -6.55145    -0.68966    -0.64495
 H    -6.71434    -2.20015    -0.12833
 C    -4.77374    -1.53274    -0.05520
 H    -4.45723    -2.10243     0.69124
 H    -4.54276    -1.97746    -0.90893
 O    -4.14994    -0.24734     0.01214
 C    -0.91784    -2.96949     6.55498
 H    -1.31904    -3.82957     6.52662
 C     0.46394    -2.84113     6.56638
 H     1.00568    -3.62169     6.55069
 C    -2.77926    -0.23312    -0.01187
 C    -1.97738    -1.37306    -0.05561
 H    -2.37599    -2.23498    -0.09029
 C    -1.10800    -0.57771     6.63227
 H    -1.64910     0.20272     6.65935
 C     0.94834    -3.38650     3.09352
 H     0.92963    -4.33397     3.02112
 C    -0.23354    -2.69021     3.14109
 H    -1.06011    -3.15504     3.09793
 C    -0.22189    -1.30535     3.25411
 C     1.02262    -0.67691     3.28848
 H     1.06863     0.27040     3.34853
 C     2.18149    -1.41084     3.23661
 H     3.02208    -0.96988     3.26192
 N     2.13043    -2.75156     3.14935
 C     3.38455    -3.54900     3.17462
 H     4.14213    -2.98221     2.88218
 H     3.30680    -4.30757     2.54418
 C     3.65924    -4.07743     4.57507
 H     3.73554    -3.32646     5.19795
 H     4.49542    -4.58734     4.57281
 H     2.92133    -4.65971     4.85445
 C    -2.65969     1.56073     3.49265
 H    -2.64098     2.50820     3.56505
 C    -1.47781     0.86445     3.44509
 H    -0.65124     1.32927     3.48825
 C    -1.48947    -0.52042     3.33206
 C    -2.73398    -1.14886     3.29769
 H    -2.77999    -2.09617     3.23764
 C    -3.89285    -0.41493     3.34956
 H    -4.73343    -0.85588     3.32426
 N    -3.84179     0.92579     3.43682
 C    -5.09590     1.72323     3.41155
 H    -5.85349     1.15645     3.70399
 H    -5.01815     2.48181     4.04199
 C    -5.37060     2.25167     2.01110
 H    -5.44690     1.50069     1.38822
 H    -6.20677     2.76157     2.01336
 H    -4.63269     2.83395     1.73173
 P    -0.06853    -7.14585     4.10498
 F    -0.70442    -6.00829     3.17510
 F    -0.50122    -6.32850     5.40951
 F    -1.45633    -7.92795     4.12394
 F     0.38327    -7.95050     2.80267
 F     0.59030    -8.27586     5.02670
 F     1.33291    -6.35574     4.09307
 P    -1.64313     5.31903     2.47900
 F    -1.00647     4.18220     3.41025
 F    -1.21021     4.50157     1.17587
 F    -0.25510     6.10102     2.46144
 F    -2.09470     6.12357     3.78270
 F    -2.30119     6.44977     1.55865
 F    -3.04449     4.53008     2.49171
 C    -5.87226    -4.67532     1.88434
 H    -6.01272    -3.70598     1.84496
 H    -6.55408    -5.08024     2.45918
 H    -5.94124    -5.05045     0.98147
 C    -4.51042    -4.96035     2.44281
 O    -3.70515    -4.07100     2.59542
 C    -4.19912    -6.37742     2.75116
 H    -3.28239    -6.44436     3.09193
 H    -4.28484    -6.91478     1.93715
 H    -4.82381    -6.70950     3.42965
 C    -2.19052    -8.75736     7.42411
 H    -2.05021    -9.72543     7.46290
 H    -1.50885    -8.35116     6.84867
 H    -2.12169    -8.38095     8.32638
 C    -3.55250    -8.47106     6.86505
 O    -4.35778    -9.36041     6.71244
 C    -3.86365    -7.05526     6.55728
 H    -4.78108    -6.98788     6.21595
 H    -3.77809    -6.51662     7.37071
 H    -3.23966    -6.72275     5.87822
