  200
 
Sb     0.00000     0.00000     0.00000
Br    -7.05368    -0.15517    -0.68444
Br   -12.51410     1.07751    -0.45058
Br   -10.70039    -2.05606    -1.64352
Br   -10.32978     0.67650    -4.31452
Br    -9.88645    -0.96573     1.81037
Br    -8.71263     3.49020     0.94261
Sb   -10.02495     0.08974    -0.50153
Sb    -4.91980    -5.47663     2.39483
Br    -8.72650    -5.74380     3.14944
Br    -2.88281    -5.04761     0.96750
Br    -3.43410    -4.50070     4.47846
Br    -4.71720    -1.61803     2.33862
Br    -4.66859    -7.92173     3.00168
Br    -6.05898    -6.24076    -0.23691
Sb     5.12141    -5.61753     2.80237
Br     2.10659    -5.35188     3.01534
Br     7.51935    -6.71503     2.58150
Br     5.95324    -3.42766     3.76477
Br     5.54068    -6.07753     6.60199
Br     4.82566    -4.65347     0.45094
Br     3.92196    -9.00023     1.37247
Br     3.73417     0.21319    -0.90277
Br    -2.03402    -0.43410     1.43703
Br    -1.42729    -1.04697    -2.06385
Br    -0.16125    -3.94609     0.12153
Br    -0.23747     2.40380    -0.75264
Br     1.09571     0.96737     2.58751
 C    -7.61728    -4.35633    -5.48118
 H    -7.78842    -5.07150    -6.31470
 C    -6.43859    -4.36597    -4.73240
 H    -5.66474    -5.09921    -4.98396
 C    -6.25046    -3.46183    -3.67553
 C    -7.28530    -2.54981    -3.40997
 H    -7.20305    -1.81302    -2.59890
 C    -8.43910    -2.54588    -4.19594
 H    -9.24917    -1.80209    -4.04187
 C    -2.63133    -4.00707    -2.67734
 H    -1.70037    -4.45813    -3.06059
 C    -3.80806    -4.01261    -3.42733
 H    -3.77265    -4.44277    -4.43144
 C    -4.98940    -3.46331    -2.89411
 C    -4.92995    -2.90569    -1.60703
 H    -5.82224    -2.50957    -1.10420
 C    -3.71654    -2.86107    -0.91711
 H    -3.64201    -2.36125     0.07127
 N    -8.60409    -3.44443    -5.21743
 H    -9.52896    -3.32117    -5.94755
 N    -2.58119    -3.42383    -1.43930
 H    -1.56279    -3.44347    -0.83489
 C    -9.24839    -8.34050     0.59964
 H    -9.20103    -7.73791     1.54340
 C   -10.35664    -9.13227     0.28815
 H   -11.17283    -9.19959     1.01831
 C   -10.39980    -9.85805    -0.91027
 C    -9.30003    -9.76065    -1.79104
 H    -9.31397   -10.28353    -2.76100
 C    -8.19819    -8.99006    -1.44208
 H    -7.31202    -8.90958    -2.09768
 C   -13.96806   -11.10101    -1.07749
 H   -14.97956   -10.83631    -0.69658
 C   -12.86265   -10.30388    -0.78718
 H   -13.01790    -9.39090    -0.20285
 C   -11.58495   -10.68635    -1.23549
 C   -11.46901   -11.86558    -1.98719
 H   -10.48956   -12.24762    -2.30304
 C   -12.61766   -12.59107    -2.33013
 H   -12.55231   -13.45335    -3.02153
 N    -8.17947    -8.28650    -0.25483
 H    -7.31137    -7.66535     0.00400
 N   -13.84779   -12.23236    -1.84456
 H   -14.80633   -12.80132    -2.09031
 C     1.20354    -7.04350    -0.24091
 H     1.37246    -6.37599     0.63264
 C     0.00163    -7.03178    -0.94893
 H    -0.79153    -6.35647    -0.60794
 C    -0.18051    -7.86761    -2.06528
 C     0.88417    -8.70812    -2.42775
 H     0.80917    -9.39300    -3.28422
 C     2.05817    -8.72353    -1.67259
 H     2.89065    -9.42448    -1.89429
 C    -3.83075    -7.32710    -2.96090
 H    -4.74704    -6.87183    -2.54852
 C    -2.63153    -7.31657    -2.24842
 H    -2.63428    -6.86875    -1.25179
 C    -1.46427    -7.87197    -2.80929
 C    -1.56663    -8.43845    -4.08911
 H    -0.69712    -8.86042    -4.61464
 C    -2.79856    -8.47758    -4.74749
 H    -2.90012    -8.97881    -5.73252
 N     2.21692    -7.89443    -0.59480
 H     3.15998    -8.03068     0.11349
 N    -3.91847    -7.91259    -4.19675
 H    -4.94118    -7.88669    -4.77805
 C     2.87561    -3.01363    -6.44965
 H     2.83448    -3.61792    -7.39076
 C     3.98376    -2.22424    -6.12990
 H     4.80796    -2.16399    -6.85185
 C     4.01441    -1.48723    -4.93815
 C     2.90112    -1.57271    -4.07269
 H     2.89488    -1.03424    -3.11060
 C     1.80204    -2.34503    -4.42709
 H     0.90802    -2.41576    -3.78160
 C     7.56537    -0.19411    -4.77746
 H     8.57975    -0.42683    -5.17768
 C     6.47035    -1.00019    -5.08429
 H     6.63514    -1.88795    -5.70508
 C     5.19373    -0.65504    -4.60487
 C     5.06942     0.49380    -3.80614
 H     4.08738     0.84754    -3.46168
 C     6.20723     1.22546    -3.44924
 H     6.13987     2.06240    -2.72809
 N     1.79610    -3.05811    -5.60880
 H     0.92601    -3.66976    -5.87571
 N     7.43478     0.90637    -3.96944
 H     8.38144     1.48891    -3.71104
 C    -3.04037     5.21464     2.58613
 H    -2.04555     5.28145     3.04972
 C    -3.28235     4.32867     1.52594
 H    -2.46021     3.71008     1.16239
 C    -4.56666     4.25515     0.95818
 C    -5.56473     5.08279     1.50327
 H    -6.59820     5.05562     1.13685
 C    -5.25822     5.93846     2.56313
 H    -6.03320     6.58846     3.00916
 C    -4.47565     1.18414    -1.26406
 H    -3.88255     0.26666    -1.41868
 C    -4.11285     2.13921    -0.31960
 H    -3.21784     1.96352     0.28181
 C    -4.89108     3.30104    -0.12951
 C    -6.00141     3.48214    -0.97059
 H    -6.61003     4.39245    -0.91762
 C    -6.36843     2.49733    -1.89176
 H    -7.27186     2.59925    -2.52489
 N    -4.00149     6.03607     3.10095
 N    -5.64588     1.32513    -1.98416
 H    -5.86348     0.65090    -2.75277
 C   -11.98274    -7.05070    -3.26902
 H   -12.98285    -7.42147    -3.52687
 C   -11.76161    -6.33705    -2.08891
 H   -12.60627    -6.14883    -1.42680
 C   -10.46441    -5.88317    -1.77534
 C    -9.43080    -6.21509    -2.66999
 H    -8.39371    -5.93498    -2.47068
 C    -9.72403    -6.92385    -3.84264
 H    -8.93045    -7.18390    -4.56668
 C   -10.87654    -4.48245     1.72038
 H   -11.60235    -4.47853     2.54629
 C   -11.16453    -5.08051     0.50017
 H   -12.15900    -5.51388     0.37070
 C   -10.20514    -5.12632    -0.53216
 C    -9.00033    -4.42627    -0.32377
 H    -8.25850    -4.31575    -1.12160
 C    -8.72967    -3.83335     0.90801
 H    -7.78894    -3.28820     1.09267
 N   -10.99197    -7.32047    -4.17312
 N    -9.59882    -3.99837     1.97715
 H    -9.42948    -3.44166     2.84885
 C    -1.86958   -10.73421    -0.47369
 H    -2.86626   -10.81651    -0.93102
 C    -1.63236    -9.85390     0.59035
 H    -2.45916    -9.25278     0.96979
 C    -0.34273    -9.76645     1.14533
 C     0.66939   -10.55733     0.57536
 H     1.70800   -10.50490     0.92399
 C     0.36612   -11.41284    -0.48829
 H     1.14857   -12.03788    -0.95656
 C    -0.45723    -6.74216     3.43151
 H    -1.04290    -5.81947     3.58810
 C    -0.80944    -7.67582     2.45885
 H    -1.69413    -7.48488     1.84551
 C    -0.03487    -8.83354     2.25611
 C     1.06227    -9.04210     3.11367
 H     1.67005    -9.95261     3.04512
 C     1.40977    -8.08587     4.06806
 H     2.29377    -8.21378     4.72287
 N    -0.89895   -11.53900    -0.99966
 N     0.69480    -6.90903     4.17325
 H     0.90623    -6.24338     4.95652
 C     6.91345     1.35758     5.53378
 H     7.92084     1.69093     5.81274
 C     6.68886     0.67026     4.33973
 H     7.53706     0.45887     3.68900
 C     5.38213     0.26471     3.99857
 C     4.34606     0.61331     4.88257
 H     3.30292     0.37140     4.66158
 C     4.64475     1.29107     6.07410
 H     3.84887     1.56013     6.79320
 C     5.83174    -1.11090     0.49704
 H     6.56829    -1.10999    -0.31831
 C     6.10101    -0.50876     1.72072
 H     7.08942    -0.06281     1.85648
 C     5.12719    -0.47113     2.74088
 C     3.92100    -1.16275     2.51245
 H     3.16081    -1.25706     3.29452
 C     3.67155    -1.76050     1.27905
 H     2.73816    -2.31621     1.08189
 N     5.91696     1.64651     6.42718
 N     4.55823    -1.59485     0.22470
 H     4.39911    -2.14998    -0.64638
