  448
 
Na     0.00000     0.00000     0.00000
 C     1.04055     0.02992    11.73485
 H     1.06587     1.11341    11.56790
 C     1.31334    -0.81573    10.73337
 H     1.55538    -0.43450     9.73335
 C     1.29240    -2.27255    10.85036
 H     2.24340    -2.75797    10.61903
 C     0.21186    -2.98923    11.18563
 H     0.24836    -4.08163    11.26201
 C    -1.10588    -2.41713    11.45870
 H    -1.88853    -2.73651    10.76495
 C    -1.37703    -1.57090    12.45959
 H    -2.38828    -1.18247    12.60827
 C    -0.39062    -1.08657    13.42416
 H    -0.60942    -1.34252    14.46450
 C     0.69001    -0.36704    13.09800
 H     1.37651     0.00417    13.86894
 C    -1.84257     2.74985     7.33336
 H    -2.75479     3.26817     6.95894
 C    -1.60081     1.49674     6.72758
 H    -2.34041     1.19209     5.95695
 C    -0.59422     0.50929     7.03911
 H    -0.86263    -0.49717     6.65283
 C     0.81060     0.64202     7.27355
 H     1.34061    -0.30140     7.05561
 C     1.61890     1.66629     7.68154
 H     2.69714     1.43164     7.62112
 C     1.38519     2.94215     8.23906
 H     2.32431     3.45387     8.50913
 C     0.25628     3.64046     8.58636
 H     0.45961     4.51939     9.22984
 C    -1.11611     3.52164     8.29000
 H    -1.74605     4.29613     8.76503
 C    -4.49096     1.03839     9.52274
 H    -4.86765     1.23002    10.55157
 C    -3.99785    -0.25476     9.27463
 H    -4.21165    -1.06443     9.97928
 C    -3.26477    -0.65182     8.04815
 H    -2.47162    -1.43359     8.28384
 C    -3.79682    -0.78471     6.72406
 H    -3.45163    -1.69944     6.22130
 C    -4.58663     0.05034     5.99837
 H    -4.91326    -0.32920     5.01816
 C    -5.01219     1.38626     6.23320
 H    -5.51320     1.81902     5.34574
 C    -4.88678     2.25303     7.27449
 H    -5.17859     3.29604     7.02537
 C    -4.55092     2.14378     8.65390
 H    -4.60222     3.11220     9.18467
Ta    -1.94747     0.99486     9.10537
Ta    -9.11668     1.78268    -3.87813
 C   -11.50354     2.50113    -4.06227
 H   -12.03355     3.41403    -4.41429
 C   -11.22736     1.59580    -5.12282
 H   -11.46886     2.01601    -6.13160
 C   -10.64457     0.29737    -5.18666
 H   -10.65055    -0.11001    -6.22305
 C   -10.00231    -0.56859    -4.25499
 H    -9.68418    -1.52506    -4.72504
 C    -9.64444    -0.49814    -2.88577
 H    -9.07576    -1.38669    -2.54130
 C    -9.83562     0.46791    -1.86056
 H    -9.35776     0.16937    -0.90191
 C   -10.57577     1.67432    -1.74801
 H   -10.58633     2.07122    -0.70938
 C   -11.25049     2.51462    -2.66142
 H   -11.68371     3.41810    -2.16979
 C    -7.95548     4.19559    -4.66717
 H    -7.62319     4.78141    -3.78746
 C    -7.22680     2.95542    -4.76416
 H    -6.28889     2.96018    -4.17068
 C    -7.27087     1.87599    -5.72310
 H    -6.47583     1.13033    -5.52286
 C    -8.10555     1.55138    -6.78861
 H    -7.91488     0.52519    -7.16267
 C    -9.02400     2.24594    -7.59132
 H    -9.33365     1.66225    -8.46940
 C    -9.59935     3.50739    -7.53358
 H   -10.22354     3.72127    -8.42647
 C    -9.59232     4.55422    -6.62998
 H   -10.23061     5.39664    -6.93873
 C    -8.96474     4.79381    -5.39628
 H    -9.33587     5.71751    -4.91117
 C    -5.69199     0.54814    -1.10755
 H    -5.80129     0.50876    -0.01778
 C    -5.72263    -0.57169    -1.84126
 H    -5.83593    -1.55215    -1.36733
 C    -5.67749    -0.61493    -3.30006
 H    -6.56785    -1.06302    -3.75087
 C    -4.68892    -0.13996    -4.06645
 H    -4.75392    -0.19030    -5.15677
 C    -3.46108     0.48009    -3.57679
 H    -2.54065    -0.02634    -3.88068
 C    -3.41593     1.59486    -2.84034
 H    -2.45330     2.03183    -2.53467
 C    -4.58342     2.36002    -2.41176
 H    -4.58327     3.39775    -2.76574
 C    -5.57654     1.90237    -1.64030
 H    -6.40119     2.56587    -1.34562
Ta     2.65965     5.48578    -5.49229
 C    -0.23365     6.67699    -7.93360
 H    -0.33387     5.59574    -7.77784
 C    -0.50689     7.52993    -6.93845
 H    -0.81942     7.15534    -5.95590
 C    -0.40072     8.98406    -7.03638
 H    -1.33580     9.51709    -6.84576
 C     0.73043     9.64631    -7.31018
 H     0.75338    10.74128    -7.36944
 C     2.02814     9.01606    -7.54382
 H     2.80138     9.29644    -6.82324
 C     2.29723     8.17076    -8.54615
 H     3.29910     7.74798    -8.66825
 C     1.33036     7.72957    -9.54946
 H     1.60852     7.97425   -10.57878
 C     0.20563     7.05775    -9.27513
 H    -0.45738     6.71277   -10.07808
 C     2.42288     3.68058    -3.79762
 H     3.30464     3.09335    -3.45431
 C     2.27053     4.92195    -3.13758
 H     3.03696     5.14401    -2.36414
 C     1.33332     5.98587    -3.39713
 H     1.66624     6.95320    -2.96395
 C    -0.07678     5.95857    -3.63044
 H    -0.53765     6.92482    -3.36003
 C    -0.95283     5.01196    -4.08473
 H    -2.01234     5.31394    -3.99947
 C    -0.80871     3.75476    -4.71116
 H    -1.78164     3.33257    -5.01388
 C     0.26783     2.98869    -5.08258
 H     0.00827     2.15097    -5.75948
 C     1.64340     2.99638    -4.77818
 H     2.21786     2.20001    -5.28675
 C     5.20941     5.28663    -5.90673
 H     5.57433     5.09852    -6.94134
 C     4.78939     6.60166    -5.63439
 H     5.05331     7.41371    -6.31918
 C     4.07208     7.01018    -4.40087
 H     3.32229     7.84135    -4.62300
 C     4.61648     7.09254    -3.07734
 H     4.33185     8.02072    -2.56099
 C     5.35438     6.19665    -2.36946
 H     5.73082     6.54221    -1.39362
 C     5.66075     4.83085    -2.61593
 H     6.10160     4.34336    -1.72440
 C     5.48831     3.99627    -3.67809
 H     5.67240     2.92771    -3.43744
 C     5.21316     4.16133    -5.06418
 H     5.23159     3.20699    -5.62022
Ta    -6.46894     6.40838     0.60951
 C    -4.09642     5.65761     0.75712
 H    -3.58153     4.71937     1.06439
 C    -4.35478     6.51135     1.86565
 H    -4.09400     6.03985     2.84729
 C    -4.92950     7.80633     2.00478
 H    -4.93269     8.15672     3.06180
 C    -5.53793     8.73402     1.11221
 H    -5.84447     9.67275     1.62832
 C    -5.87456     8.74297    -0.26212
 H    -6.40074     9.67156    -0.56631
 C    -5.72031     7.82338    -1.33487
 H    -6.19368     8.18545    -2.27273
 C    -5.02529     6.59821    -1.51361
 H    -5.04085     6.24117    -2.56475
 C    -4.36053     5.70595    -0.64186
 H    -3.95134     4.81494    -1.17210
 C    -7.59084     3.92092     1.22604
 H    -7.87491     3.36835     0.30901
 C    -8.35536     5.13707     1.35332
 H    -9.25533     5.14949     0.70410
 C    -8.39548     6.15714     2.37595
 H    -9.20892     6.88624     2.18716
 C    -7.61830     6.44541     3.49276
 H    -7.86686     7.43373     3.92877
 C    -6.68773     5.74757     4.28007
 H    -6.41026     6.30804     5.18525
 C    -6.06362     4.51436     4.17819
 H    -5.46173     4.27644     5.08051
 C    -5.99673     3.51949     3.21803
 H    -5.31077     2.70160     3.48948
 C    -6.58713     3.31791     1.96120
 H    -6.17218     2.42568     1.45275
 C    -9.85525     7.48725    -2.30770
 H    -9.73510     7.46772    -3.39666
 C    -9.82615     8.64461    -1.63487
 H    -9.70744     9.59794    -2.15995
 C    -9.88802     8.77320    -0.18163
 H    -9.00241     9.24609     0.25327
 C   -10.89422     8.35426     0.59463
 H   -10.84829     8.47408     1.68081
 C   -12.11854     7.71980     0.11138
 H   -13.03967     8.25951     0.35465
 C   -12.16342     6.56377    -0.55924
 H   -13.12603     6.12029    -0.85894
 C   -10.99871     5.76174    -0.92308
 H   -11.01331     4.74555    -0.51046
 C    -9.98780     6.16612    -1.70175
 H    -9.16159     5.48387    -1.94249
Na     0.89052     6.54255     3.79937
 N    -1.01135     6.87765     5.11738
 C    -0.69709     7.61849     6.38179
 H    -1.53276     7.53956     7.11707
 H    -0.60762     8.70614     6.15448
 C     0.59649     7.13257     7.04363
 H     0.65597     7.49272     8.08954
 H     0.69493     6.02456     7.05277
 O     1.74626     7.53354     6.33329
 C     1.98070     8.93842     6.33728
 H     2.07759     9.30029     7.37564
 H     1.14912     9.47057     5.83819
 C     3.28319     9.09332     5.55438
 H     3.71554    10.10705     5.65128
 H     4.02916     8.33781     5.86738
 O     2.89206     8.90813     4.20150
 C     3.96554     8.52690     3.35987
 H     4.73025     7.94473     3.90039
 H     4.45675     9.46006     3.00326
 C     3.32121     7.76290     2.19823
 H     2.46212     8.37139     1.81201
 H     4.06985     7.69612     1.37343
 C    -2.06062     7.66532     4.39509
 H    -2.81629     8.08699     5.09975
 H    -2.63881     6.98686     3.72421
 C    -1.46914     8.80538     3.55744
 H    -2.28559     9.46051     3.18649
 H    -0.74436     9.42667     4.12020
 O    -0.70105     8.35716     2.46297
 C    -1.43661     7.57873     1.51801
 H    -2.36528     8.10571     1.23063
 H    -1.70725     6.60063     1.95899
 C    -0.49219     7.39629     0.33702
 H    -1.03032     7.06795    -0.57441
 H     0.06886     8.32186     0.11279
 O     0.35033     6.32258     0.73555
 C     1.67604     6.43400     0.25441
 H     1.97733     7.48624     0.12519
 H     1.70432     5.94385    -0.74512
 C     2.53467     5.66455     1.26443
 H     1.99798     4.71139     1.50856
 H     3.49430     5.37777     0.77341
 C    -1.61036     5.55873     5.50054
 H    -2.62674     5.68027     5.94222
 H    -0.99683     5.09283     6.31556
 C    -1.68312     4.57771     4.32326
 H    -2.30055     3.69761     4.60300
 H    -2.10622     5.02483     3.40321
 O    -0.40805     4.15572     3.89746
 C     0.25835     3.30404     4.83042
 H    -0.35236     2.39511     4.99800
 H     0.39748     3.80381     5.80945
 C     1.58434     2.96914     4.16984
 H     2.09697     2.14192     4.70043
 H     1.46096     2.71523     3.10049
 O     2.35247     4.15699     4.33716
 C     3.50749     4.18678     3.52400
 H     3.35791     3.64993     2.57026
 H     4.32701     3.69259     4.08796
 C     3.82487     5.67222     3.32896
 H     3.90749     6.14299     4.34251
 H     4.82878     5.76020     2.85281
 N     2.78219     6.40873     2.54741
Na   -12.66039     7.08388     8.23979
 N   -12.30745     7.38791    10.60034
 C   -13.45371     8.11821    11.23331
 H   -13.54886     7.87153    12.31663
 H   -13.27129     9.21447    11.20393
 C   -14.78200     7.80309    10.53189
 H   -15.63794     8.12315    11.15614
 H   -14.92035     6.71721    10.31730
 O   -14.87743     8.39460     9.25360
 C   -14.80054     9.81545     9.27053
 H   -15.39403    10.22260    10.10869
 H   -13.74632    10.12566     9.38054
 C   -15.36541    10.28851     7.93020
 H   -15.44849    11.39471     7.91178
 H   -16.35566     9.84104     7.72514
 O   -14.41856     9.98792     6.92556
 C   -14.85830     9.00995     5.99266
 H   -15.58040     8.30310     6.45524
 H   -15.39421     9.56072     5.19456
 C   -13.57882     8.35062     5.46343
 H   -12.71627     9.02506     5.70264
 H   -13.63784     8.29534     4.35177
 C   -11.05042     8.15871    10.86204
 H   -10.98427     8.48404    11.92585
 H   -10.17474     7.48634    10.69949
 C   -10.90487     9.38803     9.95558
 H   -10.06514    10.02228    10.30289
 H   -11.82440    10.00791     9.92132
 O   -10.72020     9.06180     8.60002
 C    -9.48752     8.40643     8.30604
 H    -8.63648     9.02493     8.64683
 H    -9.44135     7.41927     8.79988
 C    -9.50389     8.28085     6.78703
 H    -8.50936     8.00390     6.38617
 H    -9.84961     9.21915     6.30935
 O   -10.39201     7.20336     6.52607
 C   -10.91037     7.24140     5.20588
 H   -11.09902     8.27753     4.87615
 H   -10.14356     6.79316     4.53411
 C   -12.17306     6.37842     5.25584
 H   -11.90595     5.39837     5.73314
 H   -12.49436     6.14178     4.21627
 C   -12.18361     6.07365    11.31011
 H   -11.87966     6.20099    12.37312
 H   -13.19722     5.58421    11.35734
 C   -11.21131     5.11169    10.61771
 H   -11.02280     4.23525    11.27286
 H   -10.24450     5.57755    10.34952
 O   -11.69994     4.68036     9.37233
 C   -12.87023     3.86538     9.47077
 H   -12.65744     2.96845    10.08173
 H   -13.70611     4.39870     9.97645
 C   -13.21283     3.54702     8.02562
 H   -13.87718     2.66374     7.96652
 H   -12.31673     3.39801     7.39573
 O   -13.92446     4.70723     7.61207
 C   -14.29313     4.68305     6.24804
 H   -13.53347     4.18531     5.62341
 H   -15.25168     4.12800     6.17070
 C   -14.50789     6.15343     5.88194
 H   -15.30783     6.56142     6.56093
 H   -14.92923     6.21797     4.85368
 N   -13.28526     7.00091     6.04819
 N     1.88068    -0.29899    -1.39268
 C     1.49868    -0.95535    -2.68487
 H     2.29377    -0.82630    -3.45704
 H     1.41535    -2.05534    -2.52769
 C     0.17249    -0.42717    -3.24375
 H     0.04996    -0.72790    -4.30301
 H     0.08109     0.68078    -3.19256
 O    -0.93899    -0.86149    -2.49274
 C    -1.18689    -2.26252    -2.55702
 H    -1.31900    -2.57388    -3.60788
 H    -0.34743    -2.82458    -2.10775
 C    -2.46939    -2.44618    -1.74653
 H    -2.90140    -3.45670    -1.87190
 H    -3.22330    -1.68084    -2.01445
 O    -2.04485    -2.31380    -0.39802
 C    -3.08775    -1.94045     0.48497
 H    -3.86788    -1.34573    -0.01798
 H    -3.57109    -2.87757     0.84125
 C    -2.40066    -1.19900     1.63827
 H    -1.54042    -1.82639     1.99044
 H    -3.12706    -1.13247     2.48311
 C     2.93689    -1.14741    -0.75365
 H     3.66202    -1.54040    -1.50429
 H     3.54761    -0.52093    -0.06151
 C     2.34058    -2.32220     0.03084
 H     3.14735    -3.01178     0.35526
 H     1.59436    -2.89919    -0.55134
 O     1.59596    -1.91666     1.15592
 C     2.34758    -1.18697     2.12624
 H     3.26252    -1.74275     2.39852
 H     2.64753    -0.19936     1.72646
 C     1.38897    -1.03060     3.29921
 H     1.92002    -0.79766     4.24307
 H     0.76566    -1.93337     3.44393
 O     0.61154     0.10328     2.93884
 C    -0.67116     0.11457     3.53526
 H    -1.03856    -0.90051     3.75252
 H    -0.57203     0.65796     4.50367
 C    -1.56238     0.89153     2.56273
 H    -1.03183     1.84357     2.30162
 H    -2.50213     1.17834     3.09150
 C     2.49564     1.02689    -1.72029
 H     3.50892     0.91176    -2.17020
 H     1.88127     1.53256    -2.51023
 C     2.58854     1.95496    -0.50178
 H     3.22330     2.83333    -0.74381
 H     3.00424     1.46158     0.39770
 O     1.32250     2.38418    -0.05803
 C     0.66164     3.26580    -0.96683
 H     1.28239     4.16938    -1.12006
 H     0.50328     2.78706    -1.95288
 C    -0.65284     3.60350    -0.28360
 H    -1.15939     4.44963    -0.78875
 H    -0.51165     3.83086     0.78985
 O    -1.43716     2.42883    -0.46712
 C    -2.58792     2.39771     0.35181
 H    -2.43326     2.93196     1.30649
 H    -3.40779     2.89456    -0.20965
 C    -2.91246     0.91192     0.54316
 H    -3.02438     0.45250    -0.47200
 H    -3.90324     0.83159     1.04860
 N    -1.85755     0.15403     1.28701
Na    -9.66725     0.92062     6.17553
 N   -10.02255     0.64993     3.82804
 C    -8.89967    -0.10691     3.18357
 H    -8.81127     0.13692     2.09919
 H    -9.10619    -1.19891     3.22021
 C    -7.55658     0.17637     3.86997
 H    -6.71578    -0.16486     3.23610
 H    -7.38633     1.25821     4.08046
 O    -7.47033    -0.41576     5.14779
 C    -7.54756    -1.83731     5.13448
 H    -6.94304    -2.25191     4.30775
 H    -8.59993    -2.14808     5.01391
 C    -6.99834    -2.29347     6.48694
 H    -6.90704    -3.39706     6.52716
 H    -6.01196    -1.83454     6.70016
 O    -7.96420    -1.97385     7.46947
 C    -7.52325    -0.99556     8.40041
 H    -6.80891    -0.28599     7.93058
 H    -6.97729    -1.54238     9.19343
 C    -8.80265    -0.34618     8.94009
 H    -9.66552    -1.01487     8.68589
 H    -8.74516    -0.30841    10.05200
 C   -11.30069    -0.08149     3.55353
 H   -11.38981    -0.35754     2.47776
 H   -12.15836     0.60338     3.75699
 C   -11.46207    -1.34624     4.40848
 H   -12.29368    -1.96710     4.02124
 H   -10.54357    -1.96818     4.43789
 O   -11.66942    -1.07175     5.77221
 C   -12.90009    -0.41541     6.06969
 H   -13.75181    -1.03504     5.73329
 H   -12.94897     0.57062     5.57409
 C   -12.87946    -0.28518     7.58809
 H   -13.86824     0.01365     7.98819
 H   -12.55162    -1.22812     8.06933
 O   -11.96751     0.77351     7.84458
 C   -11.47919     0.74364     9.17642
 H   -11.29420    -0.29122     9.51181
 H   -12.26324     1.18929     9.83153
 C   -10.22223     1.61536     9.15437
 H   -10.48731     2.59815     8.68105
 H    -9.92493     1.84521    10.20320
 C   -10.10338     1.97691     3.13450
 H   -10.39794     1.86937     2.06666
 H    -9.07691     2.43765     3.10052
 C   -11.05899     2.95567     3.82667
 H   -11.22015     3.84236     3.17840
 H   -12.04090     2.51384     4.08002
 O   -10.57003     3.36266     5.08007
 C    -9.39543     4.17333     4.99420
 H    -9.59637     5.06909     4.37820
 H    -8.55598     3.63124     4.50566
 C    -9.07729     4.50023     6.44370
 H    -8.40288     5.37381     6.51412
 H    -9.98620     4.66600     7.05080
 O    -8.38916     3.33444     6.87719
 C    -8.08610     3.33940     8.25718
 H    -8.88085     3.81818     8.85367
 H    -7.14004     3.90284     8.39430
 C    -7.87253     1.86168     8.59622
 H    -7.05139     1.47663     7.92848
 H    -7.48297     1.77554     9.63494
 N    -9.08815     1.01350     8.37751
