  276
 
Rb     0.00000     0.00000     0.00000
 C     3.38754    -0.14833     0.10518
 H     3.76637     0.82796     0.28813
 C     3.23189    -0.74812    -1.16242
 H     3.48020    -0.30666    -2.09858
 C     2.69959    -2.04282    -0.97526
 H     2.49393    -2.74539    -1.74533
 C     2.52414    -2.24711     0.41325
 H     2.13514    -3.12436     0.87210
 C     2.94956    -1.07744     1.08203
 H     2.93335    -0.91813     2.13233
 O     0.48489     2.89544    -0.68655
 C     1.33601     2.70201    -1.81739
 H     2.11746     1.95054    -1.57689
 H     1.81361     3.67927    -2.05889
 C     0.42155     2.21673    -2.94199
 H    -0.64143     2.40479    -2.71244
 H     0.68181     2.69283    -3.90621
 O     0.69521     0.82242    -3.04585
 C    -0.29195     0.05670    -3.72557
 H    -0.13825     0.17756    -4.81596
 H    -1.31215     0.39586    -3.47378
 C    -0.04249    -1.38218    -3.26310
 H    -0.04469    -2.09963    -4.10164
 H     0.92182    -1.45171    -2.70431
 O    -1.13303    -1.70210    -2.40130
 C    -0.93465    -2.92294    -1.68277
 H     0.07715    -2.93297    -1.21688
 H    -1.03391    -3.76117    -2.39821
 C    -2.03262    -2.95143    -0.61722
 H    -2.84281    -2.23381    -0.84863
 H    -2.46171    -3.96235    -0.48519
 O    -1.37490    -2.57438     0.58669
 C    -2.22893    -2.46671     1.72112
 H    -2.52786    -3.49189     2.01905
 H    -3.13311    -1.87497     1.48787
 C    -1.36596    -1.80577     2.79368
 H    -1.66948    -2.12789     3.80839
 H    -0.29020    -2.02702     2.63286
 O    -1.58815    -0.39576     2.69356
 C    -0.69618     0.33656     3.53024
 H     0.34840    -0.00385     3.35895
 H    -0.96368     0.14934     4.58660
 C    -0.86057     1.80625     3.13596
 H    -1.81100     1.98793     2.59289
 H    -0.79804     2.47966     4.01557
 O     0.25533     2.07037     2.29566
 C     0.16916     3.30794     1.59979
 H     0.41273     4.11585     2.31986
 H    -0.84981     3.45026     1.18255
 C     1.21671     3.23405     0.49016
 H     1.70971     4.21185     0.32967
 H     1.98085     2.45176     0.69988
Rb    -6.42786    -2.30605     8.24105
 C    -6.05777    -2.47973     4.82874
 H    -6.26953    -3.46331     4.48707
 C    -4.77569    -1.95305     5.08835
 H    -3.85207    -2.46955     4.97744
 C    -4.92384    -0.61299     5.50612
 H    -4.13030     0.04808     5.75715
 C    -6.30378    -0.30518     5.50331
 H    -6.73936     0.62536     5.77735
 C    -7.00638    -1.45850     5.08677
 H    -8.06032    -1.54653     4.99098
 O    -5.83385    -5.29853     8.09231
 C    -4.62883    -5.20230     7.33254
 H    -4.76984    -4.49352     6.48815
 H    -4.38568    -6.21442     6.93614
 C    -3.57488    -4.69667     8.31713
 H    -3.91034    -4.81474     9.36351
 H    -2.60569    -5.20815     8.17997
 O    -3.41010    -3.32359     7.98012
 C    -2.74232    -2.54060     8.96195
 H    -1.65345    -2.71837     8.86277
 H    -3.05318    -2.82075     9.98393
 C    -3.12274    -1.09735     8.62923
 H    -2.25872    -0.41256     8.68924
 H    -3.58746    -1.03508     7.61583
 O    -4.06844    -0.71454     9.62644
 C    -4.68944     0.54083     9.34331
 H    -5.05409     0.55777     8.29215
 H    -3.93779     1.33853     9.49977
 C    -5.85013     0.65596    10.33271
 H    -5.72086    -0.02659    11.19479
 H    -5.98368     1.69121    10.70017
 O    -7.00040     0.28308     9.58313
 C    -8.21899     0.31082    10.31842
 H    -8.47972     1.37234    10.50291
 H    -8.11416    -0.21264    11.28665
 C    -9.24684    -0.35799     9.40963
 H   -10.26808     0.00970     9.62931
 H    -9.01163    -0.19084     8.33876
 O    -9.20837    -1.75801     9.69979
 C   -10.02000    -2.50476     8.79724
 H    -9.78073    -2.22464     7.74823
 H   -11.08124    -2.26784     8.99460
 C    -9.69400    -3.97632     9.05906
 H    -9.24255    -4.12942    10.06169
 H   -10.58715    -4.62686     8.94725
 O    -8.76819    -4.32061     8.03783
 C    -8.15279    -5.58822     8.23504
 H    -8.89738    -6.36742     7.97265
 H    -7.82709    -5.70145     9.29057
 C    -6.96145    -5.61975     7.28029
 H    -6.80799    -6.62572     6.84469
 H    -7.06834    -4.86781     6.46581
Rb     9.09719    -3.59272     1.17066
 C     6.74068    -5.67329     2.52222
 H     5.92528    -5.76041     1.84685
 C     6.82126    -4.77677     3.60890
 H     6.07485    -4.07577     3.89693
 C     8.05900    -4.97845     4.25763
 H     8.39902    -4.45991     5.11995
 C     8.74810    -6.00498     3.57205
 H     9.71411    -6.37628     3.81348
 C     7.93411    -6.43640     2.50078
 H     8.17465    -7.20122     1.80462
 O     6.83757    -2.41979    -0.50313
 C     5.95918    -2.20833     0.60403
 H     5.99895    -3.08512     1.28671
 H     4.92533    -2.09282     0.20966
 C     6.45317    -0.93888     1.29152
 H     7.15376    -0.37424     0.65296
 H     5.60875    -0.28649     1.58552
 O     7.08439    -1.40866     2.47781
 C     7.97851    -0.49270     3.09334
 H     7.38331     0.22155     3.69487
 H     8.56215     0.07079     2.34367
 C     8.87675    -1.37253     3.96663
 H     9.04078    -0.93983     4.96870
 H     8.45100    -2.40005     4.06181
 O    10.12920    -1.42327     3.28835
 C    11.02798    -2.37857     3.85547
 H    10.51315    -3.35590     3.99106
 H    11.37005    -1.99332     4.83512
 C    12.17585    -2.49402     2.85053
 H    12.20235    -1.62716     2.16223
 H    13.15759    -2.60277     3.34862
 O    11.89439    -3.68152     2.12055
 C    12.84982    -3.99790     1.11372
 H    13.77579    -4.33528     1.62082
 H    13.07428    -3.11564     0.48593
 C    12.21799    -5.13131     0.30963
 H    12.99791    -5.76160    -0.16085
 H    11.55677    -5.75913     0.94212
 O    11.44768    -4.52180    -0.73123
 C    10.71895    -5.48835    -1.48258
 H    10.14470    -6.14823    -0.79673
 H    11.43417    -6.10526    -2.05656
 C     9.78122    -4.69506    -2.39493
 H    10.14821    -3.66251    -2.57349
 H     9.61904    -5.20735    -3.36637
 O     8.54355    -4.67153    -1.69901
 C     7.59470    -3.77557    -2.26406
 H     7.18538    -4.25023    -3.17993
 H     8.07592    -2.80525    -2.50632
 C     6.50503    -3.61306    -1.20940
 H     5.50636    -3.48250    -1.67004
 H     6.48573    -4.47679    -0.50800
Rb    -1.99389     5.42560     3.42847
 C     1.63781    -3.15808    11.91418
 H     2.27253    -2.99655    12.75057
 C     0.50520    -3.99751    11.88886
 H     0.14477    -4.58147    12.70139
 C    -0.07250    -3.92211    10.60397
 H    -0.95291    -4.42755    10.29107
 C     0.70707    -3.03476     9.82738
 H     0.53902    -2.78171     8.80837
 C     1.76393    -2.56072    10.63554
 H     2.52165    -1.88206    10.33147
 O    -0.70926     4.35382     5.97177
 C    -1.91156     4.21465     6.72947
 H    -2.53591     5.12728     6.61750
 H    -1.62837     4.08365     7.79883
 C    -2.61438     2.98241     6.16422
 H    -1.93355     2.37285     5.54407
 H    -3.04324     2.35452     6.96593
 O    -3.68556     3.51253     5.39061
 C    -4.26400     2.60262     4.46386
 H    -4.98392     1.96467     5.01379
 H    -3.49778     1.95603     3.99889
 C    -4.95661     3.49200     3.42915
 H    -5.97063     3.13384     3.17904
 H    -5.00522     4.54930     3.78482
 O    -4.14773     3.40570     2.25814
 C    -4.52325     4.34913     1.25249
 H    -4.63797     5.36221     1.69913
 H    -5.48233     4.01796     0.81066
 C    -3.38694     4.32335     0.22785
 H    -2.76746     3.41199     0.33022
 H    -3.76031     4.40499    -0.81044
 O    -2.60550     5.47292     0.52818
 C    -1.47984     5.66382    -0.32253
 H    -1.85321     5.96095    -1.32333
 H    -0.88802     4.73508    -0.41655
 C    -0.68617     6.79395     0.32716
 H    -0.08079     7.33924    -0.42396
 H    -1.35621     7.50198     0.85629
 O     0.21015     6.18726     1.26339
 C     0.87009     7.16231     2.06543
 H     0.12090     7.84423     2.52430
 H     1.54421     7.75790     1.42241
 C     1.62789     6.38062     3.14093
 H     1.78644     5.31988     2.85089
 H     2.60182     6.85539     3.38299
 O     0.79798     6.46766     4.29056
 C     1.17678     5.58956     5.34364
 H     2.06842     6.01923     5.84429
 H     1.39934     4.57842     4.94321
 C    -0.01381     5.55542     6.29780
 H     0.30537     5.50371     7.35634
 H    -0.68112     6.43488     6.14999
 C    -1.63865    -4.15737     5.52996
 H    -1.65470    -3.15566     5.98028
 H    -1.31949    -4.89780     6.27042
 H    -2.63218    -4.40648     5.14100
 O    -0.68233    -4.05346     4.49060
 C    -0.61161    -5.22353     3.68244
 H    -1.55939    -5.32604     3.11933
 H    -0.46225    -6.11670     4.31630
 C     0.57429    -4.99123     2.74731
 H     0.35155    -5.33052     1.71776
 H     0.87614    -3.92732     2.72765
 O     1.63689    -5.77617     3.28717
 C     2.81451    -5.69576     2.50506
 H     3.55774    -6.25640     3.08670
 H     3.14723    -4.65702     2.39010
 H     2.65285    -6.16071     1.52689
 C   -11.78267     2.09824     9.12094
 H   -12.23541     1.10102     9.19552
 H   -12.46232     2.78626     8.60839
 H   -11.54268     2.47163    10.12312
 O   -10.61710     1.88576     8.34462
 C    -9.77645     3.03203     8.26968
 H    -9.35555     3.23037     9.27367
 H   -10.35798     3.91088     7.93429
 C    -8.68812     2.66101     7.26211
 H    -7.68145     2.94087     7.62641
 H    -8.70578     1.58175     7.02180
 O    -8.99409     3.41874     6.09241
 C    -8.07798     3.18063     5.04010
 H    -8.46995     3.78431     4.21188
 H    -8.06865     2.12081     4.75693
 H    -7.07254     3.51151     5.32430
 C    -5.30481     4.11614     7.91638
 H    -5.68876     4.30259     6.90428
 H    -5.09641     3.05000     8.05117
 H    -4.40014     4.71148     8.08460
 O    -6.36374     4.51596     8.76771
 C    -5.98008     4.58459    10.13665
 H    -5.32562     5.46628    10.27045
 H    -5.42985     3.67150    10.43233
 C    -7.28875     4.72319    10.91410
 H    -7.22122     5.50546    11.69369
 H    -8.14000     4.94639    10.24455
 O    -7.48156     3.45251    11.53436
 C    -8.67700     3.38979    12.28936
 H    -8.69489     2.35926    12.66778
 H    -9.55457     3.56774    11.65526
 H    -8.65018     4.10853    13.11489
 C     4.65291    -1.63315     4.16775
 H     5.61595    -1.80321     4.66501
 H     4.57898    -0.59628     3.82444
 H     4.54505    -2.32442     3.32358
 O     3.69461    -1.88119     5.18170
 C     2.36439    -1.94448     4.68114
 H     2.25319    -2.87982     4.10038
 H     2.15828    -1.07864     4.02456
 C     1.46358    -1.93564     5.91537
 H     0.61423    -2.63606     5.80346
 H     2.02378    -2.18536     6.83489
 O     0.97209    -0.59911     6.00165
 C     0.08626    -0.41670     7.09058
 H    -0.14864     0.65525     7.06026
 H     0.57155    -0.66522     8.04268
 H    -0.81870    -1.01822     6.95381
