  130
 
 W     0.00000     0.00000     0.00000
 C   -10.35157    -6.52273    -1.08249
 O   -11.62456    -4.04884    -1.08249
 C    -8.68554    -5.10498     1.49074
 C    -9.29131    -3.93547     1.91421
 C    -9.47096    -3.07447     0.86656
 C    -8.88005    -3.72084    -0.26429
 C    -8.40878    -4.92089     0.12587
 C   -12.03352    -4.83251     2.36326
 C   -12.91955    -4.87977     1.30305
 C   -12.75966    -6.11233     0.67077
 C   -11.80773    -6.81099     1.31995
 C   -11.30133    -5.99235     2.47431
 H    -9.52039    -6.79650    -0.68138
 H   -10.91843    -7.28999    -1.19923
 H   -10.17698    -6.11846    -1.93569
 H    -8.49383    -5.88807     2.01031
 H    -9.55170    -3.74858     2.82050
 H    -9.89391    -2.21221     0.87599
 H    -8.83282    -3.37338    -1.15842
 H    -7.94646    -5.53723    -0.44739
 H   -11.95080    -4.08883     2.96644
 H   -13.53646    -4.19738     1.02865
 H   -13.22720    -6.41674    -0.10975
 H   -11.51534    -7.69704     1.09374
 H   -10.62447    -6.22370     3.11358
 W   -12.46006    -3.18413    -2.55893
 C   -12.89755    -1.57496    -1.08249
 H   -13.72873    -1.30119    -1.48359
 H   -12.33068    -0.80770    -0.96574
 H   -13.07214    -1.97922    -0.22928
 C   -14.56358    -2.99270    -3.65572
 C   -13.95780    -4.16222    -4.07918
 C   -13.77816    -5.02322    -3.03154
 H   -13.69741    -4.34911    -4.98547
 C   -14.36906    -4.37685    -1.90068
 C   -14.84033    -3.17679    -2.29084
 H   -14.75528    -2.20962    -4.17528
 H   -14.41629    -4.72430    -1.00655
 H   -15.30266    -2.56046    -1.71758
 C   -11.21559    -3.26518    -4.52823
 C   -10.32956    -3.21792    -3.46803
 C   -10.48945    -1.98536    -2.83574
 H    -9.71265    -3.90031    -3.19363
 C   -11.44138    -1.28670    -3.48492
 C   -11.94779    -2.10534    -4.63929
 H   -11.29831    -4.00885    -5.13141
 H   -11.73378    -0.40064    -3.25871
 H   -12.62464    -1.87399    -5.27855
 H   -10.02192    -1.68095    -2.05523
 H   -13.35521    -5.88548    -3.04096
 W   -10.78905    -4.91356     0.39395
 C    -1.11187     1.58323     1.10157
 O    -1.64302    -0.95703     0.10119
 C     2.02882     0.34453     1.19543
 C     2.13470    -0.84361     0.49459
 C     1.20062    -1.74527     0.92494
 C     0.51739    -1.10316     2.00389
 C     1.02813     0.13429     2.15929
 C     1.01755    -0.09032    -2.09589
 C    -0.35122    -0.12704    -2.28679
 C    -0.87323     1.09285    -1.85476
 C     0.13948     1.86469    -1.41383
 C     1.43197     1.11223    -1.57072
 H    -0.34928     1.91718     1.58547
 H    -1.55386     2.31373     0.65922
 H    -1.72025     1.16363     1.71476
 H     2.52548     1.15407     1.05848
 H     2.77582    -1.01550    -0.19977
 H     1.03453    -2.62947     0.58868
 H    -0.19579    -1.47542     2.52851
 H     0.75108     0.75753     2.83535
 H     1.61445    -0.80786    -2.32129
 H    -0.87044    -0.85175    -2.64280
 H    -1.79877     1.34537    -1.84722
 H     0.05159     2.75835    -1.07415
 H     2.31743     1.40259    -1.34244
 W    -3.28605    -1.91407     0.20239
 C    -2.17387    -3.49810    -0.89969
 H    -2.93646    -3.83206    -1.38359
 H    -1.73188    -4.22861    -0.45734
 H    -1.56580    -3.07770    -1.51237
 C    -5.31456    -2.25940    -0.99355
 C    -5.42044    -1.07126    -0.29271
 C    -4.48636    -0.16960    -0.72306
 H    -6.06156    -0.89937     0.40165
 C    -3.80313    -0.81171    -1.80201
 C    -4.31387    -2.04916    -1.95741
 H    -5.81153    -3.06814    -0.85610
 H    -3.08995    -0.43945    -2.32663
 H    -4.03682    -2.67240    -2.63347
 C    -4.30329    -1.82456     2.29777
 C    -2.93452    -1.78783     2.48867
 C    -2.41251    -3.00772     2.05664
 H    -2.41530    -1.06312     2.84468
 C    -3.42522    -3.77956     1.61571
 C    -4.71771    -3.02710     1.77260
 H    -4.90050    -1.10620     2.52368
 H    -3.33764    -4.67242     1.27653
 H    -5.60317    -3.31746     1.54432
 H    -1.48727    -3.25943     2.04960
 H    -4.32027     0.71460    -0.38679
 P    -4.04823     3.95166    -2.06772
 F    -3.63338     2.62501    -2.82738
 F    -4.45260     5.27062    -1.28932
 F    -2.52738     4.21500    -1.73720
 F    -5.56154     3.68153    -2.38870
 F    -4.17814     3.15036    -0.73428
 F    -3.91029     4.74186    -3.39633
 P     3.26724     2.87326     4.20077
 F     2.76674     4.19672     4.91291
 F     3.78872     1.55865     3.48735
 F     4.36474     2.70744     5.32308
 F     2.18142     3.04658     3.07959
 F     4.28365     3.70676     3.35854
 F     2.25916     2.04983     5.04589
 P    -1.48108    -0.02363     5.92082
 F    -1.89624     1.30383     6.68099
 F    -1.07671    -1.34259     5.14243
 F    -3.00224    -0.28617     5.59080
 F     0.03223     0.24650     6.24180
 F    -1.35117     0.77767     4.58738
 F    -1.61902    -0.81383     7.24943
 P    -8.79655     1.05477    -0.34767
 F    -8.29605    -0.26869    -1.05981
 F    -9.31834     2.37018     0.36625
 F    -9.89405     1.22059    -1.46998
 F    -7.71104     0.88226     0.77402
 F    -9.81296     0.22127     0.49456
 F    -7.78847     1.87820    -1.19279
