  200
 
Cu     0.00000     0.00000     0.00000
 N     1.92641    -0.26663     0.21831
 N     0.52168     1.73450    -0.86724
 N     0.08214    -0.96596    -1.68363
 N    -1.90650     0.21581    -0.29234
 C     2.38601     1.11890     0.62441
 C     1.92766     2.10397    -0.45123
 C     2.50686    -0.70589    -1.11548
 C     1.45242    -1.58520    -1.78191
 C    -2.62630     1.36591    -0.35644
 C    -4.02645     1.39754    -0.15976
 C    -4.73848     0.12353    -0.07047
 C    -3.89901    -0.90540     0.51024
 C    -2.68467    -0.99173    -0.28516
 C     2.24502    -1.28563     1.29262
 C     0.97220    -1.55641     2.09300
 N    -0.23627    -1.54845     1.17933
Cu    -4.45004     6.94291    -3.87688
 N    -5.41647     5.24612    -3.66952
 N    -6.32466     7.89915    -3.43213
 N    -3.49931     6.43067    -2.11291
 N    -3.26237     8.46306    -3.89729
 C    -6.83657     5.47087    -3.19083
 C    -7.31556     6.81007    -3.77198
 C    -4.67610     4.36589    -2.68140
 C    -3.59398     5.14303    -1.98006
 C    -3.69588     9.74816    -3.43521
 C    -2.95162    10.90097    -3.92164
 C    -1.53116    10.70177    -3.69273
 C    -1.08238     9.46403    -4.33659
 C    -1.97426     8.34062    -4.22989
 C    -5.45888     4.62021    -5.04765
 C    -4.14671     4.94605    -5.76284
 N    -3.98092     6.44727    -5.78202
Cu     9.72427    -0.46908     1.27915
 N    10.00260     1.04536     0.08900
 N    10.98701    -1.39613     0.11900
 N     9.12654     0.80954     2.60089
 N     8.13861    -1.36134     0.86386
 C    11.51539     1.05492     0.16918
 C    12.08466    -0.36812     0.06409
 C     9.44767     2.31849     0.70378
 C     8.51552     1.96646     1.86106
 C     8.35544    -2.72042     0.68029
 C     7.23659    -3.49915     0.13222
 C     6.03670    -3.25966     0.88977
 C     5.71331    -1.84980     0.93498
 C     6.81816    -0.90448     1.29269
 C     9.63589     1.00699    -1.36624
 C     8.20352     0.68225    -1.59052
 N     7.83598    -0.51986    -1.94396
Cu     3.85271     6.15238    -3.74099
 N     1.95254     6.38607    -4.01064
 N     3.58020     4.29765    -4.21180
 N     4.20868     6.83142    -5.56463
 N     5.75439     6.00191    -3.38532
 C     1.22835     5.06444    -3.81097
 C     2.26576     3.96703    -3.57444
 C     1.75914     6.88090    -5.43107
 C     2.99911     7.71663    -5.75268
 C     6.55453     4.97383    -3.14163
 C     8.00779     5.10255    -3.04122
 C     8.61819     6.29016    -3.49833
 C     7.80169     7.35115    -3.83121
 C     6.41175     7.28229    -3.36250
 C     1.50685     7.42261    -3.00364
 C     2.40106     7.38582    -1.74861
 N     3.45151     6.29213    -1.81587
Cl    -0.29952     5.17094    -0.41296
 O     1.15731     4.94587    -0.62153
 O    -1.06439     4.01581    -1.06980
 O    -0.78963     6.39770    -1.08640
 O    -0.58432     5.23315     1.04151
Cl    -1.88514    -3.40778    -3.53755
 O    -2.33835    -4.82757    -3.66087
 O    -0.47748    -3.10676    -3.14068
 O    -2.74843    -2.89907    -2.41314
 O    -2.26686    -2.65859    -4.77102
Cl     5.78106     9.20073     0.13212
 O     6.57459    10.23890    -0.54470
 O     4.39609     9.80460     0.64462
 O     6.51714     8.53589     1.23139
 O     5.30834     8.14869    -0.81282
Cl     5.03933     0.87793    -3.73518
 O     3.67316     0.40095    -3.79842
 O     5.29354     2.20143    -4.31268
 O     6.03409    -0.13445    -4.54895
 O     5.66028     0.69721    -2.38436
Cl     5.24955     2.86436    -0.67487
 O     6.65338     3.23787    -0.78163
 O     5.21581     1.34403    -0.07537
 O     4.60706     2.77930    -2.00228
 O     4.49254     3.73472     0.23721
Cl     2.86954    11.45026    -4.61362
 O     2.16809    12.62887    -5.23449
 O     2.03993    10.24055    -4.55295
 O     3.11091    11.89806    -3.20809
 O     4.29278    11.23653    -5.26130
Cl    -5.69114     8.99165     0.42588
 O    -5.40472     7.43403    -0.07217
 O    -4.43323     9.60155     0.81234
 O    -6.67234     8.84882     1.49092
 O    -6.24127     9.63281    -0.77824
Cl    -1.15675     1.92761    -4.26522
 O    -1.78426     0.76859    -3.63870
 O    -1.85550     3.24905    -3.64633
 O    -1.17289     1.81707    -5.73826
 O     0.23339     1.99358    -3.77366
 H    -0.09401     2.54148    -0.55268
 H     0.45873     1.75156    -1.92412
 H    -0.57256    -1.81254    -1.87335
 H    -0.10199    -0.29373    -2.47509
 H     1.90914     1.35777     1.61787
 H     3.49776     1.15987     0.77307
 H     1.96260     3.16143    -0.03795
 H     2.62020     2.07815    -1.33675
 H     3.45560    -1.29124    -0.99399
 H     2.74431     0.16818    -1.78229
 H     1.38173    -2.60207    -1.27233
 H     1.72381    -1.75557    -2.86316
 H    -2.07501     2.32291    -0.48167
 H    -4.59232     2.30921     0.00390
 H    -5.64060    -0.08169    -0.61852
 H    -4.02025    -1.31287     1.48894
 H    -2.56409    -1.74390    -1.09352
 H     2.60614    -2.25397     0.84228
 H     3.04373    -0.90709     2.00833
 H     1.05569    -2.55474     2.64081
 H     0.85989    -0.77340     2.87967
 H    -0.27603    -2.51112     0.74610
 H    -1.07672    -1.51438     1.84840
 H    -6.43243     8.17796    -2.43323
 H    -6.63051     8.74591    -3.99400
 H    -2.68059     6.87694    -1.65581
 H    -5.20749     7.19844    -0.98513
 H    -7.52516     4.64623    -3.54584
 H    -6.85541     5.45959    -2.06470
 H    -7.38821     6.74999    -4.88055
 H    -8.36222     7.03021    -3.41494
 H    -4.16876     3.50245    -3.20044
 H    -5.37998     3.94776    -1.88863
 H    -1.49418     3.65249    -2.73290
 H    -2.89189     4.50930    -1.39098
 H    -4.51906     9.76822    -2.70781
 H    -3.36292    11.61409    -4.62400
 H    -0.90993    11.29360    -3.07974
 H    -0.17424     9.45702    -4.93977
 H    -1.58202     7.34374    -4.53405
 H    -5.65658     3.51590    -5.01879
 H    -6.32529     5.05771    -5.63571
 H    -3.25046     4.50715    -5.22802
 H    -4.17421     4.52493    -6.79723
 H    -2.97591     6.60205    -6.09168
 H    -4.58872     6.85895    -6.52753
 H    10.60880    -1.58890    -0.85277
 H    11.41018    -2.28411     0.50743
 H    10.02669     1.13586     3.11160
 H     8.45564     0.39420     3.26600
 H    11.96943     1.72534    -0.60988
 H    11.81805     1.49098     1.18677
 H    12.68477    -0.46165    -0.86972
 H    12.77790    -0.54228     0.94508
 H    10.30855     2.95191     1.09684
 H     8.86726     2.92919    -0.04649
 H     8.39391     2.87141     2.51029
 H     7.48640     1.70505     1.48760
 H     7.28752    -4.01207    -0.79998
 H     5.63336    -3.96029     1.59816
 H     4.76124    -1.47658     0.62395
 H     6.63429     0.12508     0.88835
 H    10.31378     0.30756    -1.95397
 H     9.85515     2.06443    -1.84651
 H     7.46751     1.52463    -1.49680
 H     5.28956     0.60964    -0.79655
 H     8.54864    -1.31019    -1.99957
 H     6.84763    -0.68433    -2.25120
 H     4.29767     3.60300    -3.79964
 H     3.55339     4.15607    -5.27213
 H     4.21549     6.14424    -6.36250
 H     5.07575     7.46916    -5.66110
 H     0.56509     4.83517    -4.69176
 H     0.56948     5.11378    -2.89899
 H     1.88030     2.97033    -3.96401
 H     2.42541     3.82455    -2.46155
 H     1.67255     6.00547    -6.14679
 H     0.82756     7.48312    -5.53696
 H     2.92276     8.13248    -6.79227
 H     3.07274     8.63226    -5.07746
 H     6.13885     3.94354    -3.05898
 H     8.61944     4.26067    -2.68755
 H     9.71460     6.31802    -3.62798
 H     8.11829     8.20175    -4.41135
 H     5.99414     8.06009    -2.70846
 H     0.43276     7.24791    -2.68142
 H     1.56263     8.45831    -3.46126
 H     1.72727     7.21639    -0.85877
 H     2.92384     8.37880    -1.63164
 H     3.04971     5.44912    -1.32485
 H     4.26209     6.64338    -1.22366
 H     9.27068    -3.24185     0.93822
