  112
 
 O     0.00000     0.00000     0.00000
 C     1.24200    -0.01800     0.00900
 N     1.93900     0.91700     0.66000
 H     3.01600     0.90100     0.57600
 N     1.93100    -0.93800    -0.64400
 H     3.00600    -0.94700    -0.53800
 C     1.32000     1.93200     1.48500
 H     2.08500     2.55800     1.91900
 H     0.75300     1.45800     2.27200
 H     0.66100     2.53500     0.87900
 C     1.33000    -1.94800    -1.47500
 H     2.10100    -2.58600    -1.87900
 H     0.79300    -1.47400    -2.28400
 H     0.64600    -2.53800    -0.88400
 O     1.14100     2.82400    -5.04600
 C     2.38300     2.84200    -5.03700
 N     3.08000     1.90700    -4.38600
 H     4.15700     1.92300    -4.47000
 N     3.07200     3.76200    -5.69000
 H     4.14700     3.77100    -5.58400
 C     2.46100     0.89200    -3.56200
 H     3.22600     0.26600    -3.12800
 H     1.89400     1.36600    -2.77400
 H     1.80200     0.28900    -4.16700
 C     2.47100     4.77200    -6.52100
 H     3.24200     5.41000    -6.92600
 H     1.93400     4.29800    -7.33000
 H     1.78700     5.36200    -5.93100
 O    -2.28400     5.70000     0.00000
 C    -1.04300     5.68200     0.00900
 N    -0.34500     6.61700     0.66000
 H     0.73200     6.60100     0.57600
 N    -0.35400     4.76200    -0.64400
 H     0.72100     4.75300    -0.53800
 C    -0.96400     7.63200     1.48500
 H    -0.19900     8.25800     1.91900
 H    -1.53200     7.15800     2.27200
 H    -1.62400     8.23500     0.87900
 C    -0.95400     3.75200    -1.47500
 H    -0.18300     3.11400    -1.87900
 H    -1.49100     4.22600    -2.28400
 H    -1.63900     3.16200    -0.88400
 O    -1.14300    -2.87600    -5.04600
 C     0.09800    -2.85800    -5.03700
 N     0.79600    -3.79300    -4.38600
 H     1.87200    -3.77700    -4.47000
 N     0.78700    -1.93800    -5.69000
 H     1.86200    -1.92900    -5.58400
 C     0.17700    -4.80800    -3.56200
 H     0.94200    -5.43400    -3.12800
 H    -0.39100    -4.33400    -2.77400
 H    -0.48300    -5.41100    -4.16700
 C     0.18700    -0.92800    -6.52100
 H     0.95800    -0.29000    -6.92600
 H    -0.35000    -1.40200    -7.33000
 H    -0.49800    -0.33800    -5.93100
 O     4.56900     0.00000     0.00000
 C     5.81100    -0.01800     0.00900
 N     6.50800     0.91700     0.66000
 H     7.58500     0.90100     0.57600
 N     6.50000    -0.93800    -0.64400
 H     7.57500    -0.94700    -0.53800
 C     5.88900     1.93200     1.48500
 H     6.65400     2.55800     1.91900
 H     5.32200     1.45800     2.27200
 H     5.23000     2.53500     0.87900
 C     5.89900    -1.94800    -1.47500
 H     6.67000    -2.58600    -1.87900
 H     5.36200    -1.47400    -2.28400
 H     5.21500    -2.53800    -0.88400
 O     5.71000     2.82400    -5.04600
 C     6.95200     2.84200    -5.03700
 N     7.64900     1.90700    -4.38600
 H     8.72600     1.92300    -4.47000
 N     7.64100     3.76200    -5.69000
 H     8.71600     3.77100    -5.58400
 C     7.03000     0.89200    -3.56200
 H     7.79500     0.26600    -3.12800
 H     6.46300     1.36600    -2.77400
 H     6.37100     0.28900    -4.16700
 C     7.04000     4.77200    -6.52100
 H     7.81100     5.41000    -6.92600
 H     6.50300     4.29800    -7.33000
 H     6.35600     5.36200    -5.93100
 O     2.28500     5.70000     0.00000
 C     3.52600     5.68200     0.00900
 N     4.22400     6.61700     0.66000
 H     5.30100     6.60100     0.57600
 N     4.21500     4.76200    -0.64400
 H     5.29000     4.75300    -0.53800
 C     3.60500     7.63200     1.48500
 H     4.37000     8.25800     1.91900
 H     3.03700     7.15800     2.27200
 H     2.94500     8.23500     0.87900
 C     3.61500     3.75200    -1.47500
 H     4.38600     3.11400    -1.87900
 H     3.07800     4.22600    -2.28400
 H     2.93000     3.16200    -0.88400
 O     3.42600    -2.87600    -5.04600
 C     4.66700    -2.85800    -5.03700
 N     5.36500    -3.79300    -4.38600
 H     6.44100    -3.77700    -4.47000
 N     5.35600    -1.93800    -5.69000
 H     6.43100    -1.92900    -5.58400
 C     4.74600    -4.80800    -3.56200
 H     5.51100    -5.43400    -3.12800
 H     4.17800    -4.33400    -2.77400
 H     4.08600    -5.41100    -4.16700
 C     4.75600    -0.92800    -6.52100
 H     5.52700    -0.29000    -6.92600
 H     4.21900    -1.40200    -7.33000
 H     4.07100    -0.33800    -5.93100
