  288
 
Cl     0.00000     0.00000     0.00000
Cl    -1.35455     5.02699    -1.27007
 O     4.91353     7.61677     2.95152
 O     4.03488     9.43503     2.01163
 H     4.69728    10.01911     2.50242
 O     3.09999     6.09015     1.76065
 O     1.55977     5.70097     0.16356
 N     0.33458     2.98222     0.05313
 H     0.69331     3.88663    -0.28799
 C     4.04312     8.13167     2.29168
 C     2.83230     7.48403     1.67364
 H     1.90867     7.71194     2.24442
 H     2.68812     7.80489     0.61841
 C     2.40668     5.28901     0.91990
 C     2.79150     3.86233     1.14111
 H     2.91128     3.33443     0.16232
 H     3.80739     3.79301     1.60439
 C     1.74795     3.21366     1.98875
 C     1.98353     3.04332     3.34816
 H     2.93936     3.36939     3.76075
 C     1.02480     2.45888     4.17112
 H     1.20712     2.37707     5.23831
 C    -0.16616     1.99480     3.62007
 H    -0.91098     1.51681     4.25828
 C    -0.41785     2.14125     2.25887
 H    -1.34937     1.77163     1.84126
 C     0.52696     2.76608     1.43562
 C    -0.78976     2.48841    -0.63239
 C    -1.04975     1.11421    -0.73811
 C    -2.12027     0.62526    -1.47360
 H    -2.31509    -0.44806    -1.52945
 C    -2.94309     1.51228    -2.16606
 H    -3.78949     1.12903    -2.73987
 C    -2.68458     2.88118    -2.12734
 H    -3.30750     3.57916    -2.69454
 C    -1.63206     3.34722    -1.35666
Cl    10.22809     4.04163     6.10233
Cl    11.52316     9.09083     7.35134
 O     5.22084    11.58352     3.08921
 O     6.06961    13.43428     3.99379
 H     5.39934    14.00156     3.49459
 O     7.03152    10.09089     4.31246
 O     8.61792     9.71371     5.86373
 N     9.86027     7.01738     6.03004
 H     9.49672     7.92693     6.35144
 C     6.07034    12.12180     3.75782
 C     7.26050    11.49142     4.43382
 H     8.20927    11.75464     3.92209
 H     7.33518    11.79136     5.50290
 C     7.76089     9.29070     5.12417
 C     7.39954     7.85690     4.90955
 H     7.27333     7.33435     5.89150
 H     6.38885     7.77196     4.43867
 C     8.45744     7.20510     4.08133
 C     8.22920     6.99900     2.72554
 H     7.26494     7.29027     2.30469
 C     9.20518     6.42058     1.91871
 H     9.02923     6.31494     0.85237
 C    10.40407     5.99258     2.48097
 H    11.16190     5.52138     1.85288
 C    10.64503     6.16568     3.84065
 H    11.58199     5.82174     4.26830
 C     9.68185     6.78349     4.64755
 C    10.98788     6.54122     6.72296
 C    11.26649     5.17045     6.83152
 C    12.34638     4.69766     7.56386
 H    12.56200     3.62850     7.61620
 C    13.15261     5.59821     8.25836
 H    14.00455     5.22843     8.83239
 C    12.87187     6.96264     8.22251
 H    13.48077     7.66929     8.79428
 C    11.81612     7.41321     7.44705
Cl     4.85882     5.09772    -1.06800
Cl     6.18693     0.05013     0.15221
 O    -0.09555    -2.52941    -4.05321
 O     0.87976    -4.35757    -3.23113
 H     0.20904    -4.94780    -3.70109
 O     1.72690    -0.99082    -2.89134
 O     3.27800    -0.60408    -1.30478
 N     4.48832     2.12208    -1.13209
 H     4.12057     1.21864    -0.79936
 C     0.80810    -3.04350    -3.43818
 C     2.00250    -2.38343    -2.80030
 H     2.94124    -2.60537    -3.34846
 H     2.12804    -2.70066    -1.74037
 C     2.42679    -0.18948    -2.05530
 C     2.04703     1.23759    -2.27684
 H     1.90073     1.76135    -1.30003
 H     1.04367     1.30697    -2.76630
 C     3.11099     1.88786    -3.09910
 C     2.90785     2.04920    -4.46585
 H     1.97029     1.70275    -4.90594
 C     3.87756     2.65073    -5.26379
 H     3.71740     2.73627    -6.33434
 C     5.04938     3.12827    -4.68333
 H     5.80161     3.61962    -5.30237
 C     5.27512     2.97527    -3.31852
 H     6.19791     3.34600    -2.88114
 C     4.31691     2.34119    -2.51758
 C     5.61385     2.59980    -0.43410
 C     5.88411     3.97075    -0.31611
 C     6.95148     4.44579     0.43219
 H     7.15359     5.51694     0.49331
 C     7.76089     3.54838     1.12644
 H     8.60460     3.92106     1.71024
 C     7.49564     2.18197     1.07246
 H     8.11072     1.47753     1.63928
 C     6.44964     1.72964     0.28423
Cl     5.36066     9.08200     7.18187
Cl     4.08508     4.01774     5.98571
 O    10.44836     1.58250    10.24746
 O     9.48112    -0.26553     9.46534
 H    10.15278    -0.84169     9.95173
 O     8.61197     3.09154     9.06152
 O     7.00542     3.42913     7.52209
 N     5.75426     6.11542     7.27124
 H     6.13194     5.21084     6.95375
 C     9.54673     1.05355     9.64313
 C     8.35184     1.69424     8.98887
 H     7.41157     1.46863     9.53277
 H     8.23627     1.36490     7.93214
 C     7.86812     3.87149     8.24300
 C     8.21513     5.31040     8.44237
 H     8.35029     5.82057     7.45674
 H     9.21249     5.41398     8.93889
 C     7.12782     5.94358     9.24748
 C     7.32139     6.13449    10.61150
 H     8.27456     5.83949    11.05362
 C     6.32493     6.69877    11.40310
 H     6.48178     6.80461    12.47253
 C     5.13204     7.11303    10.81765
 H     4.35500     7.56883    11.43349
 C     4.92138     6.94397     9.45203
 H     3.98733     7.27478     9.00763
 C     5.90875     6.34689     8.65793
 C     4.62416     6.57381     6.56751
 C     4.33867     7.94160     6.44528
 C     3.25840     8.40107     5.70580
 H     3.03994     9.46919     5.64588
 C     2.45498     7.49203     5.01907
 H     1.59919     7.85285     4.44499
 C     2.74060     6.12950     5.07029
 H     2.13238     5.41587     4.50719
 C     3.79733     5.69270     5.85329
Cl    -0.05969     7.92473     0.01025
Cl    -1.42090    12.95003    -1.28526
 O     4.84783    15.56997     2.91451
 O     3.95592    17.39640     1.99436
 H     4.62399    17.98449     2.47133
 O     3.04083    14.04583     1.72513
 O     1.49683    13.64246     0.13762
 N     0.28253    10.90982     0.03840
 H     0.63869    11.81424    -0.30493
 C     3.97931    16.08960     2.25504
 C     2.78132    15.43987     1.61302
 H     1.84328    15.67935     2.15331
 H     2.66665    15.74600     0.54949
 C     2.34671    13.23558     0.89347
 C     2.73636    11.81156     1.12078
 H     2.86318    11.27914     0.14489
 H     3.75242    11.75136     1.58529
 C     1.69805    11.15544     1.96984
 C     1.94118    10.98293     3.32780
 H     2.89646    11.31508     3.73801
 C     0.99124    10.38589     4.15194
 H     1.17785    10.30420     5.21843
 C    -0.19698     9.91154     3.60455
 H    -0.93439     9.42667     4.24624
 C    -0.45641    10.05908     2.24510
 H    -1.38897     9.68491     1.83276
 C     0.47963    10.69519     1.42011
 C    -0.83940    10.41095    -0.64730
 C    -1.09919     9.03581    -0.74567
 C    -2.16291     8.54215    -1.48803
 H    -2.36196     7.46979    -1.53619
 C    -2.97554     9.42435    -2.19800
 H    -3.81304     9.03633    -2.78120
 C    -2.71947    10.79372    -2.16331
 H    -3.33601    11.48686    -2.74262
 C    -1.67855    11.26618    -1.38027
Cl    10.16852    11.99901     6.06059
Cl    11.52610    17.04527     7.26874
 O     5.18137    19.55761     3.00108
 O     6.05208    21.39615     3.90705
 H     5.38690    21.96829     3.40684
 O     6.97614    18.05358     4.26368
 O     8.57246    17.69948     5.81104
 N     9.81396    14.97677     5.99225
 H     9.44842    15.88050     6.32625
 C     6.03615    20.08410     3.67243
 C     7.22068    19.45187     4.35368
 H     8.16991    19.69487     3.83374
 H     7.30932    19.77425     5.41468
 C     7.71113    17.26624     5.08380
 C     7.35107    15.83144     4.87933
 H     7.22698    15.31083     5.86155
 H     6.34188    15.74302     4.40481
 C     8.41237    15.19097     4.04591
 C     8.18761    15.01032     2.68594
 H     7.22722    15.31744     2.26903
 C     9.15957    14.43748     1.87064
 H     8.98557    14.34976     0.80242
 C    10.35365    13.99242     2.42963
 H    11.10951    13.52622     1.79526
 C    10.59347    14.14426     3.79225
 H    11.52775    13.78812     4.21538
 C     9.63484    14.75903     4.60773
 C    10.94561    14.49679     6.67774
 C    11.21081    13.12404     6.79216
 C    12.28385    12.64409     7.53014
 H    12.48665    11.57273     7.59016
 C    13.10030    13.53962     8.21953
 H    13.94482    13.16174     8.79950
 C    12.84100    14.90790     8.16675
 H    13.46333    15.61313     8.72535
 C    11.78982    15.36481     7.38812
Cl     4.79761    13.04356    -1.11552
Cl     6.15476     7.99828     0.08974
 O    -0.14106     5.40281    -4.08866
 O     0.85826     3.57841    -3.29155
 H     0.18936     2.99256    -3.76992
 O     1.66608     6.94904    -2.91768
 O     3.21958     7.33122    -1.33205
 N     4.42899    10.06848    -1.17109
 H     4.06046     9.17135    -0.82245
 C     0.77433     4.89364    -3.48681
 C     1.96921     5.56058    -2.85889
 H     2.89981     5.36892    -3.43199
 H     2.12566     5.22434    -1.80921
 C     2.36174     7.74632    -2.07437
 C     1.97883     9.17442    -2.28516
 H     1.85188     9.69959    -1.30662
 H     0.96994     9.25059    -2.76152
 C     3.03860     9.81032    -3.12459
 C     2.82650     9.95043    -4.49206
 H     1.87995     9.61052    -4.91729
 C     3.79803    10.52046    -5.31069
 H     3.63038    10.58653    -6.38183
 C     4.98179    10.99062    -4.74895
 H     5.73957    11.44928    -5.38702
 C     5.21211    10.86859    -3.38113
 H     6.14129    11.23813    -2.95719
 C     4.25314    10.26240    -2.55989
 C     5.56437    10.54696    -0.48816
 C     5.83313    11.91857    -0.37408
 C     6.90672    12.39544     0.36492
 H     7.11137    13.46660     0.42127
 C     7.72108    11.50022     1.05700
 H     8.56720    11.87501     1.63655
 C     7.45896    10.13299     1.00386
 H     8.07836     9.42778     1.56490
 C     6.40935     9.67864     0.22138
Cl     5.31081    17.05484     7.21403
Cl     4.00136    11.99509     5.99871
 O    10.37544     9.53299    10.23644
 O     9.41693     7.67343     9.47299
 H    10.10036     7.10816     9.95766
 O     8.55970    11.02809     9.01766
 O     6.93856    11.37642     7.49727
 N     5.70221    14.08179     7.27542
 H     6.07358    13.17826     6.94771
 C     9.48397     8.99533     9.62444
 C     8.30732     9.62978     8.93200
 H     7.34909     9.39546     9.43821
 H     8.23049     9.30618     7.87006
 C     7.81091    11.81392     8.20926
 C     8.16849    13.25068     8.40796
 H     8.29434    13.76819     7.42432
 H     9.17517    13.34449     8.88791
 C     7.09773    13.88882     9.23219
 C     7.31262    14.07399    10.59379
 H     8.27105    13.77315    11.02117
 C     6.33001    14.64082    11.40092
 H     6.50078    14.73931    12.46914
 C     5.13171    15.06359    10.83342
 H     4.36489    15.51647    11.46346
 C     4.89930    14.90317     9.47037
 H     3.95817    15.23730     9.04261
 C     5.87324    14.30471     8.66105
 C     4.57261    14.55051     6.57883
 C     4.29491    15.92058     6.46040
 C     3.22970    16.38927     5.70456
 H     3.01555    17.45776     5.64432
 C     2.43534    15.48822     4.99742
 H     1.59891    15.85782     4.40121
 C     2.70622    14.12300     5.05534
 H     2.10222    13.41508     4.48148
 C     3.74405    13.67554     5.85762
