  208
 
 C     0.00000     0.00000     0.00000
 C     1.52779     0.00000     0.00000
 C     2.03731     1.44265     0.00000
 H    -0.39783     0.41847    -0.81082
 H     1.84720    -0.40105    -0.78219
 H     1.72060     1.91885    -0.80719
 H     2.96872     1.41949    -0.02774
 C    -0.51173     0.72205     1.24536
 H    -0.32991    -0.93562    -0.08115
 C     2.03801    -0.71626     1.25115
 C     1.52870     2.16617     1.24762
 C    -0.00058     0.00473     2.49637
 C    -0.00128     2.16363     1.24522
 H    -1.44585     0.68626     1.27412
 C     1.52870     0.00653     2.49976
 H     3.02713    -0.72921     1.24115
 H     1.74007    -1.59873     1.28713
 C     2.03673     1.44737     2.49637
 H     1.79898     3.06139     1.26218
 H    -0.32741    -0.92880     2.51478
 H    -0.34611     0.44423     3.24220
 H    -0.34686     2.63391     2.04400
 H    -0.28922     2.62976     0.49114
 H     1.87314    -0.45186     3.23863
 H     3.02863     1.51957     2.53802
 H     1.77257     1.89233     3.34668
 C     2.30091     0.84788     8.93726
 C     2.77311     0.43708     7.54368
 C     2.54270    -1.06277     7.34913
 H     2.80483     0.40679     9.67463
 H     3.69311     0.58410     7.46195
 H     3.05357    -1.57877     8.02098
 H     2.86203    -1.29597     6.50505
 C     0.81194     0.53589     9.08647
 H     2.52402     1.80538     9.09284
 C     1.98135     1.21105     6.48877
 C     1.05305    -1.37673     7.49438
 C     0.02169     1.31042     8.03001
 C     0.58303    -0.96339     8.89036
 H     0.50666     0.82571     9.92163
 C     0.49067     0.89905     6.63374
 H     2.29960     0.95604     5.58749
 H     2.09322     2.13166     6.58249
 C     0.26417    -0.59949     6.44089
 H     0.88309    -2.29251     7.40989
 H     0.15435     2.28374     8.14693
 H    -0.88352     1.12727     8.15599
 H    -0.37876    -1.16571     9.00287
 H     1.05704    -1.46766     9.51474
 H     0.04591     1.37800     5.96479
 H     0.51342    -0.92695     5.53462
 H    -0.71350    -0.78993     6.45618
 C     5.37104    -1.10085    -3.74385
 C     6.89883    -1.10085    -3.74385
 C     7.40835     0.34179    -3.74385
 H     4.97321    -0.68239    -4.55466
 H     7.21824    -1.50190    -4.52604
 H     7.09164     0.81800    -4.55103
 H     8.33976     0.31864    -3.77158
 C     4.85931    -0.37881    -2.49849
 H     5.04113    -2.03647    -3.82499
 C     7.40905    -1.81711    -2.49270
 C     6.89974     1.06532    -2.49623
 C     5.37046    -1.09613    -1.24748
 C     5.36976     1.06278    -2.49862
 H     3.92519    -0.41459    -2.46973
 C     6.89974    -1.09432    -1.24409
 H     8.39817    -1.83007    -2.50270
 H     7.11111    -2.69958    -2.45671
 C     7.40777     0.34652    -1.24748
 H     7.17002     1.96054    -2.48166
 H     5.04363    -2.02965    -1.22906
 H     5.02493    -0.65663    -0.50164
 H     5.02418     1.53306    -1.69985
 H     5.08182     1.52890    -3.25270
 H     7.24418    -1.55271    -0.50521
 H     8.39967     0.41871    -1.20583
 H     7.14361     0.79148    -0.39716
 C     7.67194    -0.25297     5.19341
 C     8.14415    -0.66377     3.79983
 C     7.91374    -2.16362     3.60528
 H     8.17587    -0.69406     5.93078
 H     9.06415    -0.51675     3.71811
 H     8.42461    -2.67962     4.27713
 H     8.23307    -2.39682     2.76121
 C     6.18298    -0.56496     5.34262
 H     7.89506     0.70453     5.34899
 C     7.35239     0.11019     2.74493
 C     6.42408    -2.47758     3.75054
 C     5.39273     0.20957     4.28616
 C     5.95407    -2.06425     5.14651
 H     5.87769    -0.27514     6.17778
 C     5.86171    -0.20180     2.88989
 H     7.67064    -0.14481     1.84364
 H     7.46426     1.03080     2.83865
 C     5.63521    -1.70035     2.69704
 H     6.25413    -3.39337     3.66605
 H     5.52539     1.18289     4.40309
 H     4.48752     0.02642     4.41214
 H     4.99228    -2.26657     5.25903
 H     6.42808    -2.56851     5.77089
 H     5.41695     0.27715     2.22095
 H     5.88446    -2.02780     1.79077
 H     4.65754    -1.89078     2.71234
 C    -0.75612     5.95507    -2.83580
 C     0.77167     5.95507    -2.83580
 C     1.28120     7.39772    -2.83580
 H    -1.15394     6.37353    -3.64662
 H     1.09108     5.55402    -3.61799
 H     0.96448     7.87392    -3.64299
 H     2.21260     7.37456    -2.86354
 C    -1.26785     6.67712    -1.59044
 H    -1.08603     5.01945    -2.91694
 C     1.28189     5.23881    -1.58465
 C     0.77258     8.12124    -1.58818
 C    -0.75670     5.95980    -0.33943
 C    -0.75740     8.11870    -1.59058
 H    -2.20197     6.64133    -1.56168
 C     0.77258     5.96160    -0.33604
 H     2.27101     5.22586    -1.59465
 H     0.98395     4.35634    -1.54867
 C     1.28061     7.40244    -0.33943
 H     1.04286     9.01646    -1.57362
 H    -1.08353     5.02627    -0.32102
 H    -1.10223     6.39930     0.40640
 H    -1.10297     8.58898    -0.79180
 H    -1.04533     8.58483    -2.34466
 H     1.11702     5.50321     0.40283
 H     2.27251     7.47464    -0.29778
 H     1.01645     7.84740     0.51088
 C     1.54479     6.80295     6.10146
 C     2.01700     6.39215     4.70788
 C     1.78658     4.89230     4.51333
 H     2.04871     6.36186     6.83883
 H     2.93699     6.53917     4.62615
 H     2.29745     4.37630     5.18518
 H     2.10591     4.65910     3.66925
 C     0.05583     6.49096     6.25067
 H     1.76791     7.76045     6.25704
 C     1.22524     7.16612     3.65297
 C     0.29693     4.57834     4.65858
 C    -0.73443     7.26549     5.19421
 C    -0.17309     4.99168     6.05456
 H    -0.24946     6.78078     7.08583
 C    -0.26545     6.85412     3.79794
 H     1.54348     6.91111     2.75169
 H     1.33710     8.08673     3.74669
 C    -0.49194     5.35557     3.60509
 H     0.12697     3.66256     4.57409
 H    -0.60176     8.23881     5.31113
 H    -1.63964     7.08234     5.32019
 H    -1.13487     4.78935     6.16708
 H     0.30092     4.48741     6.67894
 H    -0.71020     7.33307     3.12899
 H    -0.24270     5.02812     2.69882
 H    -1.46962     5.16514     3.62039
 C     4.61492     4.85422    -6.57964
 C     6.14271     4.85422    -6.57964
 C     6.65224     6.29686    -6.57964
 H     4.21710     5.27268    -7.39046
 H     6.46212     4.45317    -7.36184
 H     6.33552     6.77307    -7.38683
 H     7.58364     6.27371    -6.60738
 C     4.10319     5.57626    -5.33429
 H     4.28501     3.91860    -6.66079
 C     6.65293     4.13796    -5.32850
 C     6.14362     7.02038    -5.33202
 C     4.61434     4.85894    -4.08328
 C     4.61364     7.01785    -5.33442
 H     3.16907     5.54047    -5.30553
 C     6.14362     4.86075    -4.07988
 H     7.64205     4.12500    -5.33850
 H     6.35499     3.25549    -5.29251
 C     6.65165     6.30159    -4.08328
 H     6.41390     7.91561    -5.31746
 H     4.28751     3.92542    -4.06486
 H     4.26881     5.29844    -3.33744
 H     4.26807     7.48813    -4.53565
 H     4.32570     7.48397    -6.08850
 H     6.48806     4.40236    -3.34101
 H     7.64355     6.37378    -4.04163
 H     6.38749     6.74655    -3.23296
 C     6.91583     5.70209     2.35761
 C     7.38804     5.29130     0.96403
 C     7.15762     3.79145     0.76948
 H     7.41975     5.26101     3.09498
 H     8.30803     5.43832     0.88231
 H     7.66849     3.27545     1.44133
 H     7.47695     3.55825    -0.07459
 C     5.42687     5.39011     2.50682
 H     7.13895     6.65960     2.51319
 C     6.59628     6.06526    -0.09087
 C     5.66797     3.47749     0.91474
 C     4.63661     6.16464     1.45036
 C     5.19795     3.89082     2.31071
 H     5.12158     5.67993     3.34198
 C     5.10559     5.75327     0.05409
 H     6.91452     5.81026    -0.99216
 H     6.70814     6.98587     0.00285
 C     4.87910     4.25472    -0.13876
 H     5.49801     2.56170     0.83025
 H     4.76928     7.13796     1.56729
 H     3.73140     5.98149     1.57634
 H     4.23616     3.68850     2.42323
 H     5.67196     3.38656     2.93509
 H     4.66083     6.23222    -0.61485
 H     5.12834     3.92727    -1.04503
 H     3.90142     4.06429    -0.12346
