  216
 
 C     0.00000     0.00000     0.00000
 H     1.10780    -0.05315    -0.03492
 C    -0.57172     1.44727    -0.03505
 H    -1.69116     1.40243    -0.12849
 C    -0.19681     2.19736     1.27186
 H     0.84264     2.59565     1.24013
 C    -0.41205     1.34796     2.54085
 H    -1.49010     1.34058     2.82455
 C     0.13341    -0.08427     2.34032
 H     1.24205    -0.08878     2.21542
 C    -0.75276     2.55240    -2.24074
 C    -0.00755     2.92389    -3.47663
 H    -0.17468     3.97250    -3.75227
 H    -0.37823     2.32141    -4.33485
 H     1.07934     2.76262    -3.42080
 O    -0.60511    -0.68472    -1.06706
 O    -1.09046     3.28434     1.42209
 H    -1.03800     3.88314     0.64462
 O    -0.49563    -0.61171     1.18092
 C    -0.28721    -1.05345     3.45675
 H     0.30272    -0.87613     4.37636
 H    -1.36955    -1.00760     3.67664
 O     0.01916    -2.38243     3.08722
 H    -0.09023    -2.48264     2.11238
 O    -1.96937     2.61639    -2.15183
 N     0.00919     2.14244    -1.17372
 H     1.02548     2.20464    -1.20341
 C     0.19305    -1.71799    -1.63141
 O     0.38931     1.87165     3.59411
 C    -0.20824     2.90748     4.32744
 H    -1.31592     2.87357     4.27910
 C     0.37410    -4.29377    -1.64896
 H     1.49442    -4.36070    -1.71369
 C    -0.01894    -3.02358    -0.84311
 H    -1.06449    -3.07416    -0.45414
 H     1.26932    -1.43250    -1.62935
 C    -0.34970    -1.86012    -3.07163
 H    -1.45670    -1.98066    -3.08566
 C     0.61428    -6.55637    -0.66208
 C    -0.12174    -7.82558    -0.36701
 H    -0.03054    -8.08578     0.69820
 H     0.31180    -8.66922    -0.94216
 H    -1.19396    -7.78779    -0.62820
 O     0.86949    -2.93468     0.25520
 H     0.79707    -3.75097     0.80347
 O     0.27980    -2.99384    -3.64838
 C     0.08278    -0.69653    -3.97784
 H    -0.51636     0.21146    -3.77577
 H     1.16095    -0.47277    -3.88878
 O    -0.18590    -1.00744    -5.32818
 H    -0.01940    -1.96944    -5.48094
 O     1.82914    -6.45734    -0.57689
 N    -0.16931    -5.46794    -0.98108
 H    -1.19115    -5.54262    -0.97375
 C     0.99027    -8.45529     5.13633
 H    -0.07459    -8.19504     4.95921
 C     1.85119    -8.51216     3.83897
 H     2.93267    -8.64462     4.11157
 C     1.39508    -9.70869     2.95575
 H     0.48788    -9.46543     2.35558
 C     1.17416   -11.00798     3.75837
 H     2.14742   -11.51090     3.96578
 C     0.39280   -10.72465     5.05908
 H    -0.64860   -10.39095     4.84432
 C     2.64270    -6.31176     3.02099
 C     2.20786    -4.95879     2.54883
 H     2.61163    -4.74126     1.54979
 H     2.59077    -4.17535     3.23041
 H     1.11027    -4.83279     2.51720
 O     1.62734    -7.54823     5.99785
 O     2.45633   -10.02518     2.07733
 H     2.63647    -9.27357     1.46924
 O     1.10104    -9.72058     5.76826
 C     0.39470   -11.91825     6.02802
 H    -0.28363   -12.71879     5.67962
 H     1.40974   -12.32469     6.19470
 O    -0.12187   -11.52841     7.28264
 H     0.04534   -10.56430     7.42417
 O     3.80577    -6.56441     3.29844
 N     1.65292    -7.26428     3.11204
 H     0.68204    -6.99752     2.93850
 C     0.76078    -6.87519     6.90504
 O     0.30736   -11.87432     3.03129
 C     0.95170   -12.68673     2.08801
 H     2.02009   -12.85947     2.33543
 C     0.10870    -6.87637     9.40644
 H    -0.97249    -6.59240     9.27376
 C     0.55549    -7.72266     8.18065
 H     1.45849    -8.33981     8.39703
 H    -0.22215    -6.66085     6.42634
 C     1.52934    -5.57303     7.22689
 H     2.57370    -5.78612     7.54854
 C    -0.75723    -7.82325    11.52048
 C    -0.40113    -8.29475    12.89194
 H    -0.77665    -9.31519    13.05260
 H    -0.87963    -7.66218    13.66530
 H     0.68074    -8.27675    13.11205
 O    -0.50826    -8.59845     7.85467
 H    -0.84135    -9.05076     8.66092
 O     0.82108    -4.90658     8.25999
 C     1.51095    -4.56933     6.06055
 H     2.24848    -4.84896     5.28303
 H     0.50775    -4.45757     5.61002
 O     1.92772    -3.29609     6.50719
 H     1.63021    -3.16603     7.43918
 O    -1.91126    -7.66349    11.15989
 N     0.28912    -7.65855    10.62857
 H     1.24775    -7.71738    10.96489
 C    -4.70687     0.45910    -0.51791
 H    -3.59869     0.42299    -0.55843
 C    -5.29578     1.90059    -0.54497
 H    -6.41506     1.84701    -0.62392
 C    -4.89593     2.63733     0.76618
 H    -3.84811     3.01684     0.72699
 C    -5.11189     1.78646     2.03297
 H    -6.19062     1.76920     2.31409
 C    -4.55961     0.35799     1.82561
 H    -3.45170     0.35438     1.70229
 C    -5.47997     2.90687    -2.80786
 C    -4.69566     3.33757    -4.00635
 H    -4.83967     4.40278    -4.22565
 H    -5.02754     2.78623    -4.91058
 H    -3.60902     3.16283    -3.91452
 O    -5.30208    -0.23417    -1.58338
 O    -5.76521     3.74134     0.92674
 H    -5.73346     4.31161     0.12577
 O    -5.18683    -0.16572     0.66465
 C    -4.98135    -0.60938     2.94358
 H    -4.42936    -0.40242     3.87945
 H    -6.06988    -0.58946     3.13381
 O    -4.61791    -1.93011     2.60278
 H    -4.75674    -2.06622     1.63620
 O    -6.69772     2.83519    -2.79353
 N    -4.73845     2.63553    -1.67526
 H    -3.71776     2.64852    -1.73725
 C    -4.50531    -1.27711    -2.13387
 O    -4.31969     2.30736     3.09673
 C    -4.92048     3.35031     3.81737
 H    -6.02797     3.32640     3.75041
 C    -4.37052    -3.85843    -2.14797
 H    -3.24823    -3.94871    -2.19189
 C    -4.73153    -2.57977    -1.33859
 H    -5.76722    -2.61326    -0.92943
 H    -3.42656    -0.99913    -2.12531
 C    -5.04613    -1.42278    -3.57378
 H    -6.15289    -1.54903    -3.58021
 C    -4.15211    -6.09702    -1.12796
 C    -4.82610    -7.39990    -0.84728
 H    -4.74864    -7.65466     0.22179
 H    -4.33192    -8.22059    -1.40764
 H    -5.89168    -7.41450    -1.12482
 O    -3.82600    -2.49281    -0.25352
 H    -3.84363    -3.33122     0.26234
 O    -4.41385    -2.55558    -4.14953
 C    -4.63266    -0.26022    -4.48982
 H    -5.23600     0.64369    -4.27747
 H    -3.55550    -0.02823    -4.41831
 O    -4.92022    -0.57053    -5.83666
 H    -4.78878    -1.53808    -5.98534
 O    -2.94607    -5.95367    -1.00135
 N    -4.95089    -5.03320    -1.50056
 H    -5.94126    -5.18830    -1.66318
 C    -3.72153    -8.01831     4.63970
 H    -4.78615    -7.75710     4.46759
 C    -2.85893    -8.07059     3.34480
 H    -1.77870    -8.19721     3.62995
 C    -3.29396    -9.27017     2.45725
 H    -4.18976    -9.02855     1.84045
 C    -3.52005   -10.57126     3.25299
 H    -2.54514   -11.06925     3.46298
 C    -4.31237   -10.28809     4.54524
 H    -5.35301    -9.95401     4.32361
 C    -2.04886    -5.90300     2.46565
 C    -2.45008    -4.53011     2.03124
 H    -2.05455    -4.30755     1.02876
 H    -2.02295    -3.77050     2.71946
 H    -3.54029    -4.36732     2.02517
 O    -3.07384    -7.11666     5.50000
 O    -2.20910    -9.57542     1.60288
 H    -2.04015    -8.83141     0.98342
 O    -3.61109    -9.28705     5.26586
 C    -4.31600   -11.48485     5.50624
 H    -4.97563   -12.29546     5.14321
 H    -3.29906   -11.87324     5.70054
 O    -4.86650   -11.09380     6.74433
 H    -4.71892   -10.12553     6.88369
 O    -0.88158    -6.20839     2.65719
 N    -3.05840    -6.82274     2.61880
 H    -4.01394    -6.59938     2.35106
 C    -3.93772    -6.42833     6.39650
 O    -4.38560   -11.43905     2.52920
 C    -3.74829   -12.26766     1.59461
 H    -2.68893   -12.46684     1.85503
 C    -4.63008    -6.42687     8.88465
 H    -5.69881    -6.10792     8.73437
 C    -4.16288    -7.27231     7.66673
 H    -3.25818    -7.88234     7.89686
 H    -4.91106    -6.19817     5.90816
 C    -3.15065    -5.13892     6.72816
 H    -2.10513    -5.36335     7.03996
 C    -5.52708    -7.32881    11.01145
 C    -5.13127    -7.84970    12.35539
 H    -5.50079    -8.87187    12.50686
 H    -5.57788    -7.24271    13.16683
 H    -4.04107    -7.85399    12.53429
 O    -5.22669    -8.15377     7.34813
 H    -5.51866    -8.62833     8.16051
 O    -3.84281    -4.47168     7.76998
 C    -3.16975    -4.12056     5.57251
 H    -2.44924    -4.39854     4.77982
 H    -4.17757    -3.98687     5.13742
 O    -2.72604    -2.86180     6.03725
 H    -3.04272    -2.73355     6.96373
 O    -6.68002    -7.05682    10.71483
 N    -4.50061    -7.24157    10.08684
 H    -3.52516    -7.43960    10.37170
