  128
 
Al     0.00000     0.00000     0.00000
Cl     3.72156    -0.16766    -0.09023
Cl     1.24789    -1.03016    -1.64706
Cl    -1.43793    -1.79982     0.02951
Al    -7.04581    -0.47796     0.25500
Cl    -3.28226     0.33349     1.76474
Cl    -5.80166    -1.51549    -1.39776
Cl    -8.48197    -2.27376     0.28729
Al     0.18353     2.82832    -1.66374
Cl     3.90385     2.66080    -1.75754
Cl     1.43166     1.79817    -3.31090
Cl    -1.25353     1.02686    -1.63348
Al    -6.86177     2.35020    -1.40798
Cl    -3.09790     3.15728     0.09962
Cl    -5.61846     1.31243    -3.06030
Cl    -8.29918     0.55407    -1.37670
Al     0.36509     5.65723    -3.32674
Cl     4.08733     5.48599    -3.41759
Cl     1.61380     4.62825    -4.97404
Cl    -1.07040     3.85564    -3.29840
Al    -6.67760     5.17874    -3.07093
Cl    -2.91674     5.98663    -1.55894
Cl    -5.43418     4.14136    -4.72377
Cl    -8.11489     3.38242    -3.03848
Al     0.54752     8.48545    -4.98880
Cl     4.26792     8.31165    -5.08139
Cl     1.79624     7.45632    -6.63716
Cl    -0.88885     6.68381    -4.96018
Al    -6.49585     8.00674    -4.73468
Cl    -2.73435     8.81307    -3.22133
Cl    -5.25084     6.97016    -6.38672
Cl    -7.93213     6.21004    -4.70158
Al     0.03043     0.00548     3.28176
Cl     3.74992    -0.16550     3.18574
Cl     1.27748    -1.02607     1.63356
Cl    -1.40722    -1.79458     3.31165
Al    -7.01469    -0.47223     3.53656
Cl    -3.25223     0.34039     5.05003
Cl    -5.77108    -1.50994     1.88311
Cl    -8.45042    -2.26819     3.56900
Al     0.21435     2.83416     1.61813
Cl     3.93143     2.66055     1.51821
Cl     1.46158     1.80383    -0.03064
Cl    -1.22253     1.03357     1.64832
Al    -6.83075     2.35633     1.87352
Cl    -3.06709     3.16336     3.38454
Cl    -5.58784     1.31799     0.22057
Cl    -8.26779     0.55984     1.90621
Al     0.39560     5.66302    -0.04503
Cl     4.11492     5.48784    -0.14188
Cl     1.64345     4.63255    -1.69379
Cl    -1.03957     3.86110    -0.01516
Al    -6.64706     5.18453     0.21055
Cl    -2.88575     5.99268     1.72600
Cl    -5.40351     4.14538    -1.44259
Cl    -8.08382     3.38825     0.24310
Al     0.57794     8.49121    -1.70694
Cl     4.29553     8.31203    -1.80731
Cl     1.82585     7.46041    -3.35656
Cl    -0.85837     6.69036    -1.67827
Al    -6.46492     8.01261    -1.45200
Cl    -2.70308     8.81937     0.06339
Cl    -5.22032     6.97554    -3.10551
Cl    -7.90089     6.21580    -1.42000
Al     0.06147     0.01202     6.56482
Cl     3.78469    -0.14947     6.47320
Cl     1.30762    -1.01971     4.91514
Cl    -1.37558    -1.78871     6.59478
Al    -6.98328    -0.46595     6.81946
Cl    -3.22130     0.34875     8.33762
Cl    -5.74064    -1.50370     5.16440
Cl    -8.41903    -2.26170     6.85152
Al     0.24533     2.84034     4.90210
Cl     3.96639     2.67698     4.80650
Cl     1.49163     1.80885     3.25126
Cl    -1.19147     1.03915     4.93008
Al    -6.79955     2.36244     5.15632
Cl    -3.03649     3.17185     6.66929
Cl    -5.55740     1.32434     3.50167
Cl    -8.23626     0.56612     5.18743
Al     0.42714     5.66923     3.23789
Cl     4.14913     5.50511     3.14425
Cl     1.67389     4.63886     1.58765
Cl    -1.00816     3.86798     3.26673
Al    -6.61582     5.19063     3.49334
Cl    -2.85425     5.99940     5.01356
Cl    -5.37335     4.15315     1.83854
Cl    -8.05244     3.39423     3.52546
Al     0.60934     8.49748     1.57614
Cl     4.33036     8.32993     1.48030
Cl     1.85621     7.46686    -0.07481
Cl    -0.82662     6.69609     1.60473
Al    -6.43366     8.01854     1.82979
Cl    -2.67244     8.82779     3.35138
Cl    -5.18990     6.98011     0.17577
Cl    -7.86981     6.22198     1.86249
Al     0.09204     0.01803     9.84884
Cl     3.81568    -0.14237     9.75557
Cl     1.33817    -1.01352     8.19941
Cl    -1.34542    -1.78321     9.87928
Al    -6.95315    -0.45984    10.10355
Cl    -3.19276     0.35651    11.61073
Cl    -5.70991    -1.49905     8.44807
Cl    -8.38818    -2.25631    10.13533
Al     0.27592     2.84636     8.18518
Cl     3.99752     2.68595     8.08868
Cl     1.52218     1.81617     6.53556
Cl    -1.16115     1.04462     8.21464
Al    -6.76934     2.36888     8.44050
Cl    -3.00748     3.17906     9.94331
Cl    -5.52674     1.33073     6.78546
Cl    -8.20536     0.57163     8.47142
Al     0.45760     5.67527     6.52199
Cl     4.18067     5.51130     6.42829
Cl     1.70432     4.64481     4.87224
Cl    -0.97791     3.87209     6.55145
Al    -6.58541     5.19815     6.77739
Cl    -2.82595     6.00696     8.28735
Cl    -5.34266     4.15811     5.12213
Cl    -8.02147     3.40018     6.80827
Al     0.64007     8.50371     4.85903
Cl     4.36153     8.33689     4.76258
Cl     1.88693     7.47295     3.20912
Cl    -0.79619     6.70149     4.88794
Al    -6.40333     8.02585     5.11388
Cl    -2.64403     8.83630     6.62375
Cl    -5.15935     6.98650     3.45926
Cl    -7.83872     6.22777     5.14509
