   64
 
Al     0.00000     0.00000     0.00000
As    -1.81596    -0.89007     0.84268
Al     3.56465     7.54254    -1.55633
As     0.37495     4.00081     2.20730
Al     3.06806    -0.91573    -1.06902
As     1.72423     0.80815    -1.22631
Al     7.98885     4.90913    -1.19826
As     5.11202     8.48086    -1.92916
Al     3.90735    -4.17190    -1.71109
As    -1.20157    -3.16158    -3.93657
Al     5.52287     3.23663    -2.73460
As     3.38931     3.27477    -3.07837
Al     7.59213    -4.62068    -7.26419
As     5.38483    -4.43832    -7.64190
Al    11.28907     2.40565    -9.66012
As     9.19345     3.07992    -9.71072
Al     3.37530     1.31317     4.09130
As     2.73897     0.35239     6.00229
Al     7.28927     6.81041     1.54811
As     6.37506     6.73712     3.54724
Al     3.88341    -6.62941     2.94156
As    -0.64028    -5.27966    -1.49602
Al     5.64691     1.42220     1.56282
As     3.76999     2.39250     2.16893
Al     9.14138    -3.07507    -1.84138
As     4.79744    -2.39077    -0.87410
Al    12.58471     4.91392     0.47007
As     7.70736     2.95646    -2.14374
Al     7.77772    -6.09032    -2.41217
As     3.32747    -6.25675    -2.53751
Al    11.35708    -0.53240    -1.80755
As     9.71706    -1.31066    -3.06069
Al     0.98148    -3.75019     8.01079
As    -0.47731    -2.27160     8.82357
Al     6.56421     2.77661     6.97006
As     5.34481     1.30781     7.90209
Al     6.11145    -5.07014     4.93352
As     3.89389    -4.97545     4.29953
Al     9.06081     3.28874     4.78392
As     7.76289     4.55121     5.90972
Al     5.92416    -9.43601     1.41807
As     3.51991    -8.61346     1.44114
Al     8.94408     1.33868     2.00268
As     7.44782     0.55948     0.55848
Al    12.31567    -3.31088     1.55683
As     8.31905    -4.82498    -0.68539
Al    14.72815    -0.47337    -1.31876
As    12.87087     0.48016    -0.52960
Al     7.87145    -1.93703    10.85823
As     5.98440    -1.73449     9.84246
Al    10.40999     5.20620     9.57481
As     9.71505     3.61895    10.98700
Al     8.24755    -7.36641     5.79688
As     2.05600    -5.42315     7.02847
Al     8.82635    -0.76617     6.93549
As     6.16395    -0.99836     7.52763
Al    12.69150    -2.11506     4.78110
As     8.22853    -5.15419     5.55411
Al    17.25493     2.19555     4.90964
As    10.50125     1.93807     3.54817
Al    14.74044   -11.59030     0.19080
As     7.91340   -10.28032     1.52365
Al    17.54561    -5.42124    -0.20276
As    12.55584    -1.15724     2.93075
