  192
 
Al     0.00000     0.00000     0.00000
 O    -7.90919    -6.20831     0.05332
 O    -6.02499    -4.13272    -0.10215
 O    -6.14654    -6.06496    -1.92222
 O    -4.05857    -5.90110    -0.06002
Al    -5.98277    -6.06083     0.00381
Al     6.07620    -0.07030     5.92881
 O     8.00081    -0.20172     5.85317
 O     6.10593     1.85244     6.08498
 O     6.22649    -0.13438     7.85391
 O     4.14743     0.06463     5.99542
Al     0.03531     5.93693     6.07188
 O     1.96015     6.08344     6.08953
 O     0.09255     4.01365     5.90745
 O     0.15017     6.00550     4.14285
 O    -1.88886     5.79725     6.05978
 O    -1.92804     0.13562    -0.01677
 O    -0.02026    -1.92878     0.11414
 O    -0.13616     0.00301     1.92866
 O     1.92377    -0.13013     0.02744
 O    -0.09438     5.88056     7.99904
 O    -0.00186     7.85971     6.23443
 O    -5.82745    -6.04677     1.92632
 O    -5.93136    -7.98988     0.09927
 O     5.89360    -0.02584     4.00530
 O     6.05017    -1.99454     5.77705
 O     0.12084    -0.02596    -1.92736
 O     0.02307     1.92794    -0.10612
 K     0.08045    -0.09990     5.97873
 K    -0.03063     6.02734     0.08272
 K     6.00043    -0.01540    -0.06703
 K     6.04273     5.95307     6.02657
 S     2.21206    -2.22102     3.79319
 O     3.08002    -3.08357     2.90759
 O     0.82795    -2.07757     3.20831
 S    -2.15300     3.82921     2.21445
 O    -3.00849     2.93873     3.08238
 O    -0.76339     3.95895     2.79297
 S     3.82538     2.16951    -2.14788
 O     2.93880     3.04277    -3.00212
 O     5.20405     2.05532    -2.75543
 S    -3.87660    -3.84268    -3.82831
 O    -2.99437    -2.99285    -2.94619
 O    -5.25269    -3.98706    -3.22260
 O     3.24919     0.77780    -2.02754
 O     2.80552    -0.84046     3.94294
 O    -2.75546     5.21148     2.11522
 O    -3.28836    -5.22250    -3.99968
 O    -2.03522     3.25340     0.82388
 O     3.95867     2.75307    -0.76162
 O     2.09142    -2.83814     5.16673
 O    -4.01938    -3.20827    -5.19110
 S    -2.19453     2.18953    -3.79405
 O    -3.05824     3.04540    -2.89831
 O    -0.80266     2.05175    -3.22252
 S     2.14158    -3.85923    -2.21230
 O     3.00553    -2.98125    -3.08483
 O     0.75153    -3.98076    -2.79279
 S    -3.81835    -2.20537     2.19019
 O    -2.91973    -3.07084     3.04206
 O    -5.19104    -2.09594     2.80985
 S     3.87990     3.80441     3.85253
 O     3.00217     2.94841     2.97199
 O     5.25581     3.95210     3.24474
 O    -3.24465    -0.81598     2.04951
 O    -2.78470     0.80505    -3.93329
 O     2.73218    -5.24543    -2.10239
 O     3.27791     5.17869     4.01690
 O     2.02769    -3.27534    -0.82500
 O    -3.96599    -2.80288     0.81130
 O    -2.08734     2.80609    -5.16774
 O     4.03093     3.18087     5.21932
 O     2.50798    -5.43239     1.76405
 O    -2.40113     0.57535     4.17309
 O     3.47204     5.42778    -4.09061
 O    -3.56054    -0.63681    -1.81833
 O     1.78419     2.50714    -5.35345
 O     4.18031    -2.47760     0.54728
 O    -4.11609     3.48888     5.45194
 O    -1.83759    -3.57725    -0.60846
 O    -5.36821     1.80212     2.54172
 O     0.59333     4.18031    -2.40271
 O     5.43625    -4.22537     3.45183
 O    -0.66003    -1.84096    -3.55564
 O    -2.50859     5.39670    -1.74512
 O     2.42033    -0.60639    -4.16204
 O    -3.47246    -5.45893     4.10945
 O     3.58103     0.60163     1.82888
 O    -1.76713    -2.53507     5.39234
 O    -4.18221     2.44136    -0.54871
 O     4.12858    -3.50513    -5.45303
 O     1.83608     3.56458     0.64654
 O     5.35828    -1.84531    -2.51919
 O    -0.58284    -4.20116     2.40311
 O    -5.42490     4.18236    -3.40917
 O     0.64951     1.81897     3.55068
 H    -8.48058    -5.86582     0.83128
 H    -8.35285    -5.89081    -0.81988
 H    -5.13568    -3.70765     0.20882
 H    -6.78498    -3.55164     0.25157
 H    -5.83611    -5.17111    -2.33849
 H    -5.79592    -6.82254    -2.50976
 H    -3.48912    -6.24848    -0.83361
 H    -3.61700    -6.22705     0.81743
 H     8.44711     0.09387     6.73935
 H     8.57380     0.16123     5.08622
 H     6.86018     2.45103     5.73818
 H     5.20985     2.27816     5.79738
 H     5.91513     0.74428     8.30199
 H     5.88452    -0.91180     8.41957
 H     3.58233    -0.30615     6.76099
 H     3.71482    -0.25417     5.11157
 H     2.54732     5.71940     6.84451
 H     2.37793     5.78163     5.19523
 H     0.85881     3.41724     6.23062
 H    -0.79220     3.57380     6.20531
 H    -0.20631     6.78009     3.57858
 H    -0.15835     5.12433     3.70200
 H    -2.47732     6.15303     5.30000
 H    -2.30929     6.10123     6.94980
 H    -2.51546    -0.20760    -0.78324
 H    -2.34749    -0.18982     0.86647
 H     0.85955    -2.35702    -0.20778
 H    -0.78935    -2.52207    -0.20620
 H     0.21825     0.77065     2.50693
 H     0.19999    -0.88239     2.33756
 H     2.34952     0.18154    -0.86124
 H     2.51821     0.20154     0.79093
 H     0.21779     6.76781     8.43167
 H     0.26449     5.10980     8.56610
 H     0.87981     8.29761     5.92228
 H    -0.77125     8.45775     5.93100
 H    -6.16600    -5.29244     2.52650
 H    -6.12385    -6.94454     2.34830
 H    -5.17505    -8.57521    -0.26339
 H    -6.82332    -8.41963    -0.19192
 H     6.23689     0.74907     3.43416
 H     6.21394    -0.90798     3.56933
 H     6.94151    -2.42201     6.07463
 H     5.29230    -2.58966     6.11473
 H    -0.19364     0.86195    -2.35213
 H    -0.23256    -0.79151    -2.50363
 H     0.78740     2.51934     0.23244
 H    -0.86359     2.35017     0.21113
 H     2.68536    -4.52457     2.08638
 H     2.65790    -5.98618     2.56953
 H    -2.58628     1.49281     3.87945
 H    -2.55103     0.04748     3.34907
 H     3.33155     5.95263    -3.26174
 H     3.30772     4.50599    -3.80073
 H    -3.43152    -0.09199    -2.63588
 H    -3.38238    -1.55194    -2.12799
 H     2.60498     2.64736    -5.89016
 H     2.10037     2.65971    -4.43607
 H     3.88184    -2.65853     1.46621
 H     3.35759    -2.61983     0.01750
 H    -3.29016     3.33625     5.97651
 H    -3.82000     3.32682     4.53091
 H    -2.15718    -3.40316    -1.52174
 H    -2.65656    -3.44558    -0.06496
 H    -5.90291     2.62044     2.69577
 H    -4.44945     2.10967     2.70089
 H     1.50786     3.87871    -2.59072
 H     0.05875     3.35956    -2.54831
 H     5.97670    -3.40661     3.31578
 H     4.51952    -3.90982     3.29359
 H    -0.11694    -2.65897    -3.43293
 H    -1.56981    -2.15612    -3.37121
 H    -2.66564     5.94242    -2.55631
 H    -2.67219     4.48326    -2.06163
 H     2.56918    -0.08280    -3.33579
 H     2.59620    -1.52933    -3.87423
 H    -3.29658    -4.53485     3.82183
 H    -3.34376    -5.98387     3.28107
 H     3.40853     1.51594     2.14565
 H     3.45617     0.05532     2.64377
 H    -2.09371    -2.69639     4.48055
 H    -2.57788    -2.68322     5.94154
 H    -3.35459     2.57796    -0.02279
 H    -3.88503     2.62706    -1.46696
 H     3.82876    -3.34760    -4.53315
 H     3.29805    -3.36086    -5.97524
 H     2.65028     3.42781     0.09851
 H     2.15827     3.37863     1.55439
 H     5.89396    -2.66278    -2.67300
 H     4.44023    -2.15088    -2.68637
 H    -0.03590    -3.38784     2.54494
 H    -1.48880    -3.88363     2.60161
 H    -4.50818     3.87261    -3.25730
 H    -5.95803     3.35925    -3.26926
 H     0.10368     2.63716     3.42781
 H     1.55929     2.13817     3.36381
