   64
 
Al     0.00000     0.00000     0.00000
 N     1.90157     0.00000     0.00000
Al    -2.53542     3.58563     0.00000
 N    -0.63386     3.58563     0.00000
Al    -2.53542     0.89641     1.55262
 N    -0.63386     0.89641     1.55262
Al    -5.07085     4.48204     1.55262
 N    -3.16928     4.48204     1.55262
Al    -2.53542    -1.79282     3.10525
 N    -0.63386    -1.79282     3.10525
Al    -5.07085     1.79282     3.10525
 N    -3.16928     1.79282     3.10525
Al    -5.07085    -0.89641     4.65787
 N    -3.16928    -0.89641     4.65787
Al    -7.60627     2.68922     4.65787
 N    -5.70470     2.68922     4.65787
Al    -2.53542     0.89641    -1.55262
 N    -0.63386     0.89641    -1.55262
Al    -5.07085     4.48204    -1.55262
 N    -3.16928     4.48204    -1.55262
Al    -2.53542    -1.79282    -0.00000
 N    -0.63386    -1.79282    -0.00000
Al    -5.07085     1.79282    -0.00000
 N    -3.16928     1.79282    -0.00000
Al    -5.07085    -0.89641     1.55262
 N    -3.16928    -0.89641     1.55262
Al    -7.60627     2.68922     1.55262
 N    -5.70470     2.68922     1.55262
Al    -5.07085    -3.58563     3.10525
 N    -3.16928    -3.58563     3.10525
Al    -7.60627    -0.00000     3.10525
 N    -5.70470    -0.00000     3.10525
Al    -2.53542    -1.79282    -3.10525
 N    -0.63386    -1.79282    -3.10525
Al    -5.07085     1.79282    -3.10525
 N    -3.16928     1.79282    -3.10525
Al    -5.07085    -0.89641    -1.55262
 N    -3.16928    -0.89641    -1.55262
Al    -7.60627     2.68922    -1.55262
 N    -5.70470     2.68922    -1.55262
Al    -5.07085    -3.58563     0.00000
 N    -3.16928    -3.58563     0.00000
Al    -7.60627    -0.00000    -0.00000
 N    -5.70471    -0.00000     0.00000
Al    -7.60627    -2.68922     1.55262
 N    -5.70471    -2.68922     1.55262
Al   -10.14170     0.89641     1.55262
 N    -8.24013     0.89641     1.55262
Al    -5.07085    -0.89641    -4.65787
 N    -3.16928    -0.89642    -4.65787
Al    -7.60627     2.68922    -4.65789
 N    -5.70470     2.68922    -4.65788
Al    -5.07085    -3.58564    -3.10526
 N    -3.16929    -3.58564    -3.10526
Al    -7.60627    -0.00000    -3.10527
 N    -5.70470    -0.00000    -3.10526
Al    -7.60628    -2.68922    -1.55264
 N    -5.70471    -2.68922    -1.55263
Al   -10.14171     0.89640    -1.55266
 N    -8.24014     0.89641    -1.55264
Al    -7.60629    -5.37845    -0.00002
 N    -5.70472    -5.37845    -0.00001
Al   -10.14172    -1.79282    -0.00004
 N    -8.24015    -1.79282    -0.00002
