   96
 
Al     0.00000     0.00000     0.00000
Al    -3.60940    -3.52879     0.00000
Al    -0.07963    -3.52518     0.00352
 F    -1.84451    -4.10210     0.59090
 F    -4.14330    -2.89759     1.76329
 F    -2.99219    -1.77798    -0.58855
 F    -1.19163     0.56093    -1.17828
 F     0.53504    -1.20519    -1.17651
 F    -1.19163    -1.16442     0.58914
 F     1.19163     1.16442    -0.58914
 F     1.19163    -0.56093     1.17828
 F    -0.53505     1.20519     1.17651
Al     3.44645    -3.52518     0.00352
Al    -0.16295    -7.05397     0.00352
Al     3.36682    -7.05036     0.00705
 F     1.60194    -7.62728     0.59442
 F    -0.69684    -6.42277     1.76681
 F     0.45427    -5.30316    -0.58503
 F     2.25483    -2.96425    -1.17475
 F     3.98150    -4.73037    -1.17298
 F     2.25483    -4.68960     0.59266
 F     4.63808    -2.36075    -0.58562
 F     4.63808    -4.08611     1.18180
 F     2.91140    -2.31999     1.18003
Al     0.00000     3.44380    -3.52777
Al    -3.60940    -0.08499    -3.52776
Al    -0.07963    -0.08138    -3.52424
 F    -1.84451    -0.65830    -2.93687
 F    -4.14330     0.54621    -1.76448
 F    -2.99219     1.66582    -4.11631
 F    -1.19163     4.00473    -4.70604
 F     0.53504     2.23861    -4.70427
 F    -1.19163     2.27938    -2.93863
 F     1.19163     4.60823    -4.11691
 F     1.19163     2.88288    -2.34949
 F    -0.53505     4.64900    -2.35126
Al     3.44645    -0.08138    -3.52424
Al    -0.16295    -3.61017    -3.52424
Al     3.36682    -3.60656    -3.52072
 F     1.60194    -4.18348    -2.93334
 F    -0.69684    -2.97897    -1.76095
 F     0.45427    -1.85936    -4.11279
 F     2.25483     0.47955    -4.70252
 F     3.98150    -1.28657    -4.70075
 F     2.25483    -1.24580    -2.93511
 F     4.63808     1.08305    -4.11338
 F     4.63808    -0.64230    -2.34597
 F     2.91140     1.12382    -2.34773
Al     3.68903     3.61017     3.52424
Al     0.07963     0.08138     3.52424
Al     3.60940     0.08499     3.52777
 F     1.84451    -0.49193     4.11514
 F    -0.45427     0.71258     5.28753
 F     0.69684     1.83219     2.93569
 F     2.49740     4.17109     2.34597
 F     4.22407     2.40498     2.34774
 F     2.49740     2.44575     4.11338
 F     4.88065     4.77459     2.93510
 F     4.88065     3.04924     4.70252
 F     3.15398     4.81536     4.70075
Al     7.13548     0.08499     3.52776
Al     3.52608    -3.44380     3.52777
Al     7.05585    -3.44019     3.53129
 F     5.29097    -4.01711     4.11866
 F     2.99219    -2.81260     5.29105
 F     4.14330    -1.69299     2.93921
 F     5.94385     0.64591     2.34949
 F     7.67052    -1.12020     2.35126
 F     5.94385    -1.07943     4.11690
 F     8.32711     1.24941     2.93862
 F     8.32711    -0.47594     4.70604
 F     6.60043     1.29018     4.70427
Al     3.68903     7.05397    -0.00352
Al     0.07963     3.52518    -0.00352
Al     3.60940     3.52879     0.00000
 F     1.84451     2.95187     0.58737
 F    -0.45427     4.15638     1.75977
 F     0.69684     5.27599    -0.59207
 F     2.49740     7.61489    -1.18180
 F     4.22407     5.84878    -1.18003
 F     2.49740     5.88955     0.58561
 F     4.88066     8.21839    -0.59267
 F     4.88065     6.49304     1.17475
 F     3.15398     8.25916     1.17299
Al     7.13548     3.52879    -0.00000
Al     3.52608     0.00000     0.00000
Al     7.05585     0.00361     0.00352
 F     5.29097    -0.57331     0.59090
 F     2.99219     0.63120     1.76329
 F     4.14330     1.75081    -0.58855
 F     5.94385     4.08972    -1.17828
 F     7.67052     2.32360    -1.17651
 F     5.94385     2.36437     0.58913
 F     8.32711     4.69321    -0.58914
 F     8.32711     2.96786     1.17828
 F     6.60043     4.73398     1.17651
