  136
 
 N     0.00000     0.00000     0.00000
 H     1.03308    -0.10982     0.10433
 H    -0.27266     1.00426     0.03731
 H    -0.33247    -0.43425    -0.88595
 B    -0.70310    -0.75666     1.23744
 C    -0.29293     0.08754     2.57077
 H    -0.86039    -0.42678     3.36307
 H    -0.59303     1.14082     2.45729
 H     0.78855     0.00416     2.75379
 C    -0.09540    -2.27106     1.31044
 H    -0.69428    -2.78706     2.08042
 H     0.95903    -2.21460     1.62663
 H    -0.17236    -2.75928     0.32748
 C    -2.31210    -0.73032     0.96391
 H    -2.77909    -1.23999     1.82390
 H    -2.54356    -1.26280     0.02863
 H    -2.63911     0.32009     0.90889
 N    -3.94033    -3.36021     6.01822
 H    -4.65988    -3.36978     6.77393
 H    -3.80851    -4.31215     5.61650
 H    -4.19971    -2.68328     5.27129
 B    -2.54811    -2.88165     6.67381
 C    -2.10311    -4.06595     7.70117
 H    -1.16604    -3.67898     8.13665
 H    -1.95862    -5.00393     7.14258
 H    -2.86044    -4.18783     8.48898
 C    -2.81985    -1.49102     7.48480
 H    -1.81951    -1.12798     7.77943
 H    -3.42156    -1.70873     8.38216
 H    -3.34928    -0.77377     6.83949
 C    -1.49193    -2.69510     5.44463
 H    -0.54091    -2.37715     5.90413
 H    -1.86224    -1.92470     4.75040
 H    -1.38182    -3.66303     4.93153
 N    -1.33227     1.09684     5.68803
 H    -1.68333     0.29425     6.25289
 H    -2.01176     1.88747     5.69561
 H    -1.12958     0.79880     4.71248
 B     0.03768     1.60912     6.35574
 C    -0.32753     2.01183     7.89084
 H     0.63295     2.39161     8.27231
 H    -1.11138     2.78471     7.90074
 H    -0.64287     1.12453     8.45868
 C     1.09865     0.36700     6.32379
 H     2.05623     0.79080     6.66893
 H     0.75113    -0.40460     7.03056
 H     1.17057    -0.05267     5.30915
 C     0.53052     2.89952     5.48625
 H     1.49022     3.22344     5.92217
 H     0.64589     2.61527     4.42865
 H    -0.22105     3.69915     5.58812
 N    -5.33293     0.94530     2.17067
 H    -4.65623     1.63276     2.56568
 H    -4.84891     0.24002     1.57621
 H    -6.06817     1.43253     1.61957
 B    -6.04624     0.17936     3.39530
 C    -4.85600    -0.57578     4.21433
 H    -5.38000    -1.04905     5.06108
 H    -4.37891    -1.31464     3.55247
 H    -4.12314     0.15842     4.58023
 C    -6.75660     1.30998     4.33790
 H    -7.39949     0.75016     5.03839
 H    -5.96591     1.83429     4.89905
 H    -7.32851     2.02562     3.72665
 C    -7.09980    -0.87470     2.72998
 H    -7.58675    -1.40202     3.56719
 H    -7.83592    -0.33393     2.11663
 H    -6.53856    -1.59253     2.11021
 N     2.80297    -5.30779    -1.74772
 H     3.81046    -5.20445    -1.49961
 H     2.33919    -4.37966    -1.82042
 H     2.70285    -5.83372    -2.64002
 B     2.08869    -6.14948    -0.57360
 C     2.39024    -5.34801     0.81541
 H     1.84288    -5.93478     1.57175
 H     2.01127    -4.31781     0.73203
 H     3.46876    -5.35665     1.03246
 C     2.77276    -7.63225    -0.54105
 H     2.15303    -8.23448     0.14235
 H     3.79350    -7.53371    -0.13395
 H     2.80301    -8.06600    -1.55267
 C     0.49434    -6.17601    -0.92254
 H     0.00769    -6.74380    -0.11273
 H     0.33084    -6.66324    -1.89599
 H     0.12827    -5.13672    -0.93988
 N    -1.27491    -8.74603     4.15153
 H    -2.00184    -8.70573     4.89971
 H    -1.17723    -9.71284     3.77736
 H    -1.49868    -8.07804     3.38504
 B     0.13337    -8.32284     4.80359
 C     0.54873    -9.52990     5.81668
 H     1.54360    -9.20080     6.15650
 H     0.58441   -10.48785     5.27519
 H    -0.14882    -9.58017     6.66393
 C    -0.09497    -6.93169     5.62833
 H     0.91602    -6.59800     5.91850
 H    -0.69640    -7.14617     6.52658
 H    -0.61153    -6.19996     4.98947
 C     1.20139    -8.16284     3.58005
 H     2.15935    -7.88062     4.04828
 H     0.86407    -7.37545     2.88925
 H     1.28847    -9.13051     3.06154
 N     1.37476    -4.29235     3.90536
 H     1.09119    -5.17332     4.38565
 H     0.67166    -3.53769     4.05802
 H     1.51156    -4.45982     2.88714
 B     2.77647    -3.81178     4.53921
 C     2.47056    -3.43117     6.09521
 H     3.46239    -3.16881     6.50097
 H     1.76700    -2.58466     6.13241
 H     2.06171    -4.30395     6.62494
 C     3.81315    -5.07035     4.45175
 H     4.79746    -4.67272     4.74927
 H     3.49055    -5.84113     5.17201
 H     3.83154    -5.48939     3.43407
 C     3.25355    -2.51375     3.67170
 H     4.23016    -2.20322     4.07961
 H     3.32868    -2.78423     2.60609
 H     2.51570    -1.70666     3.80773
 N    -2.62054    -4.44778     0.28417
 H    -1.99107    -3.70885     0.66673
 H    -2.08642    -5.15192    -0.26577
 H    -3.36602    -4.02015    -0.30410
 B    -3.31029    -5.21216     1.52507
 C    -2.11008    -5.97221     2.32726
 H    -2.63388    -6.44902     3.17280
 H    -1.63351    -6.70950     1.66280
 H    -1.37320    -5.24418     2.69642
 C    -4.00024    -4.07429     2.47177
 H    -4.60269    -4.61846     3.21668
 H    -3.19418    -3.51172     2.97337
 H    -4.61937    -3.39448     1.86744
 C    -4.37465    -6.27187     0.88307
 H    -4.85088    -6.79053     1.73236
 H    -5.11729    -5.73511     0.27306
 H    -3.82501    -6.99861     0.26309
