  136
 
 N     0.00000     0.00000     0.00000
 H     0.85325     0.00000     0.00000
 H    -0.27224     0.81381     0.00000
 H    -0.22778    -0.35424    -0.73730
 B    -0.71609    -0.79894     1.25094
 C    -0.30437     0.00961     2.59339
 H    -0.52555    -0.48340     3.35518
 H    -0.67138     0.86017     2.64502
 H     0.86802     0.12857     2.62682
 C    -0.09587    -2.29775     1.24802
 H    -0.55357    -2.87455     1.91877
 H     0.89886    -2.25775     1.44520
 H    -0.21473    -2.79966     0.39366
 C    -2.30049    -0.76247     0.91374
 H    -2.81399    -1.14735     1.63906
 H    -2.49622    -1.22398     0.07152
 H    -2.60454     0.17615     0.91566
 N    -3.92871    -3.56175     6.10143
 H    -4.57978    -3.64485     6.64729
 H    -3.80119    -4.31560     5.71174
 H    -4.19125    -3.00433     5.51841
 B    -2.50462    -3.05552     6.75842
 C    -2.03898    -4.22830     7.77703
 H    -1.33423    -3.93483     8.31491
 H    -1.81015    -5.02161     7.35334
 H    -2.92332    -4.46662     8.51928
 C    -2.83118    -1.67907     7.55064
 H    -1.99687    -1.25833     7.89402
 H    -3.46791    -1.86741     8.31748
 H    -3.23779    -0.95942     6.99005
 C    -1.51529    -2.84540     5.49324
 H    -0.62199    -2.61858     5.78918
 H    -1.85914    -2.16030     4.88247
 H    -1.37490    -3.71620     5.05059
 N    -1.31590     1.13573     5.85400
 H    -1.65383     0.42611     6.18716
 H    -1.88395     1.77359     5.93678
 H    -1.21910     0.97419     5.02690
 B     0.12103     1.61629     6.50228
 C    -0.18933     1.99611     8.04799
 H     0.60612     2.10813     8.52427
 H    -0.73049     2.74344     8.14732
 H    -0.74000     1.09019     8.56359
 C     1.11887     0.34285     6.39488
 H     2.04129     0.58728     6.67840
 H     0.76789    -0.41724     6.96762
 H     1.24869    -0.01080     5.46991
 C     0.58761     2.87232     5.59217
 H     1.39364     3.27375     5.94739
 H     0.71945     2.60565     4.65828
 H    -0.07109     3.60035     5.69231
 N    -5.38139     0.84194     2.12802
 H    -4.84085     1.46760     2.34043
 H    -4.95806     0.26404     1.65555
 H    -5.96850     1.20665     1.63480
 B    -6.10988     0.06782     3.38738
 C    -4.92261    -0.67539     4.20302
 H    -5.23447    -0.98694     5.02642
 H    -4.51921    -1.36410     3.73168
 H    -4.08430     0.11203     4.46339
 C    -6.81450     1.21975     4.28437
 H    -7.36031     0.81926     5.01497
 H    -6.10468     1.83198     4.67542
 H    -7.47021     1.79200     3.79467
 C    -7.17070    -0.94114     2.69487
 H    -7.59820    -1.50026     3.36144
 H    -7.84296    -0.45137     2.17600
 H    -6.67650    -1.60184     2.15424
 N     2.76858    -5.53942    -1.88059
 H     3.62182    -5.53942    -1.88059
 H     2.49634    -4.72561    -1.88059
 H     2.54080    -5.89366    -2.61789
 B     2.05249    -6.33836    -0.62965
 C     2.46420    -5.52981     0.71280
 H     2.24302    -6.02282     1.47459
 H     2.09719    -4.67924     0.76443
 H     3.63660    -5.41085     0.74623
 C     2.67270    -7.83716    -0.63257
 H     2.21501    -8.41397     0.03818
 H     3.66744    -7.79717    -0.43538
 H     2.55385    -8.33908    -1.48693
 C     0.46809    -6.30189    -0.96685
 H    -0.04541    -6.68677    -0.24153
 H     0.27235    -6.76340    -1.80907
 H     0.16404    -5.36327    -0.96492
 N    -1.16013    -9.10117     4.22084
 H    -1.81120    -9.18427     4.76670
 H    -1.03261    -9.85501     3.83115
 H    -1.42267    -8.54375     3.63782
 B     0.26396    -8.59494     4.87784
 C     0.72960    -9.76772     5.89645
 H     1.43435    -9.47425     6.43433
 H     0.95843   -10.56103     5.47275
 H    -0.15475   -10.00604     6.63869
 C    -0.06260    -7.21849     5.67006
 H     0.77170    -6.79774     6.01344
 H    -0.69933    -7.40683     6.43690
 H    -0.46921    -6.49884     5.10946
 C     1.25329    -8.38482     3.61265
 H     2.14658    -8.15800     3.90859
 H     0.90943    -7.69972     3.00188
 H     1.39368    -9.25562     3.17000
 N     1.45268    -4.40369     3.97341
 H     1.11474    -5.11331     4.30657
 H     0.88463    -3.76583     4.05619
 H     1.54947    -4.56523     3.14631
 B     2.88961    -3.92313     4.62169
 C     2.57925    -3.54330     6.16740
 H     3.37469    -3.43129     6.64368
 H     2.03809    -2.79598     6.26674
 H     2.02858    -4.44923     6.68300
 C     3.88744    -5.19657     4.51429
 H     4.80987    -4.95214     4.79782
 H     3.53647    -5.95666     5.08703
 H     4.01726    -5.55022     3.58932
 C     3.35619    -2.66710     3.71158
 H     4.16222    -2.26567     4.06680
 H     3.48802    -2.93377     2.77769
 H     2.69749    -1.93907     3.81173
 N    -2.61281    -4.69748     0.24743
 H    -2.07227    -4.07182     0.45984
 H    -2.18948    -5.27537    -0.22504
 H    -3.19992    -4.33277    -0.24579
 B    -3.34131    -5.47160     1.50679
 C    -2.15403    -6.21480     2.32244
 H    -2.46590    -6.52636     3.14583
 H    -1.75063    -6.90352     1.85109
 H    -1.31573    -5.42739     2.58280
 C    -4.04592    -4.31967     2.40378
 H    -4.59173    -4.72016     3.13439
 H    -3.33610    -3.70744     2.79483
 H    -4.70163    -3.74742     1.91409
 C    -4.40212    -6.48055     0.81428
 H    -4.82962    -7.03968     1.48085
 H    -5.07438    -5.99079     0.29541
 H    -3.90792    -7.14126     0.27365
