   80
 
Cl     0.00000     0.00000     0.00000
Cl    -3.09171     1.42155     1.00999
Cl     1.53340    -5.04142     0.23537
Cl    -1.94227    -4.32257     0.75368
 O    -1.46273    -0.09995    -0.04173
 O    -4.09419     2.29261     1.62916
 O     3.00061    -4.98464     0.25437
 O    -0.90681    -5.17741     0.15769
 O     0.59979    -1.09779    -0.73688
 O    -1.74233     1.88726     1.28539
 O     0.98915    -3.94365     1.01121
 O    -3.26615    -4.83927     0.46031
 O     0.36126    -0.06292     1.40923
 O    -3.36168     1.48473    -0.42011
 O     1.20071    -6.33091     0.82454
 O    -1.74012    -3.00824     0.16477
 O     1.17543    -4.93637    -1.17281
 O    -1.67009    -4.37783     2.18507
 O     0.32223     1.27743    -0.62028
 O    -3.32759     0.10590     1.58592
 N    -3.54800    -1.39839    -0.99719
 N    -0.59789    -3.15343    -2.27220
 N    -1.62011    -1.50053     2.75778
 N     1.99611    -1.90275     2.43809
 H    -4.54303    -1.58836    -1.10994
 H    -1.50618    -2.81787    -1.96607
 H    -0.63009    -1.29109     2.87548
 H     2.59548    -2.54541     1.92071
 H    -3.03392    -2.09070    -1.53838
 H     0.09776    -2.48784    -1.93547
 H    -2.13381    -0.80400     3.29900
 H     1.03975    -2.21585     2.30525
 H    -1.85618    -2.42431     3.12309
 H     2.08972    -0.94770     2.08161
 H    -3.25417    -1.47281    -0.02300
 H    -0.55600    -3.19098    -3.29734
 H    -3.29645    -0.47706    -1.36578
 H    -0.42801    -4.08271    -1.87972
 H    -1.91066    -1.41770     1.77961
 H     2.20544    -1.92471     3.43941
Cl    -0.08666     3.50650    -5.18222
Cl    -3.18918     4.93375    -4.13446
Cl     1.43660    -1.51173    -4.93526
Cl    -2.03988    -0.81016    -4.38146
 O    -1.54880     3.41005    -5.23095
 O    -4.17941     5.81891    -3.51490
 O     2.90313    -1.44904    -4.89190
 O    -1.01521    -1.66408    -4.99472
 O     0.51403     2.41253    -5.92519
 O    -1.83163     5.36015    -3.83895
 O     0.87687    -0.42333    -4.15537
 O    -3.37303    -1.29464    -4.68660
 O     0.27133     3.42036    -3.77278
 O    -3.45615     5.01867    -5.56393
 O     1.10064    -2.80324    -4.34949
 O    -1.81580     0.51154    -4.95078
 O     1.08465    -1.40208    -6.34366
 O    -1.77457    -0.87800    -2.95114
 O     0.24214     4.79039    -5.78417
 O    -3.43812     3.61352    -3.57416
 N    -3.57346     2.12518    -6.15018
 N    -0.60447     0.41165    -7.39682
 N    -1.66236     2.04397    -2.38137
 N     1.94520     1.63209    -2.70994
 H    -4.57783     1.98712    -6.21215
 H    -1.26248     1.02748    -6.91410
 H    -0.66822     2.24798    -2.28744
 H     2.62115     1.01621    -3.16077
 H    -3.14290     1.40629    -6.73649
 H     0.32702     0.77925    -7.22120
 H    -2.16131     2.75364    -1.84535
 H     1.02447     1.25263    -2.91947
 H    -1.89875     1.12853    -1.98826
 H     2.00850     2.58231    -3.08180
 H    -3.23914     2.00167    -5.18950
 H    -0.76457     0.41014    -8.40643
 H    -3.29138     3.03939    -6.50754
 H    -0.66088    -0.54310    -7.02976
 H    -1.96871     2.09532    -3.35356
 H     2.07143     1.63832    -1.69423
