  384
 
 P     0.00000     0.00000     0.00000
 P     0.57891     0.87900    -3.89238
 P    -0.34071    -2.13579    -6.42426
 P     2.01704     3.46864     0.94175
 N    -2.98514     0.71056    -2.07809
 N    -0.40215    -1.72470     3.49572
 N    -1.53446    -4.60147     1.07059
 N    -1.05539    -2.91957    -2.50605
 O    -0.60460     1.29869    -0.67825
 O     0.94258     1.77679    -2.76714
 O     1.60505    -0.33235    -3.92979
 O    -0.93210    -1.14638    -0.47569
 O     0.56572     1.51396    -5.30160
 O     0.16175     0.22379     1.45751
 O     1.40819    -0.20903    -0.67263
 O    -0.83255     0.18946    -3.73556
 O    -0.63777    -0.79735    -7.13604
 O     2.53149     4.13718     2.18572
 O     2.89440     2.19709     0.65675
 O     4.38174     2.42729    -1.40431
 O     1.89261    -2.46865    -1.94726
 O    -0.16064    -2.00512    -4.94065
 O     0.99049    -2.74349    -7.01871
 O     0.56194     2.88523     1.26303
 H    -2.46099    -4.63245     1.49847
 H    -1.63812    -2.07945    -2.45059
 H    -0.92710    -3.30929    -1.57050
 H    -1.63853    -4.43912     0.07204
 H    -0.14861    -2.69260    -2.90591
 H    -1.05731    -5.50143     1.22043
 H    -0.98263    -3.86079     1.49583
 H    -1.53630    -3.59873    -3.10336
 H    -2.47835     1.43723    -1.57754
 H    -0.93990    -0.85562     3.45651
 H    -0.33447    -2.05802     4.46092
 H    -3.00135     0.92422    -3.07515
 H     0.54529    -1.54578     3.15178
 H    -3.95090     0.68058    -1.73722
 H    -2.53442    -0.19016    -1.93449
 H    -0.85268    -2.43487     2.92605
 H     0.05297     1.56169    -1.48629
 H     2.07531    -0.32555    -4.88997
 H     0.83390    -3.83785    -7.09822
 H     0.63967     1.88760     1.53933
 H    -0.01490    -0.69503    -8.11655
 H     3.52103     2.32741    -0.26738
 H     1.39926    -1.06172    -1.33103
 H    -0.73466    -0.78128    -4.25205
 P     4.03390     0.98920    -5.91965
 P     4.66034     1.98301    -9.76547
 P     3.71369    -0.98549   -12.29399
 P     5.97647     4.41517    -4.97313
 N     1.05107     1.79502    -7.90470
 N     3.67540     0.03238    -2.14364
 N     2.61802    -2.88665    -4.54203
 N     3.09934    -1.79763    -8.40908
 O     3.42987     2.27377    -6.60735
 O     4.92186     2.93605    -8.63511
 O     5.78978     0.97722    -9.98474
 O     3.12442    -0.17514    -6.10583
 O     4.49377     2.72996   -11.15522
 O     4.30938     1.35596    -4.42959
 O     5.46909     0.81715    -6.53475
 O     3.28441     1.24242    -9.58976
 O     3.20175     0.42284   -12.80662
 O     6.59014     5.18150    -3.74042
 O     6.97769     3.20349    -5.15396
 O     8.45163     3.67551    -7.31587
 O     5.90969    -1.43750    -7.78208
 O     3.81849    -0.94739   -10.78289
 O     4.99428    -1.45338   -12.93911
 O     4.60820     3.85200    -4.60571
 H     3.30223    -2.22258    -4.17502
 H     2.60885    -0.89836    -8.43512
 H     3.11557    -2.15416    -7.45418
 H     2.51200    -2.76194    -5.54723
 H     4.05830    -1.68086    -8.73842
 H     1.71370    -2.74956    -4.07884
 H     2.95763    -3.83581    -4.36959
 H     2.60433    -2.44906    -9.02399
 H     1.03704     1.93077    -8.91786
 H     3.17853     0.92317    -2.18420
 H     4.62834     0.16404    -2.49794
 H     1.44474     0.87867    -7.69628
 H     3.18897    -0.66261    -2.70006
 H     0.09295     1.84723    -7.54797
 H     1.61047     2.52487    -7.46998
 H     3.73858    -0.28999    -1.17382
 H     4.12483     2.59399    -7.40294
 H     6.55018     1.40421   -11.07385
 H     4.86097    -3.08412   -12.79616
 H     4.53464     2.48743    -4.40928
 H     3.87853     0.82042   -13.54024
 H     7.57472     3.35502    -6.03681
 H     5.51615    -0.08874    -7.15096
 H     3.38914     0.27210   -10.15728
 P    -0.07207     6.83614     1.65410
 P     0.45801     7.71525    -2.28406
 P    -0.36463     4.59350    -4.74729
 P     1.88126    10.30598     2.70510
 N    -3.08892     7.53500    -0.40652
 N    -0.47665     5.09338     5.21033
 N    -1.59730     2.22497     2.75102
 N    -1.11409     3.92802    -0.88625
 O    -0.66999     8.11771     0.94920
 O     0.80971     8.60561    -1.13036
 O     1.49775     6.50544    -2.30323
 O    -1.00314     5.67809     1.19687
 O     0.39999     8.34715    -3.65155
 O     0.07442     7.06735     3.11610
 O     1.34125     6.61770     1.00171
 O    -0.93527     6.97700    -2.04761
 O    -0.72644     5.95487    -5.41878
 O     2.40854    10.98003     3.93344
 O     2.74914     9.00002     2.46367
 O     4.29489     9.23912     0.33691
 O     1.80845     4.37244    -0.25594
 O    -0.27436     4.71794    -3.24914
 O     0.92951     3.99655    -5.32801
 O     0.42956     9.72885     3.03421
 H    -2.54614     2.19903     3.13895
 H    -1.62588     4.81552    -0.85649
 H    -1.10817     3.50708     0.04210
 H    -1.66107     2.38455     1.74646
 H    -0.15395     4.09318    -1.19185
 H    -1.12447     1.33824     2.93105
 H    -1.06636     2.97579     3.19285
 H    -1.59346     3.31156    -1.54906
 H    -2.57554     8.24708     0.10328
 H    -1.06779     5.92186     5.28727
 H    -0.30642     4.68190     6.13611
 H    -3.09862     7.75439    -1.40403
 H     0.42509     5.35753     4.80942
 H    -4.05874     7.50293    -0.07861
 H    -2.64341     6.62759    -0.27502
 H    -0.92928     4.39875     4.61674
 H    -0.03602     8.35117     0.08407
 H     1.97732     6.52861    -3.26099
 H     0.78796     2.64804    -5.26532
 H     0.48776     8.69899     3.22942
 H    -0.12427     6.08253    -6.38520
 H     3.31022     9.08385     1.56197
 H     1.33622     5.73033     0.36324
 H    -0.82937     6.01301    -2.54818
 P     3.99073     7.82345    -4.12861
 P     4.60062     8.80970    -8.05193
 P     3.65342     5.84876   -10.58377
 P     5.95571    11.33402    -3.13457
 N     1.06541     8.57250    -6.18174
 N     3.55064     6.83860    -0.47430
 N     2.58374     4.00789    -2.85899
 N     2.99289     5.02632    -6.69440
 O     3.44123     9.17628    -4.78343
 O     4.88222     9.77258    -6.94311
 O     5.71673     7.79771    -8.29449
 O     3.03621     6.72368    -4.47879
 O     4.38119     9.54385    -9.44958
 O     4.25945     8.11861    -2.67788
 O     5.42224     7.63907    -4.80246
 O     3.22045     8.07260    -7.85329
 O     3.15820     7.25377   -11.10273
 O     6.52156    12.06700    -1.95204
 O     6.84511    10.05723    -3.41402
 O     8.29478    10.52590    -5.60738
 O     5.88766     5.36355    -6.13694
 O     3.72509     5.86912    -9.07321
 O     4.94636     5.36275   -11.20245
 O     4.52046    10.77761    -2.73634
 H     1.65907     4.19612    -2.45556
 H     3.95226     5.16171    -7.01379
 H     3.00246     4.65500    -5.74286
 H     2.55805     4.16434    -3.86465
 H     2.50919     4.38693    -7.32618
 H     2.85454     3.04006    -2.67155
 H     3.28397     4.62375    -2.43755
 H     2.49889     5.92317    -6.70455
 H     1.63245     9.29990    -5.75843
 H     3.05819     7.73062    -0.49178
 H     3.65857     6.50940     0.48691
 H     1.04080     8.69792    -7.19627
 H     4.47616     6.95324    -0.89229
 H     0.11098     8.61645    -5.82052
 H     1.46865     7.66094    -5.95726
 H     3.01640     6.15706    -1.00987
 H     4.09093     9.44961    -5.57780
 H     6.48460     8.24275    -9.39640
 H     4.77701     3.75985   -11.05065
 H     4.54623     9.72214    -2.61241
 H     3.81403     7.62091   -11.89262
 H     7.40867    10.21603    -4.32084
 H     5.42615     6.79996    -5.44407
 H     3.31204     7.11255    -8.41994
 P     5.96500    -1.14906     3.88820
 P     6.41395    -0.44010    -0.05363
 P     5.63114    -3.50005    -2.71867
 P     8.01947     2.31081     4.79292
 N     3.03729    -0.37502     1.74343
 N     5.47641    -2.75209     7.39520
 N     4.43325    -5.73416     4.91931
 N     4.99133    -4.00050     1.36986
 O     5.39345     0.13464     3.15389
 O     6.88959     0.49712     1.01847
 O     7.49943    -1.61150    -0.17774
 O     5.01024    -2.28796     3.45545
 O     6.43254     0.23207    -1.49194
 O     6.12005    -0.88048     5.34680
 O     7.37841    -1.39516     3.25014
 O     5.06756    -1.10508     0.08501
 O     5.23165    -2.03742    -3.21000
 O     8.53432     3.04158     6.02925
 O     8.90214     1.08916     4.51217
 O    10.42759     1.48561     2.52123
 O     7.85699    -3.55910     1.94329
 O     5.68724    -3.40493    -1.13698
 O     6.99850    -3.92607    -3.17310
 O     6.55236     1.77725     5.19193
 H     4.30979    -5.55214     3.92269
 H     5.96607    -3.84454     1.10062
 H     4.55484    -4.68184     0.75281
 H     4.86860    -6.64543     5.05303
 H     4.47452    -3.12081     1.30576
 H     3.51508    -5.72453     5.36866
 H     5.02771    -5.01902     5.33817
 H     4.96937    -4.34480     2.33335
 H     3.04618    -0.13708     0.75597
 H     5.60281    -3.14453     8.32514
 H     6.38566    -2.47965     7.02429
 H     3.47151    -1.28986     1.88264
 H     4.85112    -1.93888     7.42472
 H     2.07647    -0.38192     2.08990
 H     3.56119     0.32346     2.27135
 H     5.05471    -3.47128     6.79650
 H     6.05766     0.35111     2.31499
 H     7.98427    -1.48450    -1.12378
 H     6.92156    -5.56275    -3.12384
 H     6.60748     0.77276     5.42529
 H     5.82574    -1.80639    -4.06731
 H     9.78151     1.31836     3.43437
 H     7.38263    -2.28896     2.59392
 H     5.25007    -2.49865    -0.79098
 P     9.98583    -0.05696    -1.92948
 P    10.55631     0.76348    -5.91385
 P     9.61040    -2.20391    -8.61214
 P    12.09249     3.38778    -1.04341
 N     7.19067     0.64603    -4.03102
 N     9.52834    -0.98544     1.74152
 N     8.59649    -4.03842    -0.72930
 N     9.13421    -2.81801    -4.53036
 O     9.48750     1.29081    -2.62606
 O    10.90976     1.72303    -4.80291
 O    11.70242    -0.24982    -6.14234
 O     9.02814    -1.14898    -2.31839
 O    10.47524     1.56365    -7.31408
 O    10.21666     0.24403    -0.47444
 O    11.43022    -0.27367    -2.56641
 O     9.20288     0.07783    -5.80257
 O     9.13565    -0.73894    -9.04971
 O    12.65112     4.17290     0.15902
 O    12.98372     2.18684    -1.33383
 O    14.47457     2.72533    -3.38025
 O    11.93743    -2.52439    -3.90935
 O     9.64512    -2.18046    -7.03607
 O    10.97949    -2.56609    -9.10845
 O    10.63679     2.89373    -0.57748
 H     8.43279    -3.89393    -1.72984
 H    10.12200    -2.71070    -4.78550
 H     8.68955    -3.49552    -5.14832
 H     8.98356    -4.96859    -0.58246
 H     8.66084    -1.91837    -4.62372
 H     7.71434    -3.95195    -0.21865
 H     9.26535    -3.34444    -0.38748
 H     9.08314    -3.13803    -3.56317
 H     7.26226     0.78884    -5.03941
 H     9.01286    -0.10480     1.71243
 H    10.46891    -0.85488     1.36115
 H     7.61535    -0.24953    -3.77098
 H     9.02336    -1.67636     1.17867
 H     6.21331     0.66743    -3.75651
 H     7.68577     1.39709    -3.54302
 H     9.59579    -1.30594     2.70163
 H    10.10693     1.45091    -3.50602
 H    12.49109     0.24999    -7.13119
 H    10.98334    -4.28766    -8.87161
 H    10.64233     1.86655    -0.42167
 H     9.87354    -0.27287    -9.62033
 H    13.87645     2.47222    -2.47112
 H    11.44375    -1.12839    -3.19979
 H     9.34495    -1.20672    -6.64703
 P     5.86181     5.78497     5.50763
 P     6.35697     6.33385     1.59310
 P     5.55605     3.36748    -1.09714
 P     7.92948     9.15839     6.55987
 N     2.95387     6.44209     3.46454
 N     5.41039     4.07932     9.06893
 N     4.34027     1.08894     6.64466
 N     4.91938     2.84025     3.02364
 O     5.36049     7.02411     4.76626
 O     6.83272     7.33096     2.69270
 O     7.49063     5.26209     1.49175
 O     4.93034     4.59395     5.07360
 O     6.34795     7.08929     0.20436
 O     6.02130     5.96476     6.98924
 O     7.30322     5.47777     4.91391
 O     5.02240     5.69690     1.78293
 O     5.23683     4.77040    -1.60643
 O     8.44878     9.89623     7.78541
 O     8.82745     7.94696     6.26313
 O    10.29016     8.39108     4.27855
 O     7.76993     3.22802     3.60781
 O     5.64548     3.40684     0.50857
 O     6.89711     2.79976    -1.52767
 O     6.47956     8.61241     6.96900
 H     4.88387     1.85437     7.03626
 H     5.90491     3.01326     2.79806
 H     4.51867     2.17903     2.35895
 H     4.23805     1.20893     5.63605
 H     4.40031     3.71847     2.96678
 H     3.41164     1.07522     7.07316
 H     4.82133     0.21185     6.84223
 H     4.85561     2.46568     3.97395
 H     1.99033     6.42193     3.79804
 H     4.79518     4.89879     9.11171
 H     6.31622     4.34799     8.68378
 H     3.38364     5.52079     3.57758
 H     4.97040     3.36831     8.47775
 H     3.48104     7.12625     4.01329
 H     2.97321     6.69392     2.48035
 H     5.54966     3.69215    10.00016
 H     6.17717     7.22150     3.61757
 H     8.06090     5.41897     0.52491
 H     6.75756     1.27049    -1.41203
 H     6.52329     7.57675     7.11666
 H     5.94538     4.98594    -2.84197
 H     9.63701     8.18838     5.20942
 H     7.29397     4.59151     4.30860
 H     5.17730     4.25765     0.86102
 P     9.92044     6.77888    -0.22788
 P    10.48145     7.58242    -4.19513
 P     9.56742     4.60445    -6.90370
 P    11.99981    10.20478     0.70241
 N     7.06032     7.46367    -2.34975
 N     9.50285     5.78341     3.42255
 N     8.49898     2.78055     0.97673
 N     9.01147     3.99284    -2.81403
 O     9.38814     8.07510    -0.97007
 O    10.80992     8.55182    -3.06762
 O    11.63839     6.60546    -4.42187
 O     8.96080     5.65156    -0.56978
 O    10.39455     8.41001    -5.58027
 O    10.12256     7.09110     1.22984
 O    11.36017     6.54157    -0.84415
 O     9.12348     6.89821    -4.09426
 O     9.08763     6.06033    -7.35621
 O    12.54907    11.01338     1.90552
 O    12.89831     9.00307     0.46022
 O    14.33568     9.53676    -1.63427
 O    11.80517     4.32412    -2.20595
 O     9.62232     4.64207    -5.32726
 O    10.93357     4.22132    -7.40176
 O    10.54167     9.73306     1.17723
 H     9.16585     3.47185     1.32584
 H    10.00123     4.15483    -3.03182
 H     8.61804     3.31707    -3.46347
 H     8.39975     2.86698    -0.03640
 H     8.49098     4.86518    -2.89681
 H     7.58450     2.91229     1.42144
 H     8.85943     1.85456     1.19525
 H     8.94287     3.64129    -1.85864
 H     6.08150     7.49524    -2.05848
 H     9.59010     5.45112     4.37985
 H    10.43916     5.88557     3.01812
 H     7.45973     6.54674    -2.12691
 H     9.01880     6.67889     3.41651
 H     7.59441     8.17823    -1.85856
 H     7.11804     7.63034    -3.35445
 H     8.97598     5.09281     2.88408
 H    10.05225     8.27558    -1.84979
 H    12.47912     7.13944    -5.51376
 H    10.88905     2.50573    -7.19464
 H    10.53397     8.69339     1.30335
 H     9.81055     6.51150    -7.96922
 H    13.75118     9.28519    -0.71810
 H    11.36748     5.67205    -1.48807
 H     9.27239     5.60205    -4.95118
