  200
 
Pd     0.00000     0.00000     0.00000
 S     2.27980     0.00000     0.00000
 S    -0.03106     2.28704     0.00000
 S     0.05573    -2.27428     0.00972
 S    -2.26975    -0.02195    -0.00884
 C     2.61593     1.66000     0.03793
 C     1.64861     2.67328     0.04313
 C     3.98335     2.09535     0.05004
 N     5.07885     2.43173     0.10060
 C     2.03989     4.04640     0.13911
 N     2.41948     5.09898     0.21754
 C    -1.58669    -2.64511     0.08427
 C    -2.61587    -1.71014     0.04722
 C    -1.96403    -4.03499     0.12467
 N    -2.31865    -5.13053     0.13489
 C    -4.00108    -2.10802     0.11698
 N    -5.05111    -2.48390     0.17362
Pd    -0.56808    -1.35690     3.59458
 S    -2.84767    -1.35801     3.59542
 S    -0.53682    -3.64505     3.59542
 S    -0.62345     0.91646     3.58473
 S     1.70187    -1.33606     3.60427
 C    -3.18417    -3.01709     3.55761
 C    -2.21649    -4.03129     3.55229
 C    -4.55143    -3.45225     3.54454
 N    -5.64617    -3.78848     3.49516
 C    -2.60813    -5.40349     3.45643
 N    -2.98772    -6.45606     3.37800
 C     1.01897     1.28729     3.51018
 C     2.04799     0.35212     3.54820
 C     1.39579     2.67790     3.47087
 N     1.75169     3.77285     3.46075
 C     3.43391     0.75146     3.47782
 N     4.48303     1.12701     3.42096
 N    -6.57942    -4.45761    -1.65431
 N    -7.46691    -1.77722     2.04265
 O    -9.52917     0.10839     2.62057
 O    -7.83628    -0.70492    -0.68296
 H    -5.87407    -5.16808    -1.84954
 H    -6.65358    -4.32024    -0.64633
 H    -6.30976    -3.57973    -2.09816
 H    -7.48025    -4.76241    -2.02311
 H    -6.76156    -2.48768     1.84741
 H    -7.54108    -1.63985     3.05063
 H    -7.19725    -0.89933     1.59880
 H    -8.36774    -2.08201     1.67385
 H    -8.87223    -0.55332     2.43873
 H    -9.53972     0.17895     3.56788
 H    -7.17934    -1.36663    -0.86480
 H    -7.84684    -0.63436     0.26436
Pd     0.81548     1.23976    -6.99787
 S     3.09528     1.23976    -6.99787
 S     0.78442     3.52680    -6.99787
 S     0.87122    -1.03452    -6.98814
 S    -1.45427     1.21781    -7.00671
 C     3.43141     2.89977    -6.95993
 C     2.46410     3.91305    -6.95473
 C     4.79884     3.33511    -6.94783
 N     5.89433     3.67149    -6.89726
 C     2.85537     5.28617    -6.85875
 N     3.23496     6.33874    -6.78032
 C    -0.77121    -1.40534    -6.91359
 C    -1.80039    -0.47037    -6.95065
 C    -1.14854    -2.79522    -6.87320
 N    -1.50317    -3.89076    -6.86298
 C    -3.18559    -0.86826    -6.88089
 N    -4.23563    -1.24414    -6.82425
Pd     0.24740    -0.11713    -3.40329
 S    -2.03219    -0.11825    -3.40244
 S     0.27867    -2.40528    -3.40244
 S     0.19203     2.15623    -3.41313
 S     2.51735    -0.09629    -3.39360
 C    -2.36869    -1.77732    -3.44026
 C    -1.40101    -2.79153    -3.44558
 C    -3.73595    -2.21248    -3.45333
 N    -4.83069    -2.54872    -3.50271
 C    -1.79264    -4.16372    -3.54144
 N    -2.17224    -5.21630    -3.61986
 C     1.83446     2.52705    -3.48769
 C     2.86348     1.59189    -3.44966
 C     2.21127     3.91767    -3.52699
 N     2.56718     5.01261    -3.53712
 C     4.24940     1.99122    -3.52005
 N     5.29852     2.36677    -3.57691
 N    -5.76394    -3.21785    -8.65217
 N    -6.65143    -0.53745    -4.95522
 O    -8.71369     1.34815    -4.37730
 O    -7.02080     0.53484    -7.68083
 H    -5.05859    -3.92832    -8.84741
 H    -5.83810    -3.08048    -7.64419
 H    -5.49428    -2.33996    -9.09602
 H    -6.66476    -3.52264    -9.02097
 H    -5.94608    -1.24792    -5.15045
 H    -6.72559    -0.40008    -3.94724
 H    -6.38177     0.34043    -5.39907
 H    -7.55225    -0.84225    -5.32402
 H    -8.05674     0.68644    -4.55914
 H    -8.72424     1.41871    -3.42998
 H    -6.36386    -0.12687    -7.86266
 H    -7.03135     0.60540    -6.73351
Pd     3.31821    -5.63862    -1.54949
 S     5.59800    -5.63862    -1.54949
 S     3.28714    -3.35159    -1.54949
 S     3.37394    -7.91291    -1.53976
 S     1.04846    -5.66058    -1.55833
 C     5.93414    -3.97862    -1.51155
 C     4.96682    -2.96534    -1.50635
 C     7.30156    -3.54327    -1.49945
 N     8.39705    -3.20690    -1.44888
 C     5.35809    -1.59222    -1.41037
 N     5.73769    -0.53965    -1.33194
 C     1.73152    -8.28373    -1.46521
 C     0.70233    -7.34876    -1.50227
 C     1.35418    -9.67361    -1.42482
 N     0.99955   -10.76915    -1.41459
 C    -0.68287    -7.74664    -1.43251
 N    -1.73291    -8.12253    -1.37587
Pd     2.75013    -6.99552     2.04509
 S     0.47053    -6.99663     2.04594
 S     2.78139    -9.28367     2.04594
 S     2.69476    -4.72216     2.03525
 S     5.02008    -6.97468     2.05478
 C     0.13403    -8.65571     2.00813
 C     1.10172    -9.66992     2.00280
 C    -1.23323    -9.09087     1.99505
 N    -2.32796    -9.42710     1.94567
 C     0.71008   -11.04211     1.90694
 N     0.33049   -12.09469     1.82852
 C     4.33718    -4.35134     1.96070
 C     5.36620    -5.28650     1.99872
 C     4.71399    -2.96072     1.92139
 N     5.06990    -1.86578     1.91126
 C     6.75212    -4.88717     1.92833
 N     7.80124    -4.51162     1.87147
 N    -3.26121   -10.09624    -3.20379
 N    -4.14870    -7.41584     0.49316
 O    -6.21096    -5.53024     1.07108
 O    -4.51808    -6.34355    -2.23244
 H    -2.55586   -10.80670    -3.39903
 H    -3.33538    -9.95887    -2.19581
 H    -2.99155    -9.21835    -3.64764
 H    -4.16204   -10.40103    -3.57259
 H    -3.44335    -8.12631     0.29793
 H    -4.22287    -7.27847     1.50114
 H    -3.87904    -6.53796     0.04931
 H    -5.04953    -7.72063     0.12436
 H    -5.55402    -6.19195     0.88924
 H    -6.22152    -5.45967     2.01840
 H    -3.86113    -7.00526    -2.41428
 H    -4.52863    -6.27299    -1.28513
Pd     4.13369    -4.39886    -8.54735
 S     6.41349    -4.39886    -8.54735
 S     4.10263    -2.11183    -8.54735
 S     4.18942    -6.67314    -8.53763
 S     1.86394    -4.42081    -8.55620
 C     6.74962    -2.73886    -8.50942
 C     5.78230    -1.72558    -8.50422
 C     8.11704    -2.30351    -8.49731
 N     9.21254    -1.96713    -8.44675
 C     6.17358    -0.35246    -8.40824
 N     6.55317     0.70012    -8.32981
 C     2.54700    -7.04397    -8.46308
 C     1.51782    -6.10900    -8.50013
 C     2.16966    -8.43385    -8.42268
 N     1.81504    -9.52939    -8.41246
 C     0.13261    -6.50688    -8.43037
 N    -0.91742    -6.88277    -8.37373
Pd     3.56561    -5.75576    -4.95278
 S     1.28602    -5.75687    -4.95193
 S     3.59687    -8.04391    -4.95193
 S     3.51024    -3.48240    -4.96262
 S     5.83556    -5.73492    -4.94309
 C     0.94952    -7.41595    -4.98974
 C     1.91720    -8.43015    -4.99506
 C    -0.41774    -7.85111    -5.00282
 N    -1.51248    -8.18734    -5.05219
 C     1.52556    -9.80235    -5.09092
 N     1.14597   -10.85492    -5.16935
 C     5.15266    -3.11158    -5.03717
 C     6.18168    -4.04674    -4.99915
 C     5.52948    -1.72096    -5.07648
 N     5.88538    -0.62601    -5.08660
 C     7.56760    -3.64741    -5.06954
 N     8.61672    -3.27185    -5.12639
 N    -2.44573    -8.85647   -10.20166
 N    -3.33322    -6.17608    -6.50470
 O    -5.39548    -4.29047    -5.92679
 O    -3.70259    -5.10379    -9.23031
 H    -1.74038    -9.56694   -10.39690
 H    -2.51989    -8.71911    -9.19368
 H    -2.17607    -7.97859   -10.64551
 H    -3.34656    -9.16127   -10.57046
 H    -2.62787    -6.88654    -6.69994
 H    -3.40739    -6.03871    -5.49672
 H    -3.06356    -5.29819    -6.94855
 H    -4.23405    -6.48087    -6.87350
 H    -4.73854    -4.95218    -6.10862
 H    -5.40603    -4.21991    -4.97947
 H    -3.04565    -5.76550    -9.41215
 H    -3.71315    -5.03322    -8.28299
