  216
 
 N     0.00000     0.00000     0.00000
 F     2.63215    -0.07204    -0.01885
 N    -3.10787    -1.10833    -2.34756
 H    -2.80795    -1.65479    -3.15264
 H     0.31833     0.49894    -0.82273
 H    -4.09375    -0.88744    -2.41363
 H     0.43321     0.40402     0.82404
 H    -2.93775    -1.64814    -1.49945
 H    -1.01420     0.06100     0.07922
 H    -2.56931    -0.24449    -2.28035
 H     0.27139    -0.97604    -0.08301
 F    -0.29707    -1.05273    -2.48482
 N     5.85996    -0.00066    -0.13549
 F     8.48875     0.05087    -0.14579
 N     2.74998    -1.27205    -2.41180
 H     3.07241    -1.79702    -3.22414
 H     6.19945     0.48549    -0.95747
 H     2.01883    -1.78876    -1.93075
 H     6.27581     0.42620     0.69120
 H     3.53018    -1.13079    -1.77269
 H     4.85710     0.06775    -0.06739
 H     2.38452    -0.36752    -2.68919
 H     6.14210    -0.97464    -0.18999
 F     5.55618    -1.12518    -2.64674
 N     0.07048     3.89062     2.26842
 F     2.71614     3.77239     2.32614
 N    -2.92182     2.60880    -0.01866
 H    -2.48633     2.05714    -0.75389
 H     0.39858     4.37674     1.44098
 H    -2.64821     2.21899     0.88135
 H     0.53814     4.27374     3.08620
 H    -2.60729     3.57523    -0.06047
 H    -0.92556     4.00495     2.36883
 H    -3.93257     2.56477    -0.10715
 H     0.30134     2.90536     2.17837
 F    -0.26857     2.68504    -0.11483
 N     5.92769     3.85289     2.22799
 F     8.55421     3.93091     2.11033
 N     2.93438     2.57037    -0.10461
 H     3.47076     2.08715    -0.82431
 H     6.18921     4.34810     1.38277
 H     3.18752     2.18229     0.80284
 H     6.38493     4.29554     3.01980
 H     3.15162     3.56411    -0.10303
 H     4.91668     3.88221     2.35242
 H     1.95022     2.42030    -0.27330
 H     6.23395     2.88891     2.15232
 F     5.59823     2.69150    -0.18904
 N    -0.09649     7.78674     4.60443
 F     2.74593     7.55260     4.71576
 N    -2.90588     6.44593     2.23351
 H    -2.65732     7.43035     2.25579
 H     0.71402     8.25845     4.21155
 H    -2.81278     6.06182     3.17171
 H     0.10657     6.79640     4.69674
 H    -3.86124     6.32891     1.91196
 H    -0.32389     8.18132     5.51212
 H    -2.29134     5.93352     1.60192
 H    -0.88821     7.91958     3.98130
 F    -0.22766     6.60101     2.16888
 N     6.05155     7.68132     4.53348
 F     8.72608     7.75671     4.57156
 N     2.95237     6.44478     2.25327
 H     3.37630     5.93731     1.47882
 H     6.29461     8.17827     5.38546
 H     3.32780     6.06898     3.12307
 H     6.43462     6.74292     4.56584
 H     3.17924     7.43385     2.20087
 H     5.04079     7.63558     4.43684
 H     1.94758     6.31339     2.24104
 H     6.45213     8.17124     3.73852
 F     5.66456     6.56313     2.13700
 N     0.08517    -3.93297     2.17401
 F     2.71027    -3.95781     2.21188
 N    -2.94043    -5.12211    -0.02663
 H    -2.68977    -5.61240    -0.88213
 H     0.36535    -4.90784     2.19720
 H    -3.93297    -4.94945    -0.00229
 H     0.39904    -3.47256     3.02308
 H    -2.66837    -5.68211     0.77360
 H     0.51332    -3.47602     1.37324
 H    -2.45049    -4.23268     0.00087
 H    -0.91510    -3.86726     2.09621
 F    -0.30497    -5.06531    -0.14524
 N     5.93943    -3.82180     2.09095
 F     8.55137    -3.87857     2.03706
 N     2.91465    -5.14771    -0.15520
 H     3.26741    -5.61054    -0.98872
 H     6.21107    -4.79838     2.04719
 H     1.89942    -5.13881    -0.16503
 H     6.39258    -3.38442     2.88801
 H     3.25472    -5.63590     0.66653
 H     6.22906    -3.34813     1.24228
 H     3.25961    -4.19218    -0.13943
 H     4.92910    -3.75338     2.19952
 F     5.58362    -4.99287    -0.27022
 N     0.07026     0.01802     4.45810
 F     2.72897    -0.06561     4.47549
 N    -2.86490    -1.36761     2.32895
 H    -2.57168    -1.86939     3.15923
 H     0.64260     0.49255     5.14991
 H    -3.87509    -1.25990     2.32846
 H    -0.90010     0.06346     4.75133
 H    -2.43085    -0.44936     2.32233
 H     0.18104     0.47115     3.55899
 H    -2.57649    -1.87979     1.50140
 H     0.36024    -0.95313     4.39328
 F    -0.25348    -1.35474     2.20717
 N     5.99018     0.05934     4.41092
 F     8.61210     0.05120     4.31538
 N     3.00122    -1.35047     2.25554
 H     3.23948    -1.81718     1.38584
 H     6.42784     0.51985     5.20508
 H     3.50512    -1.79194     3.01822
 H     4.98583     0.10860     4.50368
 H     3.27143    -0.37252     2.20072
 H     6.28265     0.52617     3.55892
 H     2.01054    -1.42354     2.42877
 H     6.29072    -0.91021     4.38506
 F     5.62668    -1.22910     2.14735
 N     0.15537     3.88368     6.85451
 F     2.83205     3.75921     6.92530
 N    -2.83717     2.56453     4.63849
 H    -2.51558     3.52735     4.61248
 H     0.75798     4.34227     7.53023
 H    -2.39524     2.08702     5.41663
 H     0.43383     2.91314     6.75561
 H    -3.84433     2.54406     4.75392
 H    -0.79947     3.92814     7.19183
 H    -2.58033     2.09936     3.77218
 H     0.22307     4.35450     5.95863
 F    -0.21154     2.60765     4.52461
 N     6.01169     3.91838     6.80352
 F     8.68127     3.85854     6.72100
 N     3.02018     2.51499     4.59920
 H     3.55839     2.09847     3.84402
 H     6.45434     4.37670     7.59457
 H     3.23899     2.03466     5.46545
 H     6.33786     2.95741     6.75609
 H     3.26873     3.49696     4.67953
 H     5.00552     3.93597     6.91386
 H     2.03761     2.42501     4.38703
 H     6.27837     4.40559     5.95491
 F     5.67672     2.64996     4.51724
 N     0.13453    -7.80374     4.58940
 F     2.82675    -7.87069     4.57068
 N    -2.93149    -8.93386     2.16350
 H    -2.78647    -9.48637     1.32247
 H     0.39847    -8.78409     4.55104
 H    -3.91809    -8.72944     2.27973
 H     0.70483    -7.30080     5.26808
 H    -2.58632    -9.45375     2.96422
 H     0.28251    -7.39139     3.66955
 H    -2.41300    -8.06400     2.09089
 H    -0.83739    -7.70953     4.84863
 F    -0.12223    -8.86264     2.02064
 N     5.98878    -7.71110     4.47270
 F     8.65707    -7.85916     4.40965
 N     2.82566    -8.95251     2.13403
 H     2.76353    -9.46230     1.25661
 H     6.22278    -8.69910     4.48897
 H     2.38845    -9.49879     2.86854
 H     6.49404    -7.21294     5.20474
 H     3.79352    -8.76522     2.37852
 H     6.26955    -7.32470     3.57380
 H     2.32578    -8.07137     2.04730
 H     4.99001    -7.57913     4.60001
 F     5.76009    -8.83356     1.94751
 N     0.17794    -3.88483     6.83817
 F     2.84523    -3.99145     6.89572
 N    -2.79272    -5.20820     4.55281
 H    -2.46343    -5.72737     5.35770
 H     0.68584    -3.35711     7.54776
 H    -3.78560    -5.04135     4.62536
 H    -0.82159    -3.76029     6.97107
 H    -2.30882    -4.31467     4.51622
 H     0.43480    -3.52386     5.92207
 H    -2.58569    -5.73555     3.70974
 H     0.41923    -4.87146     6.88070
 F    -0.16293    -5.17646     4.48046
 N     6.04170    -3.85468     6.81451
 F     8.71917    -3.94894     6.70738
 N     3.06327    -5.16060     4.49406
 H     3.41918    -5.64929     5.30805
 H     6.58633    -3.34540     7.50821
 H     2.04956    -5.23295     4.45480
 H     5.05788    -3.71579     6.99851
 H     3.33521    -4.18433     4.56022
 H     6.26982    -3.48129     5.89440
 H     3.47446    -5.57038     3.65919
 H     6.27650    -4.84290     6.83168
 F     5.72026    -5.06919     4.38844
 N     0.01066    -0.07350     9.11241
 F     3.02739    -0.18770     9.24688
 N    -2.77659    -1.31454     6.83673
 H    -2.44672    -1.84414     7.63474
 H     1.00151    -0.20234     8.94089
 H    -3.76907    -1.14292     6.92063
 H    -0.45884    -0.97699     9.10891
 H    -2.29116    -0.42262     6.80197
 H    -0.14194     0.40424    10.00003
 H    -2.58254    -1.83915     5.98839
 H    -0.38253     0.50016     8.36870
 F    -0.12114    -1.24015     6.71959
 N     5.88965     0.04851     9.17879
 F     8.89939    -0.09988     9.05113
 N     3.07940    -1.28089     6.77333
 H     3.52380    -1.76617     7.54661
 H     6.69484     0.36217     9.71946
 H     2.06762    -1.34943     6.85021
 H     5.84005    -0.96657     9.16973
 H     3.36743    -0.30785     6.78225
 H     5.05196     0.44500     9.59634
 H     3.38249    -1.71214     5.90318
 H     5.98489     0.38730     8.22398
 F     5.74829    -1.22035     6.66474
