   48
 
Ti     0.00000     0.00000     0.00000
 O     0.00000    -1.89200    -0.39800
 O     0.00000    -1.89200    -4.35800
Ti    -1.89200    -1.89200    -4.75700
 O    -1.89200    -1.89200    -2.77700
 O     0.00000     0.00000    -1.97900
Ti     0.00000    -1.89200    -2.37800
Ti    -1.89200     0.00000     2.37900
 O    -1.89200     0.00000     4.35900
 O    -1.89200     0.00000     0.39900
 O     0.00000     0.00000     1.98100
 O    -1.89200    -1.89200     2.77800
Ti     0.00000     3.78400     0.00000
 O     0.00000     1.89200    -0.39800
 O     0.00000     1.89200    -4.35800
Ti    -1.89200     1.89200    -4.75700
 O    -1.89200     1.89200    -2.77700
 O     0.00000     3.78400    -1.97900
Ti     0.00000     1.89200    -2.37800
Ti    -1.89200     3.78400     2.37900
 O    -1.89200     3.78400     4.35900
 O    -1.89200     3.78400     0.39900
 O     0.00000     3.78400     1.98100
 O    -1.89200     1.89200     2.77800
Ti     3.78400     0.00000     0.00000
 O     3.78400    -1.89200    -0.39800
 O     3.78400    -1.89200    -4.35800
Ti     1.89200    -1.89200    -4.75700
 O     1.89200    -1.89200    -2.77700
 O     3.78400     0.00000    -1.97900
Ti     3.78400    -1.89200    -2.37800
Ti     1.89200     0.00000     2.37900
 O     1.89200     0.00000     4.35900
 O     1.89200     0.00000     0.39900
 O     3.78400     0.00000     1.98100
 O     1.89200    -1.89200     2.77800
Ti     3.78400     3.78400     0.00000
 O     3.78400     1.89200    -0.39800
 O     3.78400     1.89200    -4.35800
Ti     1.89200     1.89200    -4.75700
 O     1.89200     1.89200    -2.77700
 O     3.78400     3.78400    -1.97900
Ti     3.78400     1.89200    -2.37800
Ti     1.89200     3.78400     2.37900
 O     1.89200     3.78400     4.35900
 O     1.89200     3.78400     0.39900
 O     3.78400     3.78400     1.98100
 O     1.89200     1.89200     2.77800
