  192
 
Sb     0.00000     0.00000     0.00000
Sb    -2.87931     0.78949    -2.62860
Sb    -3.29177    -2.37920    -0.31487
Sb    -2.07341     3.24982     0.58210
 F    -1.47685     1.16728     1.14612
 F    -4.06331    -0.42664    -1.02874
 F    -4.98636     1.36990    -1.88549
 F    -0.28612    -0.36040     2.16760
 F    -4.80415    -1.21034     0.84981
 F    -3.22385     2.03675     2.14039
 F    -4.15189     3.83156     1.29667
 F    -3.61248    -2.70595     1.89730
 F     0.97698     1.63228     0.66998
 F    -4.20684    -0.36401    -3.62109
 F    -2.33146    -0.73862     0.35659
 F    -3.38563     2.15239    -0.48545
Sb     4.14850     4.77624     3.49717
Sb     1.23855     5.58861     0.90427
Sb     0.83306     2.42225     3.19985
Sb     2.06835     8.02568     4.07509
 F     2.63991     5.94777     4.69501
 F     0.08411     4.37200     2.47424
 F    -0.84991     6.16425     1.62885
 F     3.80312     4.41849     5.72346
 F    -0.64189     3.60238     4.37150
 F     0.88635     6.81457     5.68282
 F    -0.05131     8.60134     4.81873
 F     0.52893     2.05548     5.38415
 F     5.07132     6.40168     4.24715
 F    -0.03854     4.46934    -0.18503
 F     1.75406     4.04623     3.95274
 F     0.76843     6.87251     3.04789
Sb     3.35611    -4.48310     2.96205
Sb     0.42960    -3.67629     0.38168
Sb     0.07706    -6.84093     2.63355
Sb     1.23786    -1.23600     3.58267
 F     2.01585    -3.18266     4.29064
 F    -0.57474    -4.76388     2.08713
 F    -1.71975    -3.23557     1.03965
 F     2.94346    -4.97468     5.14278
 F    -1.31168    -5.53657     4.00230
 F     0.26241    -2.32566     5.25703
 F    -0.86818    -0.78540     4.19667
 F    -0.36509    -7.32896     4.85259
 F     4.62052    -3.38254     4.08230
 F    -0.50144    -5.30705    -0.34665
 F     1.29266    -5.68820     3.75956
 F     0.34691    -2.87085     2.81495
Sb     7.49981     0.31117     6.46538
Sb     4.53120     1.10209     3.92949
Sb     4.17011    -2.06241     6.18084
Sb     5.35422     3.56248     7.10401
 F     6.11699     1.61747     7.84071
 F     3.57396     0.01192     5.60070
 F     2.43272     1.53468     4.52472
 F     7.05693    -0.17900     8.68320
 F     2.82497    -0.75998     7.50665
 F     4.38855     2.48779     8.82221
 F     3.21597     3.97477     7.74285
 F     3.75672    -2.54886     8.35969
 F     8.69984     1.44918     7.62360
 F     3.72469    -0.54031     3.08282
 F     5.40803    -0.97094     7.33775
 F     4.51812     1.91100     6.30640
Sb     2.49013    -0.07780    -2.87747
Sb    -0.38780     0.71198    -5.50493
Sb    -0.80291    -2.45900    -3.19504
Sb     0.41388     3.16914    -2.29558
 F     1.01810     1.09084    -1.72689
 F    -1.57241    -0.50440    -3.91008
 F    -2.49567     1.29396    -4.76146
 F     2.20249    -0.44236    -0.71094
 F    -2.31842    -1.29774    -2.03594
 F    -0.74078     1.94836    -0.74105
 F    -1.66267     3.74324    -1.58858
 F    -1.12612    -2.79043    -0.98650
 F     3.46497     1.55407    -2.20263
 F    -1.72107    -0.43412    -6.49636
 F     0.15786    -0.81797    -2.52294
 F    -0.89024     2.04669    -3.34770
Sb     6.63639     4.70068     0.61777
Sb     3.72384     5.50918    -1.97799
Sb     3.32058     2.34368     0.31905
Sb     4.55580     7.94613     1.19471
 F     5.12901     5.87128     1.80968
 F     2.56622     4.28779    -0.41009
 F     1.63351     6.07534    -1.26043
 F     6.29478     4.34873     2.84496
 F     1.84479     3.51664     1.49120
 F     3.37561     6.72703     2.80602
 F     2.43271     8.51068     1.94083
 F     3.01155     1.96906     2.50427
 F     7.54845     6.33774     1.35614
 F     2.44440     4.40238    -3.07685
 F     4.23607     3.97534     1.06367
 F     3.23857     6.82001     0.16098
Sb     5.84792    -4.55886     0.08613
Sb     2.91884    -3.75394    -2.49786
Sb     2.56668    -6.92086    -0.24865
Sb     3.72444    -1.31681     0.70443
 F     4.50374    -3.26160     1.41250
 F     1.91826    -4.84483    -0.78946
 F     0.76708    -3.32394    -1.84015
 F     5.44067    -5.04439     2.26807
 F     1.17236    -5.62246     1.11930
 F     2.74651    -2.41739     2.37572
 F     1.61479    -0.87713     1.31670
 F     2.12121    -7.40965     1.97439
 F     7.10599    -3.44179     1.19949
 F     1.98901    -5.38621    -3.22450
 F     3.79565    -5.79076     0.88592
 F     2.83250    -2.95118    -0.06226
Sb     9.98847     0.23443     3.58363
Sb     7.01935     1.02785     1.05038
Sb     6.65631    -2.14086     3.29971
Sb     7.84258     3.48183     4.22642
 F     8.60453     1.53178     4.96027
 F     6.05317    -0.06741     2.71741
 F     4.92110     1.46187     1.64667
 F     9.53894    -0.26798     5.80158
 F     5.31860    -0.84328     4.63110
 F     6.87762     2.39820     5.93987
 F     5.70184     3.88119     4.85707
 F     6.24601    -2.63792     5.47403
 F    11.18364     1.37754     4.74246
 F     6.20406    -0.60204     0.18994
 F     7.88598    -1.01739     4.43698
 F     7.00051     1.83608     3.42533
Sb     4.97139    -0.16415    -5.76045
Sb     2.09641     0.62496    -8.39008
Sb     1.68285    -2.54056    -6.07428
Sb     2.90189     3.08932    -5.17941
 F     3.50120     1.00847    -4.61314
 F     0.91392    -0.58544    -6.78953
 F    -0.00459     1.21664    -7.64098
 F     4.69082    -0.51505    -3.58954
 F     0.17543    -1.37179    -4.90977
 F     1.75321     1.87099    -3.61753
 F     0.82309     3.65849    -4.46745
 F     1.36584    -2.86444    -3.86052
 F     5.94501     1.47055    -5.09259
 F     0.74915    -0.49978    -9.38475
 F     2.64505    -0.89967    -5.40441
 F     1.59540     1.97745    -6.23750
Sb     9.11713     4.61075    -2.26540
Sb     6.21097     5.42232    -4.85810
Sb     5.80561     2.26169    -2.56024
Sb     7.04322     7.86567    -1.68880
 F     7.60917     5.78971    -1.07453
 F     5.04782     4.20328    -3.29795
 F     4.11367     5.99639    -4.13784
 F     8.78042     4.27409    -0.03512
 F     4.32757     3.43645    -1.39483
 F     5.85615     6.65065    -0.08125
 F     4.92900     8.44654    -0.93631
 F     5.50232     1.90231    -0.37294
 F    10.03459     6.24298    -1.52559
 F     4.93221     4.33191    -5.97059
 F     6.72284     3.89816    -1.82768
 F     5.71531     6.75990    -2.72718
Sb     8.32893    -4.64567    -2.79931
Sb     5.40286    -3.83989    -5.38369
Sb     5.05283    -7.00246    -3.12759
Sb     6.21358    -1.39620    -2.17680
 F     6.98678    -3.34196    -1.47174
 F     4.40798    -4.92483    -3.66814
 F     3.25381    -3.40403    -4.72074
 F     7.92594    -5.12098    -0.60976
 F     3.66342    -5.69957    -1.75727
 F     5.23813    -2.48755    -0.50007
 F     4.10553    -0.95313    -1.56138
 F     4.60951    -7.49142    -0.90323
 F     9.58462    -3.51795    -1.69461
 F     4.46810    -5.46823    -6.11068
 F     6.27780    -5.86435    -1.99751
 F     5.31530    -3.02227    -2.95222
Sb    12.47090     0.14858     0.70086
Sb     9.50330     0.93929    -1.83583
Sb     9.14271    -2.22028     0.41709
Sb    10.32984     3.40364     1.34263
 F    11.09227     1.45698     2.08170
 F     8.53670    -0.14548    -0.16870
 F     7.41014     1.39447    -1.23211
 F    12.02758    -0.34657     2.91492
 F     7.79621    -0.92002     1.74238
 F     9.36357     2.32017     3.05905
 F     8.19067     3.80713     1.97950
 F     8.73663    -2.69765     2.59949
 F    13.65712     1.31084     1.85075
 F     8.68300    -0.69576    -2.68154
 F    10.36268    -1.07500     1.54511
 F     9.48931     1.75850     0.53894
