  116
 
 K     0.00000     0.00000     0.00000
 K    -4.37702    -4.45289     7.86203
Ca     1.11009     2.28418     7.65395
Ca    -0.85443    -2.16172     7.71199
Ca    -3.51099     2.36425     0.09751
Ca    -5.44569    -2.25108     0.14703
Ca    -1.98252     0.94159     7.71344
Ca     2.19936    -0.89224     7.65544
Ca    -2.36482    -3.57366     0.12087
Ca     2.34699    -5.43992     0.05558
Si     1.97349     0.84526    -4.78931
 O     3.14644     1.39317    -3.85352
 O     0.68308     1.72967    -4.41675
 O     2.32563     0.96836    -6.30639
Si    -0.84744     2.00504    -4.75329
 O     1.69588    -0.68162    -4.44859
Si     3.66685     2.50352    -2.82599
Si     0.80257    -1.99114    -4.73312
 O     1.32337    -3.09286    -3.69776
 O     0.91357    -2.41357    -6.22640
 O    -0.72101    -1.70399    -4.39002
Si     2.53355     5.34746    -2.80560
Si    -2.03274    -0.83258    -4.70198
 O    -3.12412    -1.33003    -3.64238
 O    -2.46691    -0.98144    -6.18782
 O    -1.72595     0.70586    -4.42018
Si     5.36918     6.48969    -2.83934
 O    -1.39412     3.16686    -3.80416
 O    -0.95436     2.38114    -6.26628
Si     6.51676     3.64076    -2.85827
Si    -2.42860     3.69499     2.90823
 O    -1.33113     3.18418     3.95304
 O    -3.74469     2.83111     3.24541
 O    -2.02292     3.53589     1.41696
Si    -5.27448     2.55546     2.92956
 O    -2.71272     5.23461     3.19721
Si    -0.75019     2.03547     4.89354
Si    -3.57895     6.54792     2.88412
 O    -3.00522     7.69881     3.83030
 O    -3.48825     6.93226     1.37275
 O    -5.10600     6.27607     3.23716
Si    -1.94366    -0.80524     4.90609
Si    -6.41576     5.40228     2.91754
 O    -7.55285     5.97359     3.88119
 O    -6.80677     5.51767     1.40822
 O    -6.14201     3.87300     3.25724
Si     0.89059    -1.97436     4.85911
 O    -5.82432     1.41556     3.90589
 O    -5.42224     2.15878     1.42730
Si     2.07330     0.86971     4.83851
 O    -0.64250    -1.68413     4.56893
 O    -2.33770    -0.94603     6.40473
 O    -1.63789     0.73021     4.61203
 O    -0.81499     2.42802     6.40686
 O     0.76762     1.75471     4.52014
 O     2.48708     1.02220     6.33500
 O     1.76693    -0.66173     4.55113
 O     1.05043    -2.38379     6.35316
 O     3.83753     6.21182    -3.16819
 O     2.17610     5.47401    -1.28940
 O     2.78791     3.81591    -3.14319
 O     3.53480     2.10662    -1.32658
 O     5.19570     2.77669    -3.15146
 O     6.95108     3.49850    -1.37245
 O     6.23519     5.17911    -3.16167
 O     5.48180     6.88244    -1.33205
 F     0.01371    -0.20216     7.68821
 F    -4.30254    -4.62205     0.14391
 O     1.89221    -4.92067     8.93461
 O    -1.62126    -4.00362     8.97982
 O    -2.67994     0.47260     1.31858
 O    -6.26856    -0.39463     1.36186
 O    -3.88351     1.77694     8.95858
 O    -4.86886    -1.67987     8.99532
 O    -0.44242    -2.72660     1.29883
 O     0.52636     2.70536     1.25722
 O    -1.70910    -4.02421     6.51795
 O     1.91490    -4.92096     6.45459
 O    -6.26730    -0.41048    -1.09970
 O    -2.75270     0.48145    -1.13676
 O    -4.90313    -1.74116     6.54720
 O    -3.92154     1.83228     6.51540
 O     0.52267     2.74510    -1.20174
 O    -0.45635    -2.75076    -1.14412
 H     1.52036    -3.98912     8.85425
 H     1.97423    -5.00939     9.90020
 H    -1.66615    -3.91184     9.94768
 H    -1.25533    -4.92759     8.88108
 H    -2.58760     0.56117     2.28148
 H    -3.07226    -0.44097     1.23934
 H    -5.88144     0.52428     1.26688
 H    -6.35365    -0.46761     2.32741
 H    -3.80506     1.83393     9.92527
 H    -4.79867     1.40752     8.85143
 H    -3.95260    -1.30390     8.88680
 H    -4.94026    -1.74377     9.96106
 H     0.46688    -3.11023     1.18507
 H    -0.50016    -2.63322     2.26366
 H     0.62682     2.60787     2.21756
 H    -0.38974     3.10100     1.19553
 H    -1.80684    -3.94363     5.55364
 H    -1.32913    -4.94455     6.60392
 H     1.53162    -3.99362     6.52453
 H     2.00064    -5.01689     5.49093
 H    -5.88472     0.51217    -1.02085
 H    -6.35361    -0.50190    -2.06313
 H    -2.70652     0.55610    -2.10526
 H    -3.13047    -0.43588    -1.02264
 H    -3.98596    -1.35628     6.62242
 H    -4.99320    -1.84031     5.58676
 H    -3.85279     1.92888     5.55311
 H    -4.83266     1.44973     6.61664
 H     0.59470     2.66942    -2.16776
 H    -0.39610     3.12655    -1.09979
 H     0.45619    -3.13392    -1.05490
 H    -0.54966    -2.68303    -2.10843
