  116
 
 K     0.00000     0.00000     0.00000
 K    -4.48300    -4.48300     7.88400
Ca     0.98800     2.20500     7.88400
Ca    -0.98800    -2.20500     7.88400
Ca    -3.49500     2.27700     0.00000
Ca    -5.47000    -2.27700     0.00000
Ca    -2.20500     0.98800     7.88400
Ca     2.20500    -0.98800     7.88400
Ca    -2.27700    -3.49500     0.00000
Ca     2.27700    -5.47000     0.00000
Si     2.02400     0.77500    -4.88800
 O     3.25900     1.22400    -3.94200
 O     0.75600     1.70200    -4.45100
 O     2.36900     0.91400    -6.42900
Si    -0.77500     2.02400    -4.88800
 O     1.70200    -0.75600    -4.45100
Si     3.70800     2.45800    -2.99600
Si     0.77500    -2.02400    -4.88800
 O     1.22400    -3.25900    -3.94200
 O     0.91400    -2.36900    -6.42900
 O    -0.75600    -1.70200    -4.45100
Si     2.45800     5.25700    -2.99600
Si    -2.02400    -0.77500    -4.88800
 O    -3.25900    -1.22400    -3.94200
 O    -2.36900    -0.91400    -6.42900
 O    -1.70200     0.75600    -4.45100
Si     5.25700     6.50700    -2.99600
 O    -1.22400     3.25900    -3.94200
 O    -0.91400     2.36900    -6.42900
Si     6.50700     3.70800    -2.99600
Si    -2.45800     3.70800     2.99600
 O    -1.22400     3.25900     3.94200
 O    -3.72700     2.78000     3.43300
 O    -2.11400     3.56800     1.45500
Si    -5.25700     2.45800     2.99600
 O    -2.78000     5.23800     3.43300
Si    -0.77500     2.02400     4.88800
Si    -3.70800     6.50700     2.99600
 O    -3.25900     7.74100     3.94200
 O    -3.56800     6.85100     1.45500
 O    -5.23800     6.18500     3.43300
Si    -2.02400    -0.77500     4.88800
Si    -6.50700     5.25700     2.99600
 O    -7.74100     5.70600     3.94200
 O    -6.85100     5.39700     1.45500
 O    -6.18500     3.72700     3.43300
Si     0.77500    -2.02400     4.88800
 O    -5.70600     1.22400     3.94200
 O    -5.39700     2.11400     1.45500
Si     2.02400     0.77500     4.88800
 O    -0.75600    -1.70200     4.45100
 O    -2.36900    -0.91400     6.42900
 O    -1.70200     0.75600     4.45100
 O    -0.91400     2.36900     6.42900
 O     0.75600     1.70200     4.45100
 O     2.36900     0.91400     6.42900
 O     1.70200    -0.75600     4.45100
 O     0.91400    -2.36900     6.42900
 O     3.72700     6.18500    -3.43300
 O     2.11400     5.39700    -1.45500
 O     2.78000     3.72700    -3.43300
 O     3.56800     2.11400    -1.45500
 O     5.23800     2.78000    -3.43300
 O     6.85100     3.56800    -1.45500
 O     6.18500     5.23800    -3.43300
 O     5.39700     6.85100    -1.45500
 F     0.00000     0.00000     7.88400
 F    -4.48200    -4.48200     0.00000
 O     1.90800    -4.93300     9.30300
 O    -1.90800    -4.03200     9.30300
 O    -2.57500     0.45000     1.41900
 O    -6.39000    -0.45000     1.41900
 O    -4.03200     1.90800     9.30300
 O    -4.93300    -1.90800     9.30300
 O    -0.45000    -2.57500     1.41900
 O     0.45000     2.57500     1.41900
 O    -1.90800    -4.03200     6.46500
 O     1.90800    -4.93300     6.46500
 O    -6.39000    -0.45000    -1.41900
 O    -2.57500     0.45000    -1.41900
 O    -4.93300    -1.90800     6.46500
 O    -4.03200     1.90800     6.46500
 O     0.45000     2.57500    -1.41900
 O    -0.45000    -2.57500    -1.41900
 H     1.34950    -4.10228     9.30110
 H     1.92221    -5.20803    10.25331
 H    -1.93131    -3.73213    10.23977
 H    -1.39495    -4.89382     9.33190
 H    -2.53011     0.73558     2.36204
 H    -3.09698    -0.40516     1.44101
 H    -5.86191     0.40265     1.43719
 H    -6.39956    -0.75050     2.35753
 H    -3.73668     1.91470    10.24325
 H    -4.88934     1.38715     9.31673
 H    -4.08711    -1.37137     9.32221
 H    -5.22273    -1.94217    10.24665
 H     0.38918    -3.12079     1.43312
 H    -0.73581    -2.54582     2.36433
 H     0.74238     2.53812     2.35980
 H    -0.39729     3.11288     1.44349
 H    -1.92870    -3.73117     5.52654
 H    -1.39729    -4.89094     6.43763
 H     1.35619    -4.09670     6.47716
 H     1.91068    -5.20211     5.51318
 H    -5.86166     0.40244    -1.43637
 H    -6.39924    -0.74981    -2.35773
 H    -2.54154     0.73321    -2.36427
 H    -3.09167    -0.40886    -1.43336
 H    -4.08616    -1.37271     6.44496
 H    -5.22406    -1.94052     5.52191
 H    -3.73740     1.91529     5.52456
 H    -4.89002     1.38833     6.45138
 H     0.74415     2.53316    -2.35878
 H    -0.40054     3.10612    -1.44681
 H     0.38664    -3.12249    -1.43253
 H    -0.73389    -2.54522    -2.36433
