  336
 
Ba     0.00000     0.00000     0.00000
 N     3.01963    -0.28379     0.05091
 O     1.63837     2.48564    -0.29880
 O    -1.32800     3.09445    -0.18569
 O     1.43473    -1.03269     2.48831
 O    -0.45756    -2.81510     0.30461
 O     0.05260     0.98255    -2.56951
 H     0.60791     1.59682    -3.05479
 C     3.52001     1.07939    -0.30598
 C     2.76338     2.13623     0.50907
 C     0.93607     3.62054     0.20493
 C    -0.22608     3.80659    -0.76370
 C    -2.24806     2.62491    -1.17642
 C     3.41505    -1.25893    -1.00973
 C     3.58781    -0.69520     1.36464
 C     2.63615    -1.65737     2.07417
 C     1.53136    -0.08326     3.54191
 C    -0.78998    -3.14361     1.65058
 N    -2.95444     0.35767    -0.43072
 O    -1.21675    -1.36990    -2.46180
 O     1.69915    -2.22051    -2.31814
 O    -2.00595    -1.18716     1.97081
 O     0.17744     1.48238     2.44967
 H    -0.43935     0.45899    -3.21836
 C    -3.29878     1.81119    -0.41469
 C     2.50414    -1.04728    -2.22893
 C     0.14719     0.57227     3.54519
 C    -2.20345    -2.59066     1.84971
 C    -3.17210    -0.21723    -1.79423
 C    -3.82298    -0.35929     0.54741
 C    -2.50274    -1.59514    -1.88168
 C    -0.58163    -2.59367    -2.82739
 C     0.76988    -2.19317    -3.40625
 C    -3.16652    -0.37559     1.92784
Ba     4.13127    -6.32519     6.74299
 N     7.16937    -6.63307     6.78942
 O     5.77760    -3.87936     6.34020
 O     2.83008    -3.35244     6.39464
 O     5.61383    -7.25509     9.26490
 O     3.59158    -9.11945     7.24724
 O     4.23804    -5.53488     4.09955
 H     4.60935    -4.78966     3.62288
 C     7.66083    -5.27820     6.39188
 C     6.88836    -4.20731     7.17494
 C     5.05618    -2.74233     6.80966
 C     3.90246    -2.59628     5.82294
 C     1.84751    -3.72414     5.42725
 C     7.55493    -7.64085     5.75651
 C     7.75799    -7.01058     8.10379
 C     6.79875    -7.92129     8.86972
 C     5.74853    -6.26122    10.27277
 C     3.31510    -9.35169     8.62549
 N     1.16806    -5.95938     6.29248
 O     2.87158    -7.81130     4.35189
 O     5.79809    -8.64360     4.54284
 O     2.17365    -7.34144     8.81121
 O     4.31067    -4.77195     9.17512
 H     3.62335    -5.98763     3.50872
 C     0.79347    -4.51564     6.20924
 C     6.62806    -7.48297     4.54407
 C     4.35966    -5.61954    10.32017
 C     1.92974    -8.74102     8.85760
 C     0.92453    -6.62953     4.97902
 C     0.34111    -6.61156     7.34975
 C     1.59529    -8.00878     4.96446
 C     3.51647    -9.04764     4.05390
 C     4.86763    -8.67035     3.45713
 C     1.04511    -6.49363     8.70137
Ba     2.65059     5.43274     6.79258
 N    -0.37271     5.73390     6.74622
 O     0.97659     2.94325     7.11269
 O     3.91259     2.43268     7.00361
 O     1.19691     6.42278     4.28973
 O     3.14064     8.25029     6.38320
 O     2.58063     4.57250     9.39964
 H     2.12336     3.89558     9.90189
 C    -0.87399     4.38032     7.13500
 C    -0.14907     3.30542     6.31313
 C     1.67762     1.81249     6.60153
 C     2.85584     1.64036     7.55506
 C     4.87015     2.81693     7.99268
 C    -0.75807     6.73554     7.78551
 C    -0.95242     6.12164     5.43101
 C    -0.00026     7.06150     4.69270
 C     1.09024     5.45483     3.25390
 C     3.46607     8.53941     5.02670
 N     5.61304     5.06407     7.21505
 O     3.91244     6.88340     9.20188
 O     0.99847     7.74037     9.00363
 O     4.64387     6.55250     4.79520
 O     2.44094     3.90325     4.37419
 H     3.12421     5.08069    10.01703
 C     5.94582     3.60766     7.24052
 C     0.17690     6.57365     8.99207
 C     2.46962     4.79046     3.26000
 C     4.86833     7.95641     4.82990
 C     5.84409     5.67752     8.55853
 C     6.47880     5.73822     6.20416
 C     5.19951     7.06923     8.60903
 C     3.28442     8.12793     9.50492
 C     1.92563     7.76859    10.09424
 C     5.79008     5.72286     4.83915
Ba     6.52663    -0.66146    13.60118
 N     3.51669    -0.35112    13.50085
 O     4.88626    -3.12528    14.00285
 O     7.82561    -3.80355    13.99850
 O     5.11613     0.24303    11.02684
 O     7.09190     2.13245    13.12967
 O     7.91185     5.09266     1.30100
 H     7.51681     4.35782     1.77687
 C     3.01743    -1.69793    13.91911
 C     3.78702    -2.78512    13.15596
 C     5.56688    -4.29783    13.55910
 C     6.69929    -4.48891    14.56114
 C     8.67465    -3.22538    14.99290
 C     3.11220     0.68085    14.50325
 C     2.95767    -0.00669    12.16429
 C     3.92113     0.90422    11.40330
 C     5.00206    -0.76005    10.02535
 C     7.41458     2.35395    11.76066
 N     9.47492    -1.05308    14.09992
 O     7.74817     0.82682    15.99303
 O     4.82404     1.70189    15.77423
 O     8.54897     0.34053    11.59198
 O     6.36138    -2.26719    11.19787
 H     8.50146     5.55953     1.90859
 C     9.78751    -2.51004    14.21898
 C     4.00038     0.53691    15.74627
 C     6.37591    -1.43484    10.04058
 C     8.80646     1.73829    11.58404
 C     9.70434    -0.37030    15.41036
 C    10.35543    -0.44923    13.05795
 C     9.03828     1.01182    15.40365
 C     7.11199     2.07035    16.28349
 C     5.74859     1.71408    16.86577
 C     9.66829    -0.52076    11.69435
 O    -0.62212    -4.20521    -5.42529
 H    -0.12992    -4.97424    -5.73385
 H    -0.53453    -3.54576    -6.11425
 O     3.46664   -10.49294     1.34988
 H     3.97246   -11.26695     1.07556
 H     3.56913    -9.85046     0.64868
 O     1.42742     6.55772    -0.61375
 H     0.87800     7.29970    -0.33948
 H     1.49062     6.61262    -1.56633
 O     5.53617     0.18260     5.98452
 H     5.03989     1.00278     6.08025
 H     5.67728     0.07507     5.03999
 O    -2.30740    -5.06075     5.31056
 H    -2.78482    -4.28203     5.61499
 H    -2.39928    -5.71534     6.00321
 O     3.14029    -4.41796    -2.88177
 H     2.65057    -3.63190    -2.61332
 H     3.03137    -5.04635    -2.16809
 O     1.31713    -1.12989     7.47104
 H     1.79296    -1.95781     7.33908
 H     1.17130    -1.06201     8.41674
 O     6.73050    -0.64925    -0.57285
 H     7.24159    -1.44145    -0.76355
 H     6.61181    -0.62568     0.37652
 I     5.57406     2.39000     2.84172
 I    -0.00362     2.09450    10.93436
 I     9.82720     4.95855     4.45251
 I     4.22968     4.63474    12.68256
 I     6.58635    -2.76705     2.63628
 I     1.14873    -3.29059    10.73328
 I     2.37551    -5.32256     0.90589
 I    -3.07685    -5.85823     9.00628
 H     4.61693     1.18250    -0.14468
 H     3.33323     1.26850    -1.38979
 H     3.38806     3.02673     0.68264
 H     2.36605     1.74262     1.46866
 H     1.61019     4.49931     0.19479
 H     0.59238     3.41313     1.23538
 H     0.03451     3.39444    -1.76037
 H    -0.52091     4.86743    -0.85503
 H    -1.67914     2.00279    -1.90107
 H    -2.69423     3.49234    -1.69159
 H     4.49008    -1.17212    -1.28541
 H     3.28372    -2.29530    -0.61774
 H     4.59279    -1.15708     1.25645
 H     3.75822     0.19580     2.00839
 H     3.12276    -2.15564     2.92842
 H     2.22517    -2.41795     1.37878
 H     2.32807     0.65348     3.33473
 H     1.74537    -0.61204     4.48681
 H    -0.04902    -2.64510     2.30929
 H    -0.74973    -4.23749     1.78217
 H    -3.33079     2.15389     0.64772
 H    -4.31402     2.00744    -0.82963
 H     3.06966    -0.91337    -3.16527
 H     1.81417    -0.17794    -2.07819
 H    -0.05924     1.11952     4.47804
 H    -0.66192    -0.16125     3.34233
 H    -2.85504    -2.82207     0.98858
 H    -2.66732    -2.96734     2.77693
 H    -2.71335     0.45674    -2.55584
 H    -4.25269    -0.29949    -2.04754
 H    -4.01115    -1.40304     0.21260
 H    -4.83463     0.09541     0.60919
 H    -3.08178    -2.28109    -2.51811
 H    -2.31874    -2.05493    -0.88486
 H    -0.47769    -3.23260    -1.93081
 H    -1.20228    -3.11424    -3.58300
 H     1.13365    -2.94306    -4.13612
 H     0.71929    -1.20259    -3.89435
 H    -2.72719     0.60964     2.19018
 H    -3.87832    -0.68465     2.71074
 H     8.75515    -5.15758     6.55517
 H     7.47556    -5.12252     5.30260
 H     7.50397    -3.31077     7.34510
 H     6.47542    -4.58490     8.13485
 H     5.71741    -1.85544     6.79321
 H     4.70108    -2.93479     7.83962
 H     4.18104    -3.00649     4.83170
 H     3.57374    -1.54726     5.72163
 H     2.34403    -4.33485     4.64580
 H     1.41834    -2.81396     4.97338
 H     8.62487    -7.55931     5.46359
 H     7.43227    -8.66403     6.18672
 H     8.74313    -7.51072     7.98560
 H     7.97580    -6.10401     8.70980
 H     7.28936    -8.38036     9.74378
 H     6.37143    -8.71295     8.21997
 H     6.52778    -5.52876     9.99551
 H     6.01547    -6.74561    11.22741
 H     4.10189    -8.83552     9.21374
 H     3.33243   -10.43443     8.82797
 H     0.72391    -4.10641     7.24512
 H    -0.21310    -4.36926     5.75165
 H     7.18114    -7.41992     3.59299
 H     5.95813    -6.59168     4.65490
 H     4.20671    -5.01589    11.22906
 H     3.54939    -6.37130    10.21338
 H     1.21222    -9.04383     8.07522
 H     1.53005    -8.99863     9.85471
 H     1.36537    -6.00450     4.16610
 H    -0.16167    -6.73090     4.75561
 H     0.16693    -7.68272     7.10814
 H    -0.67806    -6.17307     7.40800
 H     1.01093    -8.73273     4.37601
 H     1.79019    -8.40678     5.98540
 H     3.62656    -9.63716     4.98342
 H     2.90213    -9.60835     3.32216
 H     5.23126    -9.45215     2.76138
 H     4.81344    -7.70032     2.92804
 H     1.54359    -5.50650     8.81779
 H     0.35193    -6.66798     9.53938
 H    -0.65551     4.20606     8.21620
 H    -1.97567     4.28452     7.00713
 H     0.24162     3.68453     5.34518
 H    -0.79137     2.42621     6.15021
 H     2.00470     2.01641     5.56519
 H     1.01263     0.92829     6.62383
 H     3.19923     0.59128     7.59787
 H     2.58586     1.99776     8.56971
 H     5.28880     1.91446     8.47037
 H     4.34217     3.43686     8.74866
 H    -0.64477     7.76212     7.36205
 H    -1.82591     6.64411     8.08511
 H    -1.14005     5.22006     4.80821
 H    -1.95046     6.59778     5.54267
 H     0.41425     7.84035     5.36550
 H    -0.49247     7.53630     3.82871
 H     0.88101     5.97081     2.30031
 H     0.28636     4.72994     3.47385
 H     3.44359     9.62986     4.86665
 H     2.71138     8.03655     4.38739
 H     6.94916     3.41568     7.68668
 H     5.99951     3.23961     6.18770
 H     0.85398     5.69035     8.87122
 H    -0.36987     6.49215     9.94511
 H     3.28247     5.52556     3.44198
 H     2.66874     4.22057     2.33941
 H     5.31262     8.27117     3.87022
 H     5.54349     8.22421     5.66122
 H     6.92671     5.74730     8.80814
 H     5.37401     5.03332     9.33879
 H     7.47816     5.25765     6.13127
 H     6.69700     6.78562     6.50530
 H     5.02384     7.50212     7.59869
 H     5.79123     7.76129     9.22769
 H     3.90613     8.67587    10.24060
 H     3.18932     8.72413     8.57834
 H     1.96789     6.80580    10.63556
 H     1.56294     8.55933    10.78017
 H     6.48854     5.98650     4.02882
 H     5.32285     4.73778     4.62717
 H     3.19775    -1.83524    15.01138
 H     1.92235    -1.81444    13.75713
 H     4.21795    -2.42064    12.19821
 H     3.16152    -3.67409    12.98397
 H     5.94284    -4.13478    12.53205
 H     4.86684    -5.15550    13.57825
 H     6.97808    -5.55228    14.67202
 H     6.42194    -4.06770    15.54732
 H     9.06764    -4.02088    15.64818
 H     8.05676    -2.51489    15.58493
 H     3.25918     1.69397    14.05822
 H     2.03320     0.61485    14.76857
 H     2.77282    -0.92893    11.57124
 H     1.95891     0.47328    12.24633
 H     4.33632     1.70310    12.05256
 H     3.43943     1.35435    10.51969
 H     4.78883    -0.27923     9.05486
 H     4.19600    -1.47293    10.27465
 H     7.40409     3.43438    11.54737
 H     6.64783     1.83136    11.15148
 H    10.77637    -2.68771    14.70166
 H     9.86350    -2.94467    13.19319
 H     4.67637    -0.35150    15.66008
 H     3.41644     0.47559    16.67875
 H     7.20049    -0.70262    10.17065
 H     6.54848    -2.05184     9.14402
 H     9.26107     2.01253    10.61686
 H     9.48607     2.01829    12.40807
 H    10.78931    -0.26922    15.64171
 H     9.25540    -0.98454    16.22637
 H    11.34510    -0.95402    13.00979
 H    10.59540     0.60731    13.30603
 H     8.86536     1.40171    14.37586
 H     9.61520     1.73758    15.99787
 H     7.72579     2.62484    17.02032
 H     7.01966     2.66110    15.35309
 H     5.78188     0.74585    17.39877
 H     5.39309     2.50501    17.55663
 H    10.37492    -0.32888    10.87105
 H     9.16439    -1.49961    11.54164
 H     2.29526     8.67309     6.64944
 H     3.25168     3.34844     4.41198
 H     0.38342    -3.23755     0.02412
 H    -0.61310     2.06578     2.44420
 H     4.40085    -9.59523     6.95925
 H     3.50006    -4.21807     9.18106
 H     6.27905     2.61717    13.39422
 H     7.14457    -2.85760    11.22055
