  188
 
Mg     0.00000     0.00000     0.00000
Mg    13.31053     0.00000     0.00000
 O    15.12711     0.96357     0.00000
 O    13.12396     0.82571     1.99482
 C    13.08310    -0.09438     2.97785
 C    14.28030    -1.19134     2.69035
 O    14.10549    -1.47415     1.29071
 C    14.91901    -2.51370     0.86416
 C    14.57352    -2.67671    -0.64906
 O    14.24748    -1.55991    -1.22855
 C    14.02269    -1.65059    -2.48638
 O    12.33710     1.85972    -0.25466
 O    13.19286     0.42832    -2.15016
 C    12.12302     1.71563     2.13885
 C    13.40172    -0.47989    -3.02904
 C    12.18668     2.75568     0.86076
 C    12.24778     2.52226    -1.47019
 C    12.41399     1.39457    -2.53625
Cl    11.14714    -1.15990    -0.02667
Cl    -2.16423    -1.16010    -0.02616
 O     1.81574     0.96336     0.00000
 O    -0.18657     0.82571     1.99482
 C    -0.22743    -0.09438     2.97786
 C     0.96977    -1.19134     2.69035
 O     0.79496    -1.47415     1.29071
 C     1.60848    -2.51370     0.86416
 C     1.26299    -2.67671    -0.64906
 O     0.93611    -1.56011    -1.22804
 C     0.71216    -1.65059    -2.48638
 O    -0.97343     1.85972    -0.25466
 O    -0.11851     0.42811    -2.14965
 C    -1.18751     1.71563     2.13885
 C     0.09119    -0.47989    -3.02904
 C    -1.12385     2.75568     0.86076
 C    -1.06276     2.52226    -1.47019
 C    -0.89655     1.39457    -2.53625
Cl     0.89843    -4.57216     4.33970
Mg    -1.26580    -5.73226     4.31354
 O    -3.08155    -6.69562     4.31303
 O    -1.07923    -6.55797     2.31872
 C    -0.07829    -7.44789     2.17469
 C    -0.14111    -8.48773     3.45227
 O    -0.29237    -7.59198     4.56821
 C    -0.20221    -8.25431     5.78323
 C    -0.36926    -7.12683     6.84979
 O    -1.14763    -6.16091     6.46242
 C    -1.35699    -5.25237     7.34258
 O    -2.06076    -4.25811     3.02283
 O    -2.20225    -4.17268     5.54081
 C    -1.03837    -5.63789     1.33569
 C    -1.97797    -4.08167     6.79992
 C    -2.23474    -4.54071     1.62268
 C    -2.87345    -3.21835     3.44887
 C    -2.52879    -3.05555     4.96260
Cl     9.20300     4.86536    -0.03494
Mg     7.03961     3.70547    -0.06161
 O     5.22303     2.74190    -0.06161
 O     7.22534     2.87955    -2.05593
 C     8.22712     1.98984    -2.20046
 C     8.16346     0.94979    -0.92237
 O     8.01304     1.84574     0.19305
 C     8.10236     1.18321     1.40858
 C     7.93615     2.31090     2.47464
 O     7.15694     3.27661     2.08778
 C     6.94758     4.18515     2.96794
 O     6.24465     5.17962    -1.35232
 O     6.10232     5.26484     1.16616
 C     7.26704     3.79984    -3.03947
 C     6.32661     5.35585     2.42528
 C     6.06984     4.89681    -2.75196
 C     5.43113     6.21917    -0.92577
 C     5.77662     6.38218     0.58745
Cl    10.37345     5.31320    -9.22982
Cl     4.57270    -0.13314     0.88993
Cl    13.29542    -0.14734    -6.69637
Cl     2.44667     3.82279    -0.94850
 C     7.44712    -2.61432     1.05056
 C     7.08912    -3.38742    -0.19941
 N     7.07670    -3.86655    -1.21868
 C    -3.31256     1.38852     6.78610
 C    -3.67632     0.61660     5.53707
 N    -3.69218     0.13606     4.51852
 C     4.56557    -3.12777     3.27563
 C     4.92934    -2.35740     4.52561
 N     4.94559    -1.87887     5.54511
 C    10.35216     2.31695    -6.84771
 C    10.71509     3.08866    -5.59817
 N    10.73178     3.56941    -4.58013
 H    12.11439    -0.59407     2.97820
 H    13.24432     0.38630     3.94277
 H    14.14699    -2.08887     3.29431
 H    15.26341    -0.76371     2.88711
 H    14.69539    -3.42900     1.41219
 H    15.97089    -2.25967     0.99501
 H    13.73701    -3.36965    -0.73951
 H    15.44385    -3.08923    -1.15941
 H    13.36790    -2.50418    -2.66167
 H    14.97175    -1.80952    -2.99837
 H    11.16422     1.19725     2.14786
 H    12.24729     2.26596     3.07148
 H    12.44653    -0.75954    -3.47347
 H    14.05607    -0.07328    -3.80014
 H    11.26864     3.33757     0.77895
 H    13.03859     3.43067     0.94286
 H    11.27918     3.01144    -1.57320
 H    13.04117     3.26361    -1.56523
 H    11.43049     0.97873    -2.75515
 H    12.83224     1.83434    -3.44166
 H    -1.19614    -0.59407     2.97820
 H    -0.06621     0.38630     3.94277
 H     0.83646    -2.08887     3.29431
 H     1.95288    -0.76371     2.88711
 H     1.38486    -3.42900     1.41219
 H     2.66035    -2.25967     0.99501
 H     0.42699    -3.37026    -0.73961
 H     2.13358    -3.08843    -1.15960
 H     0.05774    -2.50433    -2.66236
 H     1.66161    -1.80907    -2.99779
 H    -2.14631     1.19725     2.14786
 H    -1.06324     2.26596     3.07148
 H    -0.86460    -0.76548    -3.46838
 H     0.73926    -0.07022    -3.80381
 H    -2.04190     3.33757     0.77895
 H    -0.27194     3.43067     0.94287
 H    -2.03136     3.01144    -1.57320
 H    -0.26937     3.26361    -1.56523
 H    -1.88012     0.97924    -2.75576
 H    -0.47750     1.83414    -3.44140
 H    -0.20276    -7.99827     1.24212
 H     0.88043    -6.92937     2.16538
 H    -0.99245    -9.16342     3.37002
 H     0.77742    -9.06886     3.53401
 H    -0.99489    -8.99641     5.87831
 H     0.76686    -8.74261     5.88594
 H    -0.78859    -7.56666     7.75468
 H     0.61399    -6.71104     7.06987
 H    -2.00489    -5.66194     8.11755
 H    -0.40103    -4.96692     7.78162
 H    -1.19977    -6.11865     0.37085
 H    -0.06951    -5.13848     1.33524
 H    -2.92729    -3.92296     7.31148
 H    -1.32344    -3.22794     6.97554
 H    -3.21794    -4.96779     1.42519
 H    -2.10056    -3.64314     1.01899
 H    -3.92543    -3.47160     3.31736
 H    -2.64880    -2.30319     2.90103
 H    -3.39966    -2.64410     5.47289
 H    -1.69286    -2.36203     5.05394
 H     8.10306     1.43961    -3.13318
 H     9.18573     2.50858    -2.20938
 H     7.31155     0.27480    -1.00448
 H     9.08150     0.36789    -0.84056
 H     7.30897     0.44186     1.50362
 H     9.07096     0.69403     1.51159
 H     7.51798     1.87130     3.38017
 H     8.91952     2.72707     2.69345
 H     6.29969     3.77558     3.74291
 H     7.90354     4.47060     3.40698
 H     7.10605     3.31922    -4.00445
 H     8.23585     4.29934    -3.03946
 H     5.37728     5.51456     2.93683
 H     6.98114     6.20958     2.60090
 H     5.08672     4.46917    -2.94872
 H     6.20315     5.79433    -3.35592
 H     4.37925     5.96514    -1.05662
 H     5.65475     7.13447    -1.47380
 H     4.90642     6.79477     1.09796
 H     6.61332     7.07486     0.67808
 H    14.92136     1.85888     0.24204
 H    15.77182     0.55657     0.56674
 H     1.60988     1.85869     0.24189
 H     2.46045     0.55651     0.56685
 H    -3.70760    -6.02340     4.55527
 H    -3.10603    -7.45789     4.87947
 H     4.59706     3.41427     0.18042
 H     5.19851     1.97985     0.50512
 H     6.53467    -2.29218     1.55230
 H     8.02385    -3.25265     1.71990
 H     8.04077    -1.74107     0.78016
 H    -4.22266     1.71244     7.29096
 H    -2.73497     0.74876     7.45333
 H    -2.71796     2.26061     6.51402
 H     3.48074    -3.17432     3.18036
 H     4.96821    -4.13852     3.34167
 H     4.98562    -2.62556     2.40417
 H     9.26739     2.26982    -6.94338
 H    10.75523     1.30643    -6.78059
 H    10.77234     2.81856    -7.71945
