  336
 
Ba     0.00000     0.00000     0.00000
 N     2.47407     0.06096     0.98800
 O     2.00065     3.29621     1.69085
 O    -1.11867     4.11653     0.92532
 O     1.55049    -1.14622     3.52158
 O     0.43520    -2.25620     1.38159
 O     0.52652     1.66573    -1.83557
 H     1.08149     2.29576    -2.39695
 C     2.23023     1.34742     0.25449
 C     2.87885     2.65054     0.72544
 C     1.22539     4.42793     1.21805
 C     0.13954     4.08572     0.19990
 C    -2.14520     3.22984     0.43541
 C     2.82668    -1.12368     0.12990
 C     3.26433     0.18763     2.24045
 C     2.95578    -0.95530     3.21151
 C     0.88300    -0.08116     4.24290
 C    -0.73540    -2.78141     2.03060
 N    -2.47948     0.65149     0.23711
 O    -0.93089    -0.83830    -2.52700
 O     1.92118    -0.76360    -2.07316
 O    -2.42719    -1.12483     2.41074
 O     0.49768     1.36167     2.32720
 H     0.45724     0.71703    -2.27493
 C    -1.87274     1.81313     0.94537
 C     3.17707    -0.95173    -1.35284
 C    -0.14016     0.56148     3.31282
 C    -1.91331    -2.02915     1.40498
 C    -2.35462     0.75206    -1.25690
 C    -3.81513     0.23669     0.73086
 C    -2.26535    -0.66213    -1.86018
 C    -0.14130    -1.95309    -1.86324
 C     1.23773    -1.97857    -2.50424
 C    -3.68339    -0.47888     2.09012
Ba     4.32225    -5.38231     6.03906
 N     7.12719    -5.64357     7.10318
 O     6.67130    -2.28412     7.72795
 O     3.48889    -1.34488     6.95760
 O     5.82227    -6.26527    10.05070
 O     4.95730    -7.93579     6.93609
 O     4.72746    -3.62540     4.19199
 H     5.27639    -2.82218     3.87009
 C     6.64704    -4.36527     6.48209
 C     7.41697    -3.06406     6.75200
 C     5.86099    -1.19039     7.22089
 C     4.74043    -1.63679     6.28772
 C     2.37337    -2.16106     6.54058
 C     8.16962    -6.36502     6.30248
 C     7.61794    -5.40878     8.50851
 C     7.13213    -6.48574     9.47536
 C     5.53729    -5.00063    10.69456
 C     4.40013    -7.21210     8.06156
 N     1.82114    -4.72438     6.52791
 O     3.05692    -6.29446     3.62268
 O     6.31716    -7.15061     4.97912
 O     2.33910    -6.19577     8.61705
 O     4.77258    -3.94323     8.65194
 H     4.16543    -4.07672     3.45027
 C     2.50212    -3.55767     7.16526
 C     7.70260    -6.70002     4.87646
 C     4.36116    -4.36911     9.95395
 C     2.89986    -7.20268     7.74795
 C     1.82212    -4.70571     5.03277
 C     0.55775    -5.11635     7.19525
 C     1.82134    -6.14604     4.46608
 C     4.07185    -7.29051     4.15023
 C     5.44610    -6.66578     3.89989
 C     0.91968    -5.97567     8.43283
Ba     3.25695     5.37863     7.43517
 N     0.33753     5.99345     6.79114
 O     1.08690     3.17064     7.64255
 O     4.52065     3.09002     6.62576
 O     1.29047     6.65228     3.80613
 O     3.55793     7.39737     5.86394
 O     3.57339     4.52187     9.94653
 H     2.65221     4.09359    10.04243
 C    -0.61325     5.03139     7.44355
 C    -0.22258     3.60127     7.05188
 C     2.13531     3.05578     6.56947
 C     3.35804     2.34890     7.15527
 C     5.37852     3.58588     7.71344
 C     0.98427     6.97733     7.73566
 C    -0.36833     6.70276     5.66245
 C     0.58827     7.49095     4.76326
 C     1.94575     5.53459     4.43653
 C     3.84940     8.54078     5.04674
 N     5.97871     6.04405     7.43164
 O     5.22415     8.66630     8.89324
 O     2.64371     6.74685     9.62211
 O     5.85723     7.42353     4.82622
 O     4.07134     4.83975     4.92159
 H     3.87961     5.01855    10.77890
 C     6.34139     4.61060     7.10154
 C     1.40086     6.27577     9.03846
 C     3.28246     5.22948     3.76051
 C     5.36013     8.76718     5.07906
 C     5.70573     6.20739     8.91069
 C     7.05599     6.97460     6.95668
 C     5.91845     7.58260     9.55070
 C     3.85894     8.45025     8.50804
 C     2.90887     8.17657     9.67369
 C     7.11570     7.06459     5.43050
Ba     7.55022     0.14279    13.52283
 N     4.62698     0.58742    12.92117
 O     5.47929    -2.08438    14.02110
 O     8.97306    -2.12051    13.23531
 O     5.82357     1.30294    10.05227
 O     8.07120     2.77327    13.46692
 O     9.76302     6.06509     2.94473
 H     9.24397     6.33339     3.73120
 C     3.71612    -0.41643    13.56913
 C     4.26217    -1.79860    13.20223
 C     6.62873    -2.45791    13.12862
 C     7.82419    -2.51784    14.06829
 C    10.04101    -1.52139    14.04396
 C     5.18044     1.64197    13.84062
 C     3.92700     1.18195    11.72571
 C     4.85654     2.02761    10.86056
 C     6.28907     0.06614    10.61634
 C     8.19436     2.56481    12.05438
 N    10.62629     1.01470    14.00020
 O     9.14246     2.31098    15.71655
 O     6.80648     1.62789    15.69623
 O    10.27478     1.95564    11.23532
 O     8.33344    -0.82166    11.14306
 H    10.13520     6.94297     2.48849
 C    10.44531    -0.27553    13.24813
 C     5.58086     1.05159    15.19900
 C     7.65336    -0.25066     9.99621
 C     9.49571     3.14406    11.50798
 C    11.03527     0.91016    15.44396
 C    11.63495     1.90943    13.32102
 C    10.52880     2.17687    16.15272
 C     8.29746     3.11990    16.59163
 C     6.93050     3.06098    15.90419
 C    11.60124     1.91385    11.79425
 O    -0.93716    -3.14429    -4.80606
 H    -0.63533    -3.04655    -5.76051
 H    -1.00664    -2.22737    -4.40022
 O     2.94649    -8.57934     1.26474
 H     3.45512    -8.13138     0.51011
 H     2.62417    -7.86597     1.86749
 O     2.40512     6.69116    -0.61687
 H     1.54396     7.14632    -0.51328
 H     2.46815     6.23746    -1.50193
 O     6.53080     1.44473     5.64233
 H     5.76037     2.04977     5.70170
 H     6.69488     1.17286     4.70767
 O    -3.23331    -5.82094     4.92983
 H    -3.52140    -5.09529     5.51340
 H    -2.68304    -6.49869     5.40711
 O     3.15206    -4.07448    -1.26387
 H     2.65642    -3.96291    -0.41692
 H     3.64897    -4.96265    -1.22003
 O     0.35132    -0.11613     7.75528
 H     0.68579    -0.56195     8.60250
 H     0.68719     0.82119     7.75579
 O     6.01292     1.23835     1.35441
 H     6.50016     0.73094     2.06534
 H     6.35327     2.17854     1.37156
 I     6.84715     3.93438     3.15999
 I     0.99865     2.49682     9.74788
 I    11.64735     7.00283     6.43947
 I     5.34047     5.37823    12.70172
 I     6.92051    -1.22801     3.62822
 I     1.13091    -2.25461    10.37011
 I     2.88519    -5.16138     1.81189
 I    -2.47152    -6.00111     8.65941
 H     2.37625     1.20802    -0.86343
 H     1.07888     1.49466     0.40211
 H     3.03129     3.33394    -0.15415
 H     3.81070     2.48266     1.31385
 H     1.94120     5.18142     0.80128
 H     0.75052     4.77360     2.17182
 H     0.29260     3.07420    -0.26681
 H     0.06134     4.89221    -0.56330
 H    -2.17407     3.24778    -0.67578
 H    -3.06112     3.67403     0.89949
 H     3.61364    -1.73903     0.62664
 H     1.81551    -1.69739     0.11544
 H     4.37546     0.22112     2.04434
 H     2.94263     1.14686     2.73476
 H     3.48137    -0.75072     4.16752
 H     3.18599    -1.96461     2.79405
 H     1.61776     0.65535     4.62395
 H     0.37682    -0.62022     5.07934
 H    -0.65359    -2.63248     3.12459
 H    -0.72257    -3.86183     1.72810
 H    -0.72775     1.63277     0.86072
 H    -2.15390     1.75515     2.04405
 H     3.69647    -1.86011    -1.74559
 H     3.74023    -0.02399    -1.60146
 H    -0.88702     1.17881     3.88033
 H    -0.64225    -0.19334     2.60773
 H    -1.47677    -1.35125     0.58120
 H    -2.73186    -2.68930     1.04508
 H    -1.33708     1.27807    -1.45541
 H    -3.18175     1.33747    -1.72368
 H    -4.25731    -0.48844    -0.01541
 H    -4.51318     1.10253     0.84864
 H    -2.97886    -0.78880    -2.69427
 H    -2.37985    -1.46080    -1.08950
 H    -0.05665    -1.75303    -0.74009
 H    -0.71039    -2.87703    -2.08269
 H     1.81613    -2.88449    -2.20182
 H     1.15672    -1.87916    -3.61039
 H    -3.70299     0.25357     2.93267
 H    -4.48408    -1.26133     2.13453
 H     6.47554    -4.52338     5.36036
 H     5.59092    -4.25419     6.95971
 H     7.55140    -2.47166     5.80910
 H     8.38910    -3.25459     7.27524
 H     6.53958    -0.45898     6.70933
 H     5.42560    -0.76650     8.15897
 H     4.78167    -2.74247     6.03903
 H     4.76690    -0.99904     5.37267
 H     2.32836    -2.20025     5.43058
 H     1.52262    -1.58055     6.97971
 H     9.13220    -5.78420     6.24577
 H     8.32933    -7.33226     6.85968
 H     8.74706    -5.38458     8.54768
 H     7.23684    -4.41562     8.86534
 H     7.85119    -6.58701    10.31799
 H     6.96724    -7.47783     8.96926
 H     6.43224    -4.35070    10.71309
 H     5.20320    -5.27510    11.72618
 H     4.81021    -6.12548     8.04987
 H     4.66029    -7.76819     8.98744
 H     3.62108    -3.87429     7.14841
 H     2.20234    -3.50290     8.26288
 H     8.25181    -7.58441     4.47680
 H     7.76049    -5.82252     4.18946
 H     3.92630    -3.49955    10.49930
 H     3.57440    -5.13612     9.70314
 H     2.79267    -6.82350     6.67798
 H     2.40646    -8.17727     7.92040
 H     2.84926    -4.24234     4.75914
 H     0.99319    -4.10584     4.58914
 H    -0.07110    -5.72316     6.49099
 H    -0.02168    -4.22555     7.54139
 H     0.98570    -6.31067     3.75620
 H     1.81838    -6.93766     5.24645
 H     3.93435    -7.43922     5.27353
 H     3.90292    -8.21748     3.57038
 H     5.90014    -6.97172     2.93299
 H     5.37557    -5.53428     4.06673
 H     0.69662    -5.44800     9.39207
 H     0.41915    -6.96011     8.34787
 H    -0.59996     5.11901     8.55402
 H    -1.67907     5.21024     7.10264
 H    -0.18972     3.48884     5.95184
 H    -0.93319     2.89196     7.52483
 H     2.44551     4.12079     6.29558
 H     1.70370     2.51072     5.71405
 H     3.50063     1.30347     6.80617
 H     3.32387     2.43892     8.27858
 H     5.91040     2.69732     8.13335
 H     4.64977     4.06819     8.45906
 H     1.95790     7.29094     7.18779
 H     0.34748     7.87488     7.94532
 H    -0.86274     5.91098     5.03043
 H    -1.16267     7.39846     6.04326
 H     1.35444     8.05408     5.34247
 H     0.00159     8.15908     4.08449
 H     1.23048     4.68703     4.38335
 H     2.20849     5.81520     5.53774
 H     3.27533     9.37659     5.53219
 H     3.48497     8.29584     4.02375
 H     7.39079     4.36714     7.41058
 H     6.23829     4.53348     5.97414
 H     1.69934     5.17248     8.78591
 H     0.63051     6.34626     9.84323
 H     3.75561     6.13565     3.32706
 H     3.24172     4.36660     3.05611
 H     5.70195     9.41363     4.23539
 H     5.68944     9.12294     6.07592
 H     6.28022     5.46370     9.52847
 H     4.55752     5.98819     8.98672
 H     8.07015     6.67807     7.34377
 H     6.79915     7.99835     7.35066
 H     6.97697     7.94009     9.48153
 H     5.55033     7.53993    10.60939
 H     3.62224     9.40596     7.97483
 H     3.83916     7.54449     7.78554
 H     3.41772     8.29115    10.67063
 H     1.95674     8.74786     9.62234
 H     7.88498     7.80733     5.12353
 H     7.27353     6.06676     4.93823
 H     3.69642    -0.31875    14.68229
 H     2.65385    -0.32191    13.20007
 H     4.51006    -1.85614    12.12546
 H     3.56004    -2.59632    13.50224
 H     6.80917    -1.61058    12.38292
 H     6.38926    -3.42964    12.66808
 H     8.04784    -3.51749    14.49687
 H     7.65984    -1.68009    14.85432
 H    10.83255    -2.30096    14.10505
 H     9.59906    -1.26362    15.04840
 H     6.18261     1.96414    13.35011
 H     4.50814     2.52722    13.95759
 H     3.53314     0.32453    11.10867
 H     3.04605     1.81170    12.03679
 H     5.43711     2.76374    11.46616
 H     4.26716     2.54524    10.06271
 H     5.52748    -0.71225    10.39949
 H     6.44729     0.19940    11.75926
 H     7.30085     3.10049    11.64636
 H     8.17524     1.41985    11.89427
 H    11.33487    -0.54103    12.62293
 H     9.53963    -0.01443    12.54490
 H     5.96754    -0.05215    15.05746
 H     4.79759     1.15564    15.98584
 H     8.19869     0.67770     9.70833
 H     7.62346    -1.01712     9.18604
 H     9.36215     3.65274    10.52289
 H     9.98260     3.80913    12.25078
 H    12.15044     0.81683    15.58405
 H    10.54712     0.02875    15.93627
 H    12.69283     1.64034    13.61408
 H    11.41634     2.94568    13.69542
 H    11.04489     3.10390    15.82280
 H    10.53467     2.01635    17.26474
 H     8.28510     2.62430    17.59029
 H     8.70863     4.14698    16.62611
 H     6.10072     3.42714    16.54424
 H     6.93542     3.54466    14.88796
 H    12.18864     2.78873    11.40749
 H    11.96249     0.95668    11.35412
 H     4.33502     6.67568     5.78461
 H     4.84463     4.25601     4.66064
 H     0.86588    -1.46855     1.92028
 H     0.90666     2.21746     2.61515
 H     5.87120    -7.52321     6.71766
 H     5.40453    -3.16480     8.67785
 H     8.86910     2.33931    13.98547
 H     9.16710    -1.33056    10.87410
