  208
 
Fe     0.00000     0.00000     0.00000
Cl     7.09062    -0.70597    -0.07053
Cl     8.14393     2.71462    -0.53586
Cl     8.56565    -0.09397    -3.44741
Cl     5.24292     1.94293    -2.47171
Fe     7.18516     0.79726    -1.79778
Cl     0.31801     1.13981    -1.31969
Cl    -1.27634    -1.41818    -1.76343
Cl    -1.68711     1.08437     1.06111
Cl     2.07031    -0.60696     0.40262
Fe     4.80605     4.56621     1.98967
Cl    -0.45487     5.82521    -2.34191
 O     5.64852     4.36417     0.28121
 O     6.61467     4.31979     2.59228
 C     7.28293     3.03225     2.84432
 C     6.21007     1.99319     2.53328
 O     5.48984     2.53697     1.38189
 C     4.21372     1.84254     1.18138
 C     3.31780     2.71583     0.30977
 O     3.15194     4.04775     0.93339
 C     1.76746     4.50134     0.99689
 C     1.91793     5.94737     1.46651
 O     3.20059     5.93846     2.15977
 C     3.60389     7.25780     2.70678
 C     4.12585     6.87502     4.08403
 O     5.05924     5.78277     3.80261
 C     6.45174     6.09128     4.16157
 C     7.30373     5.54001     3.02793
Fe     3.35628    -2.85678    -3.47043
Cl     4.82684    -2.74528    -6.07470
 O     1.78363    -3.21840    -2.75628
 O     0.18220    -2.94917    -4.59301
 C     0.26526    -1.54837    -4.93004
 C     1.64780    -0.88823    -4.86479
 O     2.18930    -1.18185    -3.54567
 C     3.30701    -0.33483    -3.08880
 C     4.32414    -1.27113    -2.43469
 O     5.13012    -1.81260    -3.59355
 C     6.40610    -2.39369    -3.24782
 C     6.18138    -3.89594    -3.01029
 O     4.92220    -4.12298    -3.69760
 C     4.15432    -5.30567    -3.27513
 C     3.58088    -5.92056    -4.55303
 O     2.21305    -5.51335    -4.83095
 C     2.12092    -4.17685    -5.46296
 C     0.62683    -3.89818    -5.59415
 O     6.84766     2.66657    -5.62798
 O    -2.38477     1.47325    -2.51388
 O     6.55124    -0.36414    -5.88505
 O    -2.33457     3.88673    -3.26720
 H     6.00776     4.09519    -0.53494
 H     5.64160     5.83743     0.24130
 H     7.60053     2.98669     3.91530
 H     8.15314     3.00354     2.15530
 H     5.50002     1.85102     3.38635
 H     6.66098     1.01558     2.19810
 H     3.73181     1.63714     2.16896
 H     4.49402     0.89691     0.64034
 H     2.30502     2.22875     0.24425
 H     3.74938     2.93967    -0.69562
 H     1.21979     3.84772     1.71931
 H     1.32104     4.45032    -0.03973
 H     1.12820     6.25601     2.19291
 H     1.99228     6.66645     0.61169
 H     2.73769     7.94385     2.76085
 H     4.40825     7.59517     2.01336
 H     3.33991     6.41871     4.74483
 H     4.60350     7.73626     4.60244
 H     6.63411     5.56836     5.13153
 H     6.61878     7.20388     4.26611
 H     8.35120     5.30531     3.35801
 H     7.29142     6.18536     2.09328
 H     1.45582    -5.50486    -3.52321
 H     0.92309    -3.24291    -2.44472
 H    -0.38638    -1.12112    -4.12878
 H    -0.15291    -1.37924    -5.95132
 H     1.52538     0.22130    -4.95495
 H     2.36683    -1.27873    -5.62242
 H     2.83960     0.33401    -2.32409
 H     3.73310     0.23136    -3.95267
 H     3.81495    -2.24936    -2.00473
 H     5.00561    -0.74724    -1.73133
 H     6.85739    -1.89869    -2.36177
 H     7.02075    -2.22182    -4.17563
 H     6.09634    -4.15860    -1.93067
 H     6.94923    -4.52536    -3.53189
 H     3.36705    -4.88901    -2.55427
 H     4.85273    -6.03363    -2.77217
 H     3.43752    -7.02657    -4.43539
 H     4.21509    -5.67473    -5.43514
 H     2.59391    -4.30656    -6.46551
 H     2.64742    -3.39989    -4.81522
 H     0.00916    -4.81821    -5.34317
 H     0.36069    -3.54406    -6.61048
 H     7.03858     1.72708    -5.39999
 H     5.98326     2.69722    -6.09773
 H    -1.75151     0.99885    -3.11053
 H    -2.35423     1.10019    -1.60817
 H    -1.93924     3.19345    -2.63578
 H     6.06588    -0.44499    -5.01412
 H     7.64329    -1.54804    -6.15079
 H     5.85365    -0.24794    -6.59320
 H    -3.33930     4.66343    -2.50175
 H    -2.82394     3.36410    -3.97612
Fe     3.48791    -1.95540     5.58646
Cl    10.42073    -3.11111     6.27188
Cl    11.38776     0.45701     5.08689
Cl    12.14130    -2.29095     2.86944
Cl     8.66938     0.15102     3.57016
Fe    10.28528    -1.58384     4.35007
Cl     3.94524     0.01656     4.40818
Cl     2.08489    -3.23315     4.14013
Cl     1.83461    -1.13184     7.10441
Cl     5.15860    -2.84080     7.07931
Fe     7.99122     2.36676     8.46761
Cl     2.98482     3.87226     3.81973
 O     9.27230     2.08656     6.50473
 O     9.83639     1.89881     8.96481
 C    10.75049     0.77226     8.83746
 C     9.76559    -0.38400     8.61938
 O     8.73960     0.26239     7.79951
 C     7.42096    -0.35719     7.84568
 C     6.62976     0.31741     6.72515
 O     6.43972     1.72182     7.07634
 C     5.05706     2.17581     7.14957
 C     5.23792     3.64411     7.55420
 O     6.45080     3.60488     8.36149
 C     7.06226     4.88931     8.72664
 C     7.48308     4.73629    10.18504
 O     8.40226     3.61661    10.29730
 C     9.81916     3.93233    10.20993
 C    10.36658     3.26715     8.95042
Fe     6.77554    -4.81720     2.74524
Cl     8.40510    -4.58254     0.07847
 O     5.17555    -5.21703     3.37087
 O     3.68614    -4.73304     1.55386
 C     3.79126    -3.34654     1.17538
 C     5.18074    -2.72575     1.36143
 O     5.64106    -3.11343     2.68767
 C     6.78110    -2.29324     3.17310
 C     7.78092    -3.25614     3.81574
 O     8.54990    -3.82950     2.64053
 C     9.83080    -4.42913     2.97109
 C     9.57243    -5.92222     3.22005
 O     8.32145    -6.10701     2.50371
 C     7.59745    -7.35923     2.75534
 C     7.05276    -7.82100     1.39587
 O     5.72706    -7.33612     1.09346
 C     5.63772    -5.96040     0.60173
 C     4.12344    -5.71868     0.57822
 O    10.08868     0.76439     0.42033
 O     1.15323    -0.36329     3.54498
 O    10.18644    -2.19288     0.63099
 O     1.15856     1.97357     2.84451
 H     9.23706     1.20520     6.02745
 H     9.36344     2.80557     5.84347
 H    11.33343     0.68318     9.78694
 H    11.40699     0.93926     7.94931
 H     9.32386    -0.76386     9.56583
 H    10.21945    -1.21036     8.01222
 H     6.97775    -0.15512     8.85064
 H     7.53539    -1.44924     7.63954
 H     5.63965    -0.18787     6.58479
 H     7.20271     0.36325     5.76459
 H     4.52329     1.57935     7.92803
 H     4.58754     2.07647     6.13993
 H     4.41171     4.01363     8.21119
 H     5.40957     4.31341     6.68015
 H     6.32913     5.71545     8.59098
 H     7.95098     4.98737     8.03333
 H     6.63831     4.41975    10.85570
 H     7.94624     5.67979    10.56376
 H    10.23380     3.47720    11.14033
 H    10.00218     5.04058    10.18151
 H    11.48279     3.23770     8.92699
 H     9.93182     3.71902     8.00109
 H     4.82313    -7.18844     2.66913
 H     4.30109    -5.27482     3.62545
 H     3.08865    -2.88448     1.91165
 H     3.45440    -3.19459     0.12592
 H     5.07318    -1.60931     1.35201
 H     5.92195    -3.08505     0.62742
 H     6.30733    -1.62675     3.93481
 H     7.22575    -1.72221     2.33007
 H     7.25508    -4.23600     4.24382
 H     8.47627    -2.74954     4.52647
 H    10.30419    -3.91986     3.86136
 H    10.43123    -4.26852     2.03862
 H     9.43805    -6.17469     4.31041
 H    10.33816    -6.57618     2.73273
 H     6.79927    -7.08733     3.49929
 H     8.31578    -8.11872     3.15814
 H     6.82474    -8.92204     1.43412
 H     7.77608    -7.55216     0.59752
 H     6.07384    -5.96754    -0.42165
 H     6.18995    -5.24540     1.31827
 H     3.57494    -6.63267     0.94682
 H     3.75534    -5.44033    -0.42579
 H    10.50657    -0.10540     0.55450
 H     9.33272     0.84107     1.01512
 H     1.85316    -0.81941     2.99962
 H     1.27277    -0.63776     4.49283
 H     1.72033     1.42937     3.50659
 H    10.04157    -2.17418     1.63769
 H    11.16083    -3.50305     0.18679
 H     9.29409    -2.17480     0.20415
 H     0.14040     2.69137     3.66544
 H     0.66612     1.29245     2.26341
