   28
 
 K     0.00000     0.00000     0.00000
 K     1.22559    -2.08327    -3.14962
 S     3.01571    -4.91578    -3.19414
 O     1.51835    -4.83485    -3.18224
 O     3.65858    -3.55191    -3.21617
 O     3.47543    -5.64719    -4.42134
 O     3.48647    -5.61074    -1.94717
 K    -1.17908     4.82478    -3.17877
 K    -3.77791    -3.34818    -0.02524
 K     2.55952     1.46993    -3.17469
 K     1.34276     3.55247    -0.02872
 K    -2.42784     2.73550    -0.01586
 K    -2.54433    -1.26129    -3.18420
 S    -0.46088    -3.25272     0.01491
 S    -0.75752     1.56709    -3.21172
 O     1.03612    -3.33133     0.00614
 O    -1.10265    -4.61754     0.04527
 O    -0.11968     0.20163    -3.23667
 O    -0.93352    -2.56593    -1.23639
 O     2.84752    -0.78192    -1.21591
 O    -0.29234     2.25177    -1.95578
 O    -0.27431     2.30709    -4.42785
 O     2.84090    -0.83569     1.25709
 O    -0.92593    -2.51294     1.23522
 S     3.31842    -0.09749     0.03799
 O     2.68192     1.26861     0.06475
 O     4.81528    -0.02583     0.03788
 O    -2.25446     1.49374    -3.21909
