  128
 
 C     0.00000     0.00000     0.00000
 H     0.53448     0.42161     0.90913
 H    -0.53803     0.61899    -1.94250
 H     0.81021     1.48667    -1.29365
 N    -0.14357     1.07559    -1.06602
 C     0.77696    -1.19494    -0.53521
 H    -3.89571    -0.13774    -0.27636
 H     0.71308    -2.05325     0.20057
 O     2.91261    -0.81584     0.42476
 C     2.23386    -0.88926    -0.74015
 H     0.35971    -1.55941    -1.52551
 O     2.82738    -0.74594    -1.79865
 C    -1.44381    -0.38556     0.41526
 O    -2.29339    -0.41252    -0.51240
 O    -1.68178    -0.60130     1.61733
 H    -0.80769     1.84787    -0.71318
 C    -2.54393     2.81057     1.04051
 C    -3.93687     3.37200     1.42708
 C    -4.87632     2.27535     1.90752
 C    -6.27769     2.78677     2.10063
 H    -0.13127     2.68474     1.65828
 H    -4.91036     1.43446     1.15090
 H    -4.53113     1.83806     2.89460
 H    -3.34156     3.87149     3.39838
 H    -2.99450     5.11905     2.20861
 H    -4.63135     4.84535     2.78667
 H    -4.38330     3.88586     0.51820
 N    -3.70889     4.38617     2.53803
 O    -1.73717     2.62300     1.98893
 O    -2.28339     2.61288    -0.16095
 O    -6.81546     3.08892     3.15608
 O     0.87053     2.36814     1.55871
 C    -1.41920     0.11798     4.97415
 H    -0.90214     0.57902     5.87382
 H    -1.99345     0.66694     3.01603
 H    -0.63306     1.54696     3.61316
 N    -1.58148     1.15272     3.87071
 C    -0.60821    -1.07193     4.48360
 H    -5.27418    -0.01520     4.73556
 H    -0.66036    -1.91102     5.24305
 O     1.53524    -0.70860     5.44137
 C     0.84212    -0.73172     4.28340
 H    -1.00532    -1.47241     3.50001
 O     1.41989    -0.52107     3.22733
 C    -2.85986    -0.27729     5.38512
 O    -3.69488    -0.37106     4.44749
 O    -3.12593    -0.42140     6.59173
 H    -2.23823     1.93805     4.20705
 C    -3.95223     2.91459     6.02529
 C    -5.35546     3.46268     6.40169
 C    -6.26647     2.35964     6.92345
 C    -7.68138     2.83261     7.11180
 H    -1.51584     2.77423     6.65912
 H    -6.28400     1.49529     6.19432
 H    -5.90409     1.96347     7.92237
 H    -4.80515     4.03933     8.36090
 H    -4.43073     5.24164     7.13393
 H    -6.07968     4.99562     7.68739
 H    -5.81564     3.93499     5.47712
 N    -5.15243     4.52125     7.47471
 O    -3.12688     2.80163     6.96894
 O    -3.71849     2.64716     4.83175
 O    -8.25116     3.04895     8.17148
 O    -0.50632     2.48118     6.56043
 C     0.22051     6.24373    -0.06118
 H     0.75072     6.68443     0.83974
 H    -0.31695     6.83870    -2.01477
 H     1.01603     7.73111    -1.36755
 N     0.06869     7.30549    -1.13957
 C     0.99730     5.03713    -0.57274
 H    -3.67404     6.04886    -0.28921
 H     0.90539     4.19101     0.17270
 O     3.13233     5.37634     0.41159
 C     2.46448     5.30968    -0.75975
 H     0.59384     4.67217    -1.56832
 O     3.07293     5.42284    -1.81266
 C    -1.22199     5.85103     0.35770
 O    -2.07154     5.81727    -0.56949
 O    -1.45737     5.62892     1.55913
 H    -0.60789     8.07006    -0.79717
 C    -2.33596     9.00973     0.98704
 C    -3.71627     9.58333     1.39677
 C    -4.66959     8.49812     1.87418
 C    -6.06462     9.02319     2.06351
 H     0.09374     8.95769     1.61073
 H    -4.70961     7.65732     1.11610
 H    -4.33294     8.05332     2.86150
 H    -3.09648    10.04756     3.36638
 H    -2.70386    11.28678     2.18577
 H    -4.34953    11.07606     2.76792
 H    -4.16502    10.11370     0.49890
 N    -3.44876    10.58174     2.51329
 O    -1.50926     8.85084     1.92379
 O    -2.10186     8.78293    -0.21373
 O    -6.60735     9.32017     3.11791
 O     1.09037     8.62082     1.51828
 C    -1.19351     6.35606     4.91476
 H    -0.67522     6.82994     5.80575
 H    -1.76612     6.88967     2.94918
 H    -0.41806     7.78956     3.54911
 N    -1.36204     7.38180     3.80416
 C    -0.38832     5.15489     4.43809
 H    -5.05470     6.15632     4.72243
 H    -0.46837     4.32217     5.20102
 O     1.75289     5.46929     5.42458
 C     1.07345     5.46057     4.25816
 H    -0.77527     4.76205     3.44820
 O     1.66931     5.64911     3.20893
 C    -2.63148     5.95639     5.33532
 O    -3.47038     5.85858     4.40243
 O    -2.88966     5.80158     6.54286
 H    -2.02889     8.16001     4.13206
 C    -3.74723     9.11876     5.97022
 C    -5.13900     9.67985     6.36557
 C    -6.06981     8.58582     6.86783
 C    -7.47928     9.07453     7.05308
 H    -1.30513     9.04373     6.59300
 H    -6.09236     7.73060     6.12681
 H    -5.72201     8.16941     7.86469
 H    -4.56283    10.20390     8.33004
 H    -4.14535    11.40931     7.12300
 H    -5.80213    11.21942     7.67778
 H    -5.59444    10.17908     5.45357
 N    -4.89600    10.71350     7.45539
 O    -2.90809     9.03226     6.90582
 O    -3.52937     8.82584     4.78114
 O    -8.05074     9.29689     8.11070
 O    -0.30136     8.72545     6.50039
