  128
 
 C     0.00000     0.00000     0.00000
 H     0.44536     0.36634     0.96469
 H    -0.03154     0.64303    -2.01013
 H     1.28425     1.25315    -1.13437
 N     0.26262     1.01658    -1.07975
 C     0.57723    -1.35469    -0.37058
 H    -3.69070    -0.41741    -0.66131
 H     0.38882    -2.07476     0.47327
 O     2.79306    -0.75266     0.24242
 C     2.04314    -1.33807    -0.67239
 H     0.03856    -1.80816    -1.24490
 O     2.52983    -1.86089    -1.66086
 C    -1.53228    -0.15531     0.16407
 O    -2.20515    -0.30546    -0.87891
 O    -1.99813    -0.11504     1.31010
 H    -0.26079     1.90812    -0.88912
 C    -1.91752     2.98386     0.90164
 C    -3.43786     3.21736     1.08618
 C    -4.07725     1.90414     1.49872
 C    -5.54904     1.97462     1.75535
 H     0.23195     2.62564     1.73488
 H    -3.89346     1.13569     0.69639
 H    -3.58012     1.47104     2.40794
 H    -3.29593     3.89236     3.07714
 H    -3.08934     5.13732     1.92641
 H    -4.63286     4.51830     2.26483
 H    -3.88559     3.58870     0.12543
 N    -3.62101     4.26171     2.15493
 O    -1.24569     2.79935     1.94011
 O    -1.45941     3.00487    -0.24782
 O    -6.08122     1.41814     2.70194
 O     1.26100     2.44170     1.48120
 C    -1.49825     0.03570     4.88487
 H    -1.04120     0.40703     5.84193
 H    -1.59163     0.68695     2.88067
 H    -0.22169     1.24388     3.69700
 N    -1.24975     1.04825     3.80009
 C    -0.92312    -1.31913     4.51117
 H    -5.19111    -0.36985     4.22528
 H    -1.12927    -2.04511     5.34632
 O     1.28731    -0.68974     5.12413
 C     0.54724    -1.31784     4.23112
 H    -1.45030    -1.76539     3.62595
 O     1.04164    -1.90270     3.28179
 C    -3.02914    -0.12066     5.05877
 O    -3.70345    -0.27667     4.01758
 O    -3.49270    -0.07659     6.20572
 H    -1.72988     1.95722     4.01214
 C    -3.41925     3.01456     5.80392
 C    -4.94058     3.24582     5.98391
 C    -5.58697     1.94330     6.41900
 C    -7.05376     2.04699     6.69474
 H    -1.27099     2.67991     6.65005
 H    -5.42521     1.16388     5.62480
 H    -5.08608     1.51322     7.32753
 H    -4.83836     3.94298     7.97085
 H    -4.56692     5.16698     6.81190
 H    -6.13494     4.59438     7.10699
 H    -5.38478     3.60123     5.01517
 N    -5.12944     4.30845     7.03581
 O    -2.74800     2.84773     6.84607
 O    -2.95986     3.02668     4.65529
 O    -7.57872     1.55805     7.68159
 O    -0.24436     2.47850     6.39652
 C     0.17794     6.27848    -0.03067
 H     0.63259     6.63304     0.93388
 H     0.12627     6.93948    -2.03346
 H     1.45313     7.53546    -1.17341
 N     0.43176     7.30779    -1.10459
 C     0.75413     4.93043    -0.42522
 H    -3.52434     5.88956    -0.67188
 H     0.54361     4.17959     0.38616
 O     2.95765     5.55385     0.22387
 C     2.22564     4.95032    -0.69395
 H     0.23467     4.50842    -1.32728
 O     2.72982     4.41633    -1.66731
 C    -1.35331     6.12469     0.14279
 O    -2.03439     5.99427    -0.89726
 O    -1.81228     6.15098     1.29205
 H    -0.08554     8.19786    -0.90073
 C    -1.75113     9.27871     0.89081
 C    -3.27288     9.51186     1.07188
 C    -3.90913     8.19482     1.47644
 C    -5.38614     8.24198     1.70511
 H     0.40298     8.93023     1.71677
 H    -3.70233     7.42522     0.68044
 H    -3.42418     7.77154     2.39746
 H    -3.14820    10.17923     3.06690
 H    -2.92125    11.42492     1.92254
 H    -4.47360    10.81593     2.24020
 H    -3.71729     9.88758     0.11138
 N    -3.46232    10.55478     2.14276
 O    -1.07841     9.10347     1.92996
 O    -1.29499     9.28772    -0.25953
 O    -5.93234     7.62529     2.60527
 O     1.43274     8.75953     1.46145
 C    -1.31912     6.31511     4.85533
 H    -0.85391     6.67724     5.81089
 H    -1.41682     6.96589     2.85382
 H    -0.06268     7.54736     3.66722
 N    -1.08492     7.33752     3.77396
 C    -0.74896     4.96426     4.46137
 H    -5.02321     5.90536     4.21646
 H    -0.97718     4.21367     5.26926
 O     1.45555     5.59132     5.10691
 C     0.72559     4.95404     4.21042
 H    -1.26186     4.55034     3.55177
 O     1.23091     4.34896     3.27992
 C    -2.84935     6.15952     5.03654
 O    -3.52936     6.01814     3.99759
 O    -3.30701     6.19517     6.18615
 H    -1.58227     8.23474     3.98389
 C    -3.25142     9.31319     5.78515
 C    -4.77354     9.54442     5.96165
 C    -5.41530     8.23342     6.37954
 C    -6.88480     8.32280     6.64704
 H    -1.10397     8.96372     6.61387
 H    -5.24090     7.45911     5.58259
 H    -4.91611     7.80215     7.28899
 H    -4.67890    10.22424     7.95439
 H    -4.42227    11.46451     6.80705
 H    -5.98401    10.86567     7.09620
 H    -5.21276     9.90768     4.99362
 N    -4.97338    10.59768     7.02303
 O    -2.57796     9.14959     6.82592
 O    -2.79657     9.31440     4.63459
 O    -7.41147     7.81658     7.62386
 O    -0.07691     8.76535     6.35660
