  168
 
 O     0.00000     0.00000     0.00000
 H    -0.40472    -1.36906    -1.89859
 O    -2.25511     1.28565    -3.19025
 O    -3.99406     0.04662    -2.49105
 C    -1.57504     1.52684    -0.89641
 C    -2.28902     1.98811    -2.00506
 C    -2.97725     3.19866    -1.99322
 H    -3.50710     3.53582    -2.88395
 C    -2.95740     3.96334    -0.83118
 H    -3.49167     4.91782    -0.79613
 C    -2.25857     3.52073     0.29431
 H    -2.25903     4.12627     1.20565
 C    -1.56570     2.31789     0.26260
 H    -1.00721     1.97571     1.14266
 C    -0.79532     0.29117    -0.88369
 C    -3.14207     0.24742    -3.32000
 C    -2.89614    -0.46245    -4.59059
 H    -3.49563    -1.38835    -4.65919
 H    -1.83291    -0.74356    -4.70855
 H    -3.14874     0.16300    -5.46836
 O    -0.99818    -0.52665    -1.91366
 O     3.56282    -3.72736    -4.91817
 H     2.97072    -4.57184    -4.90854
 O     2.53951    -3.24489    -6.82870
 O     4.79339    -1.86968    -3.67625
 O     6.55906    -3.08451    -4.35280
 C     4.10277    -1.68136    -5.97229
 C     4.81603    -1.19050    -4.87565
 C     5.49376     0.02570    -4.91454
 H     6.02701     0.38318    -4.03339
 C     5.46631     0.76529    -6.09249
 H     5.99607     1.72201    -6.14916
 C     4.76882     0.29216    -7.20606
 H     4.76717     0.87429    -8.13263
 C     4.08495    -0.91497    -7.14765
 H     3.52922    -1.27885    -8.02074
 C     3.33788    -2.92661    -5.95680
 C     5.71016    -2.87885    -3.52162
 C     5.49692    -3.55972    -2.22933
 H     6.23179    -4.37144    -2.07412
 H     4.48600    -4.00459    -2.16583
 H     5.58221    -2.86553    -1.37113
 O     1.62972     4.11107    -0.02340
 H     1.05488     4.96726    -0.03589
 O     0.51384     3.54617    -1.85724
 O     2.79313     2.25203     1.28521
 O     4.63278     3.37554     0.64990
 C     2.11947     2.01968    -1.00921
 C     2.82840     1.54997     0.09891
 C     3.51183     0.33621     0.08336
 H     4.03786    -0.00838     0.97411
 C     3.49902    -0.41903    -1.08448
 H     4.03206    -1.37442    -1.12396
 C     2.80826     0.03391    -2.21073
 H     2.81922    -0.56288    -3.12770
 C     2.11253     1.23548    -2.17280
 H     1.55857     1.58199    -3.05384
 C     1.35400     3.26539    -1.01262
 C     3.76017     3.20851     1.46528
 C     3.56248     3.89138     2.75943
 H     4.14062     4.83275     2.80722
 H     2.50264     4.13818     2.95443
 H     3.89270     3.26232     3.60916
 O    -2.96963     1.04186     3.08669
 H    -2.37478     1.88497     3.07626
 O    -1.97944     0.57031     5.02046
 O    -4.18162    -0.81763     1.83531
 O    -5.95646     0.38943     2.50023
 C    -3.51541    -0.99949     4.14105
 C    -4.21100    -1.49463     3.03604
 C    -4.88049    -2.71568     3.06895
 H    -5.39682    -3.07891     2.18017
 C    -4.86412    -3.45159     4.24935
 H    -5.38618    -4.41260     4.30063
 C    -4.18471    -2.97214     5.37216
 H    -4.18929    -3.55319     6.29929
 C    -3.50594    -1.76222     5.31902
 H    -2.96152    -1.39131     6.19674
 C    -2.75910     0.24952     4.13305
 C    -5.11711     0.17096     1.66260
 C    -4.93442     0.81078     0.34515
 H    -5.59204     1.69325     0.23441
 H    -3.89289     1.14518     0.18390
 H    -5.16630     0.11716    -0.48649
 O     0.08036     6.28914    -0.06970
 H    -0.45243     4.87234    -1.89804
 O    -2.21570     7.58310    -3.20873
 O    -3.97509     6.36710    -2.52288
 C    -1.52829     7.81433    -0.91694
 C    -2.24933     8.28004    -2.01939
 C    -2.94212     9.48821    -1.99639
 H    -3.47959     9.82964    -2.88146
 C    -2.92164    10.24535    -0.82959
 H    -3.46304    11.19593    -0.78473
 C    -2.21502     9.79842     0.28890
 H    -2.21638    10.39636     1.20532
 C    -1.51651     8.59871     0.24636
 H    -0.95393     8.25542     1.12304
 C    -0.75689     6.57193    -0.91646
 C    -3.12219     6.56256    -3.35207
 C    -2.90311     5.86359    -4.63368
 H    -3.49818     4.93338    -4.69063
 H    -1.84274     5.59245    -4.78996
 H    -3.19187     6.49091    -5.49918
 O    -1.02642     5.73011    -1.91104
 O     3.57061     2.52980    -4.99619
 H     2.96690     1.69218    -4.99056
 O     2.57632     3.02039    -6.92197
 O     4.79610     4.36091    -3.73374
 O     6.55219     3.14013    -4.41921
 C     4.14660     4.56413    -6.04277
 C     4.83858     5.04806    -4.92929
 C     5.52298     6.26067    -4.95119
 H     6.03776     6.61477    -4.05751
 C     5.52790     6.99980    -6.13005
 H     6.06313     7.95399    -6.17427
 C     4.85660     6.52950    -7.26077
 H     4.87878     7.11043    -8.18747
 C     4.16346     5.32705    -7.21965
 H     3.62891     4.96373    -8.10580
 C     3.36790     3.32827    -6.04044
 C     5.69745     3.33562    -3.59103
 C     5.46644     2.62600    -2.31833
 H     6.17701     1.78809    -2.19068
 H     4.44272     2.21037    -2.26414
 H     5.57514     3.29117    -1.44033
 O     1.60339    10.36549    -0.01525
 H     1.01109    11.20944    -0.03056
 O     0.62538     9.85206    -1.94282
 O     2.83896     8.56223     1.27766
 O     4.60457     9.77280     0.59602
 C     2.17596     8.31011    -1.02329
 C     2.87741     7.85359     0.09534
 C     3.55582     6.63674     0.09925
 H     4.07370     6.30275     0.99875
 C     3.54150     5.86252    -1.05631
 H     4.06632     4.90196    -1.07604
 C     2.85921     6.30314    -2.19309
 H     2.86548     5.69125    -3.10019
 C     2.17405     7.51114    -2.17710
 H     1.62739     7.85083    -3.06550
 C     1.40526     9.55184    -1.04850
 C     3.75341     9.57309     1.42645
 C     3.54345    10.25480     2.71861
 H     4.15029    11.17607     2.78997
 H     2.48617    10.53582     2.87883
 H     3.82244     9.60744     3.57277
 O    -2.97515     7.26692     3.09672
 H    -2.38267     8.11135     3.08790
 O    -1.95932     6.78736     5.01188
 O    -4.16782     5.41619     1.83335
 O    -5.94718     6.61275     2.50576
 C    -3.51420     5.21901     4.14098
 C    -4.20161     4.72675     3.02809
 C    -4.86781     3.50376     3.04869
 H    -5.37315     3.14003     2.15284
 C    -4.86483     2.76355     4.22669
 H    -5.38622     1.80109     4.26868
 C    -4.20057     3.24245     5.35824
 H    -4.21916     2.65976     6.28435
 C    -3.52169     4.45330     5.31676
 H    -2.99066     4.82217     6.20248
 C    -2.75229     6.46621     4.13633
 C    -5.08514     6.42584     1.68336
 C    -4.85880     7.13390     0.40811
 H    -5.57373     7.96710     0.27646
 H    -3.83722     7.55476     0.35114
 H    -4.96467     6.46482    -0.46739
