  204
 
 O     0.00000     0.00000     0.00000
 N     2.26620     0.00000     0.00000
 N     1.08240     1.99268     0.00000
 H     0.22750     2.39432    -0.02895
 H     1.81717     2.39466    -0.11664
 C     2.06054    -2.25590     0.92026
 H     1.91753    -1.88106     1.78011
 C     2.04821    -3.63230     0.74996
 H     1.89886    -4.20243     1.49513
 C     2.25025    -4.17435    -0.50786
 H     2.22421    -5.11554    -0.62839
 C     2.49320    -3.34585    -1.58911
 H     2.62696    -3.72912    -2.44798
 C     2.54483    -1.94686    -1.43960
 C     2.28657    -1.43028    -0.16822
 C     2.91521    -1.12342    -2.59160
 H     2.63622    -1.43587    -3.44378
 C     3.60786     0.02602    -2.57221
 H     3.77618     0.42717    -3.41666
 C     5.31778     1.48322    -1.51738
 H     5.74522     1.55188    -2.36402
 C     5.86978     2.11781    -0.42573
 H     6.67072     2.61764    -0.52626
 C     5.26239     2.03250     0.82001
 H     5.65265     2.46170     1.57180
 C     4.08290     1.31748     0.96292
 H     3.66078     1.25550     1.81129
 C     3.52061     0.69010    -0.14445
 C     4.13289     0.73359    -1.40102
 C     1.06507     0.65130    -0.01343
 O    -8.21169    -1.00648    -1.82881
 N   -10.47877    -1.00678    -1.82843
 N    -9.29497    -2.99945    -1.82843
 H    -8.43993    -3.40201    -1.79987
 H   -10.02974    -3.40144    -1.71179
 C   -10.27312     1.24912    -2.74869
 H   -10.12968     0.87487    -3.60976
 C   -10.25990     2.62582    -2.57877
 H   -10.11143     3.19566    -3.32356
 C   -10.46283     3.16757    -1.32057
 H   -10.43678     4.10877    -1.20005
 C   -10.70536     2.33965    -0.24054
 H   -10.83939     2.72144     0.61916
 C   -10.75786     0.94037    -0.38967
 C   -10.49812     0.42289    -1.66097
 C   -11.12824     0.11693     0.76233
 H   -10.84925     0.42937     1.61451
 C   -11.82001    -1.03222     0.74256
 H   -11.98907    -1.43458     1.58700
 C   -13.52947    -2.48970    -0.31143
 H   -13.95692    -2.55836     0.53521
 C   -14.08133    -3.12520    -1.40346
 H   -14.88315    -3.62532    -1.30256
 C   -13.47454    -3.03870    -2.64967
 H   -13.86522    -3.46848    -3.40023
 C   -12.29548    -2.32426    -2.79135
 H   -11.87248    -2.26198    -3.64010
 C   -11.73318    -1.69688    -1.68399
 C   -12.34505    -1.73978    -0.42864
 C    -9.27750    -1.65899    -1.81539
 H    -1.46916     0.62444    -0.17384
 O    -2.39095     0.83563    -0.40514
 O    -1.64872     2.94399    -0.34792
 O    -3.63282     4.83248    -0.17129
 O    -2.52229     5.35792    -2.07386
 C    -3.94727     2.52543    -0.88313
 C    -4.41914     3.83939    -0.75981
 C    -5.73942     4.15603    -1.01963
 H    -6.04096     5.05268    -0.92526
 C    -6.62514     3.16251    -1.42041
 H    -7.53413     3.38036    -1.58997
 C    -6.18636     1.85484    -1.57350
 H    -6.79095     1.17606    -1.85202
 C    -4.85492     1.54632    -1.31581
 H    -4.55380     0.65341    -1.43479
 C    -2.55190     2.14492    -0.51946
 C    -2.64749     5.45458    -0.88328
 C    -1.80476     6.25518     0.04989
 H    -1.22371     6.86846    -0.42706
 H    -1.17857     5.64330     0.56011
 H    -2.34177     6.70867     0.77487
 H    -8.02986     6.60604     1.81954
 O    -7.10881     6.39365     2.05083
 O    -7.85076     4.28678     1.99277
 O    -5.86708     2.39770     1.81736
 O    -6.97673     1.87257     3.71956
 C    -5.55175     4.70506     2.52883
 C    -5.07988     3.39109     2.40552
 C    -3.75960     3.07445     2.66533
 H    -3.45940     2.17779     2.57049
 C    -2.87420     4.06734     3.06488
 H    -1.96535     3.85041     3.23483
 C    -3.31267     5.37564     3.21920
 H    -2.70838     6.05379     3.49649
 C    -4.64410     5.68416     2.96151
 H    -4.94642     6.57615     3.07964
 C    -6.94758     5.08585     2.16432
 C    -6.85227     1.77470     2.52897
 C    -7.69412     0.97439     1.59543
 H    -8.27531     0.36202     2.07277
 H    -8.32045     1.58719     1.08559
 H    -7.15770     0.52210     0.86999
 O     1.28733    -8.23696    -3.47451
 N     3.55352    -8.23696    -3.47451
 N     2.36973    -6.24429    -3.47451
 H     1.51482    -5.84264    -3.50346
 H     3.10449    -5.84230    -3.59116
 C     3.34787   -10.49286    -2.55426
 H     3.20485   -10.11803    -1.69440
 C     3.33554   -11.86927    -2.72455
 H     3.18619   -12.43940    -1.97939
 C     3.53758   -12.41131    -3.98237
 H     3.51153   -13.35251    -4.10290
 C     3.78053   -11.58281    -5.06362
 H     3.91429   -11.96609    -5.92249
 C     3.83215   -10.18382    -4.91412
 C     3.57390    -9.66725    -3.64273
 C     4.20253    -9.36039    -6.06612
 H     3.92355    -9.67283    -6.91830
 C     4.89519    -8.21094    -6.04673
 H     5.06351    -7.80979    -6.89117
 C     6.60510    -6.75374    -4.99190
 H     7.03255    -6.68509    -5.83853
 C     7.15710    -6.11915    -3.90024
 H     7.95805    -5.61933    -4.00077
 C     6.54972    -6.20446    -2.65450
 H     6.93997    -5.77526    -1.90271
 C     5.37023    -6.91948    -2.51160
 H     4.94811    -6.98146    -1.66322
 C     4.80793    -7.54686    -3.61896
 C     5.42022    -7.50338    -4.87553
 C     2.35240    -7.58566    -3.48795
 O    -6.92437    -9.24344    -5.30332
 N    -9.19145    -9.24374    -5.30295
 N    -8.00765   -11.23642    -5.30295
 H    -7.15260   -11.63897    -5.27438
 H    -8.74242   -11.63840    -5.18630
 C    -8.98579    -6.98784    -6.22320
 H    -8.84235    -7.36210    -7.08427
 C    -8.97258    -5.61114    -6.05328
 H    -8.82411    -5.04131    -6.79807
 C    -9.17550    -5.06939    -4.79509
 H    -9.14945    -4.12820    -4.67456
 C    -9.41803    -5.89731    -3.71505
 H    -9.55206    -5.51553    -2.85535
 C    -9.47053    -7.29660    -3.86419
 C    -9.21080    -7.81407    -5.13549
 C    -9.84091    -8.12003    -2.71219
 H    -9.56192    -7.80759    -1.86001
 C   -10.53269    -9.26918    -2.73195
 H   -10.70175    -9.67154    -1.88751
 C   -12.24215   -10.72666    -3.78594
 H   -12.66959   -10.79532    -2.93931
 C   -12.79400   -11.36216    -4.87798
 H   -13.59583   -11.86229    -4.77707
 C   -12.18722   -11.27566    -6.12418
 H   -12.57790   -11.70544    -6.87474
 C   -11.00815   -10.56122    -6.26586
 H   -10.58515   -10.49894    -7.11461
 C   -10.44586    -9.93384    -5.15850
 C   -11.05772    -9.97675    -3.90315
 C    -7.99018    -9.89595    -5.28990
 H    -0.18183    -7.61252    -3.64835
 O    -1.10362    -7.40134    -3.87965
 O    -0.36139    -5.29297    -3.82243
 O    -2.34549    -3.40448    -3.64580
 O    -1.23496    -2.87905    -5.54837
 C    -2.65995    -5.71154    -4.35764
 C    -3.13182    -4.39757    -4.23433
 C    -4.45210    -4.08093    -4.49414
 H    -4.75363    -3.18428    -4.39977
 C    -5.33781    -5.07445    -4.89492
 H    -6.24680    -4.85660    -5.06448
 C    -4.89903    -6.38212    -5.04801
 H    -5.50363    -7.06090    -5.32653
 C    -3.56759    -6.69064    -4.79032
 H    -3.26647    -7.58355    -4.90930
 C    -1.26457    -6.09205    -3.99398
 C    -1.36016    -2.78238    -4.35779
 C    -0.51743    -1.98178    -3.42462
 H     0.06362    -1.36850    -3.90158
 H     0.10875    -2.59367    -2.91440
 H    -1.05445    -1.52829    -2.69964
 H    -6.74254    -1.63092    -1.65497
 O    -5.82148    -1.84331    -1.42368
 O    -6.56343    -3.95019    -1.48174
 O    -4.57975    -5.83926    -1.65715
 O    -5.68941    -6.36440     0.24505
 C    -4.26442    -3.53191    -0.94568
 C    -3.79255    -4.84587    -1.06900
 C    -2.47227    -5.16251    -0.80918
 H    -2.17207    -6.05917    -0.90402
 C    -1.58687    -4.16962    -0.40963
 H    -0.67803    -4.38656    -0.23969
 C    -2.02534    -2.86132    -0.25531
 H    -1.42105    -2.18317     0.02198
 C    -3.35678    -2.55280    -0.51300
 H    -3.65909    -1.66082    -0.39487
 C    -5.66025    -3.15111    -1.31019
 C    -5.56495    -6.46227    -0.94554
 C    -6.40680    -7.26258    -1.87909
 H    -6.98799    -7.87494    -1.40175
 H    -7.03312    -6.64978    -2.38892
 H    -5.87038    -7.71487    -2.60452
