  160
 
Ba     0.00000     0.00000     0.00000
Ca    -5.73301     0.56646     2.21031
 F    -7.84811     2.06894     2.51918
 F    -6.98138    -1.16329    -0.24447
Al    -2.87503     0.19530     0.34058
 F    -4.71449     0.48237     0.00735
 F    -1.76273     0.75882     1.62634
Ba    -8.83284    -0.01575     1.23520
 F    -7.42534     4.09704     1.05641
 F    -2.39621     1.82482    -0.09148
 F    -2.09611    -1.28966    -0.22570
 F    -3.75993     1.41410     1.55187
 F    -6.68095    -1.24970     1.75339
Al    -8.91600     2.95281     1.33776
 F    -7.32580     2.10365     0.54097
 F    -9.11435     3.88554     2.79949
Ba    -4.67113    -2.19727     0.28957
 F   -10.30242     1.88740     1.38190
 F    -9.53340     4.47740     0.70238
 F    -3.23435    -0.94258     1.68426
Ca    -7.06760     0.72485    -1.16882
 F   -13.46525     0.04613     0.30410
 F    -2.28464    -4.27115    -2.03180
Ba   -11.69245     3.95869     1.96993
 F   -11.82950     1.61810     0.08574
 F    -2.96124    -4.33605    -0.01217
 F   -10.78772    -0.20210     2.57099
 F    -2.68132    -2.22714    -1.92195
Ca     3.53414    -3.94804     0.26927
Ca     1.01971    -1.90530    -1.42915
 F    -0.87562    -4.46014     0.32537
 F     1.91823     0.05176    -1.80876
Al   -12.01344     0.38920     1.38788
 F   -11.76614     1.60755     2.73053
 F    -0.29545    -3.79737    -1.53190
 F   -13.41800     1.86416     1.44084
 F   -13.88976     4.83772     3.07667
Al    -1.79301    -3.10427    -0.57999
 F    -0.32650    -2.45077     0.23042
 F   -13.35450     0.09688     2.54917
Ba     1.67133     2.05758     3.37500
Ca    -5.15976     1.88612     5.74401
 F    -6.42624     4.48548     5.60613
 F    -5.97204     2.03216     3.78162
Al    -1.51228     2.72263     4.22625
 F    -2.83712     2.55081     3.05095
 F    -1.10104     4.03744     5.55963
Ba    -8.24573     2.65936     4.91783
 F    -6.34968     6.29965     4.53734
 F    -0.45921     4.05721     3.56326
 F    -0.74310     1.22346     3.42930
 F    -2.51150     4.38770     4.00545
 F    -5.01823    -0.24372     5.22984
Al    -7.76910     5.93244     5.71315
 F    -7.99384     4.94043     4.21336
 F    -6.34078     6.55789     6.66855
Ba    -3.04533     0.18727     3.77709
 F    -7.96255     4.61091     7.02635
 F    -8.75744     6.85760     4.54575
 F    -3.06668     2.59973     5.12931
Ca    -6.41908     4.08899     3.06857
 F   -10.80729     2.88705     4.10303
 F    -1.27525    -1.17271     2.34236
Ba   -10.86049     6.68289     5.78538
 F    -9.45598     4.73997     5.60531
 F    -0.95608    -0.92994     4.91040
 F   -10.62893     2.05018     6.05574
 F     0.83855     0.35710     2.14670
Ca     4.11420    -0.71832     4.90786
Ca     2.97857    -0.42185     1.46707
 F     0.75622    -2.22211     3.91005
 F     3.89567     1.12129     3.00159
Al   -10.91340     3.72430     5.65567
 F   -12.48937     4.64623     6.46400
 F     0.86047    -1.68373     1.89010
 F   -11.91815     4.66347     4.47989
 F   -11.54131     8.43573     7.88250
Al     0.02684    -0.61610     3.36559
 F     1.95937    -0.53192     3.77819
 F   -12.57471     2.68472     5.89911
Ba     0.33103     3.79795    -2.59188
Ca    -4.19741     3.10633    -0.04607
 F    -8.02117     5.79408    -0.04150
 F    -6.07022     3.04684    -0.99918
Al    -2.46619     4.83270    -2.34872
 F    -4.36166     4.08271    -2.20725
 F    -1.22242     5.25375    -1.21803
Ba    -8.50042     3.76280    -1.41253
 F    -6.82266     7.86587    -1.33477
 F    -1.34826     4.74119    -3.97483
 F    -2.10603     3.33334    -1.43331
 F    -3.84373     6.05575    -2.35180
 F    -6.54916     2.05869    -2.79150
Al    -8.56534     7.13299    -1.18775
 F    -7.30740     5.98434    -1.98797
 F    -8.64194     7.77955     0.42994
Ba    -3.96114     1.59973    -2.24815
 F    -9.81386     5.78511    -1.16701
 F    -8.69739     8.77355    -1.84163
 F    -3.27915     5.05825    -0.60113
Ca    -6.40612     4.24942    -3.05490
 F   -12.66070     3.78138    -2.51148
 F    -1.94625    -0.68682    -4.90219
Ba   -11.17138     7.82632    -0.47872
 F   -11.07950     5.74673    -2.88809
 F    -2.14324     0.37334    -1.46932
 F   -10.75253     3.15179    -0.66247
 F    -1.54389     1.83139    -3.64146
Ca     4.08764    -0.03536    -2.15984
Ca     1.25229     1.65314    -3.66016
 F    -0.87634    -1.09111    -2.03589
 F     2.55785     3.67529    -4.00877
Al   -11.38227     4.67270    -1.41503
 F   -11.30648     5.47802     0.18710
 F    -0.04141    -0.42629    -3.95196
 F   -12.75908     5.95694    -1.31716
 F   -13.42695     8.51087     0.40996
Al    -1.65579     0.15159    -3.21691
 F    -0.23379     0.95063    -2.28337
 F   -12.79379     4.09125    -0.39336
Ba     2.11109     5.90769     0.96508
Ca    -3.12130     5.70436     2.36761
 F    -5.73737     8.23060     3.02881
 F    -5.28621     5.76190     2.01960
Al    -0.69546     7.17590     1.30216
 F    -1.91834     6.11249     0.59882
 F    -0.00444     8.20353     3.56124
Ba    -7.67206     6.36096     2.32821
 F    -5.80502    10.20741     1.75740
 F    -0.38281     8.61709     0.20720
 F    -0.34523     5.73515     2.31543
 F    -2.29453     8.18477     0.97555
 F    -4.38678     3.79667     2.02686
Al    -7.22472     9.40167     2.66703
 F    -6.74808     8.35328     1.24222
 F    -6.14180    10.16726     3.85945
Ba    -1.89466     3.79014     1.23683
 F    -7.66014     8.49851     4.18180
 F    -8.35197    10.64627     1.99987
 F    -1.76403     7.50432     2.76969
Ca    -5.90311     6.23138    -0.02197
 F   -10.09951     6.47117     1.54148
 F    -0.41923     2.40246    -0.58253
Ba   -10.43812    10.35824     3.19181
 F    -8.90309     8.47368     2.49922
 F    -0.16626     2.13980     1.69672
 F   -10.02705     5.58632     3.58166
 F     0.29101     4.44430     0.00676
Ca     4.77889     3.01971     2.05657
Ca     3.41359     3.70349    -1.47433
 F     2.02933     1.44130     0.80525
 F     4.17735     4.67409     0.29154
Al   -10.23003     7.29555     3.08926
 F   -11.80653     8.23724     3.89220
 F     1.67791     2.32541    -1.04394
 F   -11.18856     8.34021     1.93521
 F   -11.52140    12.13031     5.19709
Al     0.87549     2.88318     0.53183
 F     2.57219     3.42504     1.02223
 F   -11.91215     6.33543     3.23583
