   48
 
 I     0.00000     0.00000     0.00000
 F     5.69013     0.00000     0.00000
Ba     6.92898     2.24457     0.82677
 I    10.42984     3.11167    -0.47975
 F     5.69013     3.87607     2.57600
Ba    -3.76553    -0.93355     1.40470
Ba     3.50086     0.86710    -1.30652
Ba    -0.33741     0.44308     3.53743
 I     9.16884     3.32661     3.40277
 I     3.16345     1.31102     2.23147
 F     4.73931     3.11300    -0.47996
 F     6.64176     0.76206     3.05748
 I    -1.90245    -1.52512    -6.11344
 F     3.78767    -1.52512    -6.11344
Ba     5.02652     0.71944    -5.28667
 I     8.52739     1.58654    -6.59318
 F     3.78767     2.35095    -3.53743
Ba    -5.66798    -2.45867    -4.70874
Ba     1.59841    -0.65802    -7.41996
Ba    -2.23987    -1.08204    -2.57600
 I     7.26639     1.80148    -2.71066
 I     1.26100    -0.21411    -3.88197
 F     2.83685     1.58788    -6.59339
 F     4.73931    -0.76307    -3.05596
 I    -7.26639    -5.67755     0.13466
 F    -1.57626    -5.67755     0.13466
Ba    -0.33741    -3.43299     0.96143
 I     3.16345    -2.56589    -0.34509
 F    -1.57626    -1.80148     2.71066
Ba   -11.03192    -6.61110     1.53936
Ba    -3.76553    -4.81045    -1.17186
Ba    -7.60380    -5.23447     3.67209
 I     1.90245    -2.35095     3.53743
 I    -4.10294    -4.36654     2.36613
 F    -2.52708    -2.56455    -0.34530
 F    -0.62463    -4.91550     3.19214
 I    -9.16884    -7.20268    -5.97878
 F    -3.47872    -7.20268    -5.97878
Ba    -2.23987    -4.95811    -5.15201
 I     1.26100    -4.09101    -6.45852
 F    -3.47872    -3.32661    -3.40277
Ba   -12.93437    -8.13623    -4.57408
Ba    -5.66798    -6.33558    -7.28530
Ba    -9.50626    -6.75960    -2.44134
 I    -0.00000    -3.87607    -2.57600
 I    -6.00539    -5.89166    -3.74731
 F    -4.42954    -4.08967    -6.45873
 F    -2.52708    -6.44062    -2.92130
