   96
 
Ba     0.00000     0.00000     0.00000
Ba    -2.35613     4.01497     2.40502
Ba    -4.95768    -1.36103     2.27612
Ba    -2.60156    -5.37599    -0.12890
 I    -4.63820    -5.03813    -3.01791
 I    -4.80634     2.02321     1.21193
 I    -5.92972    -4.13411     0.61500
 I    -0.15134    -3.38423     1.06419
 I    -3.16349    -1.37550    -0.82394
 I    -0.36079    -4.76870    -2.85652
 I    -1.79419     0.01447     3.10006
 I     2.99902    -0.60730     2.72761
Ba     5.61024     7.81121     4.67902
Ba     3.25411    11.82618     7.08405
Ba     0.65256     6.45018     6.95514
Ba     3.00868     2.43521     4.55012
 I     0.97203     2.77308     1.66112
 I     0.80390     9.83442     5.89095
 I    -0.31948     3.67710     5.29403
 I     5.45890     4.42698     5.74321
 I     2.44675     6.43571     3.85508
 I     5.24945     3.04251     1.82251
 I     3.81604     7.82568     7.77909
 I     8.60926     7.20391     7.40664
Ba     0.00000     2.72559    -4.55012
Ba    -2.35613     6.74056    -2.14510
Ba    -4.95768     1.36456    -2.27400
Ba    -2.60156    -2.65041    -4.67902
 I    -4.63820    -2.31254    -7.56803
 I    -4.80634     4.74879    -3.33819
 I    -5.92972    -1.40852    -3.93512
 I    -0.15134    -0.65865    -3.48593
 I    -3.16349     1.35009    -5.37406
 I    -0.36079    -2.04311    -7.40664
 I    -1.79419     2.74006    -1.45006
 I     2.99902     2.11829    -1.82251
Ba     5.61024    10.53680     0.12890
Ba     3.25411    14.55176     2.53393
Ba     0.65256     9.17577     2.40502
Ba     3.00868     5.16080    -0.00000
 I     0.97203     5.49867    -2.88901
 I     0.80390    12.56000     1.34083
 I    -0.31948     6.40269     0.74391
 I     5.45890     7.15256     1.19309
 I     2.44675     9.16130    -0.69504
 I     5.24945     5.76810    -2.72761
 I     3.81604    10.55127     3.22896
 I     8.60926     9.92950     2.85651
Ba     7.59592    -4.01497    -2.40502
Ba     5.23979     0.00000     0.00000
Ba     2.63824    -5.37599    -0.12890
Ba     4.99436    -9.39096    -2.53393
 I     2.95771    -9.05310    -5.42293
 I     2.78958    -1.99176    -1.19309
 I     1.66620    -8.14908    -1.79002
 I     7.44458    -7.39920    -1.34083
 I     4.43243    -5.39047    -3.22896
 I     7.23513    -8.78366    -5.26154
 I     5.80172    -4.00050     0.69504
 I    10.59494    -4.62227     0.32259
Ba    13.20616     3.79624     2.27400
Ba    10.85003     7.81121     4.67902
Ba     8.24847     2.43521     4.55012
Ba    10.60460    -1.57975     2.14510
 I     8.56795    -1.24189    -0.74391
 I     8.39982     5.81945     3.48593
 I     7.27644    -0.33787     2.88900
 I    13.05482     0.41201     3.33819
 I    10.04267     2.42074     1.45006
 I    12.84537    -0.97246    -0.58251
 I    11.41196     3.81071     5.37406
 I    16.20518     3.18894     5.00161
Ba     7.59592    -1.28938    -6.95514
Ba     5.23979     2.72559    -4.55012
Ba     2.63824    -2.65041    -4.67902
Ba     4.99436    -6.66538    -7.08405
 I     2.95771    -6.32751    -9.97305
 I     2.78958     0.73382    -5.74321
 I     1.66620    -5.42349    -6.34014
 I     7.44458    -4.67362    -5.89095
 I     4.43243    -2.66488    -7.77909
 I     7.23513    -6.05808    -9.81166
 I     5.80172    -1.27491    -3.85508
 I    10.59494    -1.89668    -4.22753
Ba    13.20616     6.52183    -2.27612
Ba    10.85003    10.53680     0.12890
Ba     8.24848     5.16080     0.00000
Ba    10.60460     1.14583    -2.40502
 I     8.56795     1.48370    -5.29403
 I     8.39982     8.54503    -1.06419
 I     7.27644     2.38772    -1.66112
 I    13.05482     3.13759    -1.21193
 I    10.04267     5.14633    -3.10006
 I    12.84537     1.75313    -5.13264
 I    11.41196     6.53630     0.82394
 I    16.20518     5.91453     0.45149
