  135
 
Ti     0.00000     0.00000     0.00000
Ba    -1.55053    -2.55242    -1.04644
 O    -1.58928     0.13140    -1.00248
 O     1.13422    -1.26789    -0.52108
 O    -0.33082    -0.05185     1.82127
Ti     2.01051     0.65682     6.25360
Ba     1.47104    -2.36767     2.02578
 O     1.99620     0.18535     2.27406
 O     2.73605    -0.12895     2.92649
 O     2.00626    -0.44178     4.60363
Ti     4.74253     1.09698     9.00011
Ba     4.32935    -1.75302     5.05661
 O     3.24541     0.53977     7.80180
 O     5.33694    -0.84837     8.27294
 O     4.12259    -0.66840    12.70939
Ti     2.04907    -2.83252    -1.45385
Ba     1.77130    -5.00107    -4.67066
 O     0.45151    -3.44694    -2.84286
 O     2.95783    -4.50292    -2.32387
 O     0.76852    -4.07472    -0.51972
Ti     4.53655    -2.89463     1.46235
Ba     3.12297    -5.77517     0.23578
 O     3.45691    -2.46726     0.01199
 O     6.11889    -3.58870     0.51783
 O     3.76025    -4.37786     2.38781
Ti     6.52414    -2.28917     7.57817
Ba     6.22528    -4.75114     3.40015
 O     6.01662    -2.12599     2.61290
 O     7.07596    -2.24471     4.43401
 O     6.56845    -3.54817     5.99031
Ti     4.15356    -5.90673    -2.84956
Ba     4.10901    -7.65543    -5.99123
 O     4.11458    -4.14984    -7.68482
 O     7.43213    -7.27041    -6.43438
 O     4.38320    -8.02348    -3.18063
Ti     6.76175    -5.30694     0.06594
Ba     6.93447    -7.86502    -3.06503
 O     5.39605    -5.84236    -1.41800
 O     7.68648    -7.09669    -0.27777
 O     5.60369    -6.50125     1.22085
Ti     9.79415    -5.23586     3.63658
Ba     8.08804    -7.77238     2.36519
 O     7.92449    -2.79432     4.03293
 O    10.56061    -6.90932     3.17236
 O     8.34092    -5.81546     4.66650
Ti     2.41221     2.85093    -2.13662
Ba     0.81327     0.18317    -3.09783
 O     1.27954     3.55104    -3.41334
 O     3.26788     1.14695    -2.59696
 O     1.32001     1.58799    -0.72587
Ti     3.82835     2.60442     3.47362
Ba     3.63559     0.39735     0.04356
 O     2.35838     2.37071     2.13320
 O     4.72234     1.11313     2.86494
 O     3.08085     1.93480     5.04061
Ti     6.86850     3.38949     6.98653
Ba     5.03877    -0.12357     5.51074
 O     5.39463     3.84351     5.21765
 O     7.61375     1.87268     5.93607
 O     5.73626     1.99070     7.75402
Ti     3.75851    -0.60324    -3.95879
Ba     2.51162    -3.44820    -5.15993
 O     3.10403     0.08343    -5.65230
 O     4.87678    -2.21838    -4.43644
 O     2.88413    -1.49624    -2.60731
Ti     5.98691    -0.24006     2.44633
Ba     5.22482    -3.00994    -1.83718
 O     5.73389    -0.61592    -1.33577
 O     6.62474     0.23287     0.64802
 O     3.89560    -1.08348     2.41586
Ti     8.34651     0.23567     5.35003
Ba     8.24976    -2.19566     1.17524
 O     7.47417     0.05964     3.63244
 O     9.19645    -2.32587     4.03276
 O     7.57032    -1.11201     6.44546
Ti     5.85780    -3.70709    -4.88233
Ba     6.07804    -5.88379    -8.02113
 O     7.78900    -5.35014    -5.45294
 O     8.45234    -6.13596    -5.82344
 O     4.97060    -5.37099    -4.57350
Ti     8.45430    -3.10818    -1.97689
Ba     7.51371    -6.20377    -2.94809
 O     7.35186    -3.44507    -3.43260
 O    11.28660    -4.64732    -1.83390
 O     8.42458    -4.45872    -0.77654
Ti    11.12302    -3.56531     1.97594
Ba    10.16180    -6.05349     0.34232
 O    10.75644    -4.08604    -1.02726
 O    12.29232    -4.69524     1.05110
 O     9.24510    -4.37854     2.02727
Ti     3.54917     5.41226    -1.37703
Ba     3.14649     2.62904    -5.32130
 O     1.36027     6.02503    -3.95670
 O     4.23121     3.68517    -2.32941
 O     2.27628     4.07593    -0.57380
Ti     5.92140     4.91593     1.49832
Ba     4.38216     2.05199     0.26502
 O     4.66190     5.40114     0.16142
 O     6.83554     3.40155     0.76530
 O     4.65165     4.18484     2.91899
Ti     8.55634     5.29162     4.39266
Ba     7.11308     2.65916     3.43452
 O     7.12317     5.37931     3.14484
 O     9.61201     3.59304     3.89787
 O     7.86065     5.03979     6.08456
Ti     5.17945     1.90815    -2.84172
Ba     4.49551    -1.54226    -6.98832
 O     5.97050     1.29476    -5.88138
 O     7.23283     0.10398    -6.35160
 O     5.33549     0.43659    -4.19485
Ti     7.77050     1.94174    -0.00049
Ba     7.53092    -0.54232    -3.76067
 O     6.36595     1.38817    -1.49095
 O     8.04577    -1.22179    -1.23638
 O     6.36709    -0.93767    -0.60335
Ti    10.32838     2.16994     2.75385
Ba     9.10354    -0.77398     1.81589
 O     9.09299     1.82470     1.41950
 O    11.35368     0.64889     3.15712
 O    12.19593     1.41090     5.21617
Ti     7.72929    -1.56052    -7.07857
Ba     6.82505    -4.29415    -8.41979
 O     6.81871    -1.37370    -8.73956
 O    10.31820    -1.23873    -4.72505
 O     7.20602    -3.14751    -6.15573
Ti     9.95582    -0.65052    -1.28218
Ba     9.62409    -3.66149    -4.93095
 O    11.03404    -1.41383    -3.94956
 O    11.96311    -2.53309    -4.02002
 O    10.17119    -2.35921    -2.35378
Ti    12.43507    -0.27381     1.79012
Ba    12.71554    -2.61950    -1.25576
 O    10.99850    -0.47274     0.18989
 O    14.40676    -2.41887     0.88281
 O    12.14086    -2.16182     1.38593
