   64
 
 S     0.00000     0.00000     0.00000
 S     4.51276     0.00000     0.00000
 S     2.25638     3.90816     0.00000
 S     2.25638     1.30272    -3.68465
Ba     4.51276     2.60544    -1.84232
Ba     0.00000     2.60544    -1.84232
Ba     2.25638    -1.30272    -1.84232
Ba     2.25638     1.30272     1.84232
 S    -4.51276    -2.60544    -3.68465
 S    -0.00000    -2.60544    -3.68465
 S    -2.25638     1.30272    -3.68465
 S    -2.25638    -1.30272    -7.36930
Ba    -0.00000     0.00000    -5.52697
Ba    -4.51276     0.00000    -5.52697
Ba    -2.25638    -3.90816    -5.52697
Ba    -2.25638    -1.30272    -1.84232
 S    -4.51276     2.60544     3.68465
 S    -0.00000     2.60544     3.68465
 S    -2.25638     6.51360     3.68465
 S    -2.25638     3.90816     0.00000
Ba    -0.00000     5.21088     1.84232
Ba    -4.51276     5.21088     1.84232
Ba    -2.25638     1.30272     1.84232
Ba    -2.25638     3.90816     5.52697
 S    -9.02551     0.00000     0.00000
 S    -4.51276     0.00000     0.00000
 S    -6.76913     3.90816     0.00000
 S    -6.76913     1.30272    -3.68465
Ba    -4.51276     2.60544    -1.84232
Ba    -9.02551     2.60544    -1.84232
Ba    -6.76913    -1.30272    -1.84232
Ba    -6.76913     1.30272     1.84232
 S     0.00000    -5.21088     3.68465
 S     4.51276    -5.21088     3.68465
 S     2.25638    -1.30272     3.68465
 S     2.25638    -3.90816     0.00000
Ba     4.51276    -2.60544     1.84232
Ba     0.00000    -2.60544     1.84232
Ba     2.25638    -6.51360     1.84232
Ba     2.25638    -3.90816     5.52697
 S    -4.51276    -7.81632    -0.00000
 S    -0.00000    -7.81632    -0.00000
 S    -2.25638    -3.90816    -0.00000
 S    -2.25638    -6.51360    -3.68465
Ba    -0.00000    -5.21088    -1.84232
Ba    -4.51276    -5.21088    -1.84232
Ba    -2.25638    -9.11904    -1.84232
Ba    -2.25638    -6.51360     1.84232
 S    -4.51276    -2.60544     7.36930
 S    -0.00000    -2.60544     7.36930
 S    -2.25638     1.30272     7.36930
 S    -2.25638    -1.30272     3.68465
Ba    -0.00000    -0.00000     5.52697
Ba    -4.51276    -0.00000     5.52697
Ba    -2.25638    -3.90816     5.52697
Ba    -2.25638    -1.30272     9.21162
 S    -9.02551    -5.21088     3.68465
 S    -4.51276    -5.21088     3.68465
 S    -6.76913    -1.30272     3.68465
 S    -6.76913    -3.90816     0.00000
Ba    -4.51276    -2.60544     1.84232
Ba    -9.02551    -2.60544     1.84232
Ba    -6.76913    -6.51360     1.84232
Ba    -6.76913    -3.90816     5.52697
