  288
 
Ba     0.00000     0.00000     0.00000
Ba    -5.14820    -0.08929     0.15647
Ba    -2.57580    -4.33879     0.08461
Ba    -2.55909    -1.46546    -4.23841
 N    -7.70407    -4.35943    -2.85128
 N     0.14620    -0.15842    -3.18058
 N    -2.91429     1.22916    -1.14413
 N    -1.83965    -1.29727     1.77902
 N    -4.45853    -2.51087    -2.21708
 N    -0.40137    -3.50238    -1.75867
 N    -2.53026     1.68298    -4.80767
 N    -5.33298    -0.14095     3.23912
 O    -8.52897    -3.59966    -2.26532
 O     0.00797     0.09956    -4.40801
 O    -2.81336    -0.00971    -1.38068
 O    -1.86104    -0.89938     2.97113
 O    -6.76387    -3.83924    -3.51754
 O    -0.84346    -0.53809    -2.49553
 O    -1.95689     1.81845    -0.57468
 O    -1.08371    -2.28357     1.47065
 O    -7.82252    -5.60314    -2.74988
 O     1.26499    -0.03556    -2.61549
 O    -3.95755     1.88143    -1.43816
 O    -2.51961    -0.74589     0.87756
 O    -3.86921    -3.38681    -2.90848
 O    -0.27047    -2.92830    -0.64037
 O    -2.54614     2.94474    -4.76790
 O    -6.40380    -0.78597     3.39542
 O    -4.47716    -2.63472    -0.95960
 O     0.60090    -4.09029    -2.25855
 O    -3.30764     1.03615    -4.04948
 O    -5.37554     1.12085     3.16741
 O    -5.01719    -1.51022    -2.75013
 O    -1.49934    -3.50438    -2.38079
 O    -1.73318     1.07122    -5.56809
 O    -4.23657    -0.74725     3.08289
Ba     0.02128     5.87689     4.10485
Ba    -5.14748     5.71675     4.31602
Ba    -2.73332     1.41216     4.26687
Ba    -2.58606     4.30334     0.08452
 N    -7.64348     1.32198     1.49116
 N     0.10088     5.69307     0.82195
 N    -2.95234     6.96717     2.95180
 N    -1.68968     4.31451     5.68153
 N    -4.47911     3.21548     2.06182
 N    -0.53111     2.12268     2.53742
 N    -2.49350     7.31845    -0.79201
 N    -5.03100     5.66948     7.49156
 O    -8.73039     1.93065     1.73699
 O     0.06719     5.02694    -0.24305
 O    -2.85326     5.73006     2.68958
 O    -1.33509     5.17870     6.53023
 O    -6.60718     1.98360     1.21197
 O    -0.80449     5.51176     1.68633
 O    -2.22425     7.44077     3.87810
 O    -1.16252     3.15408     5.74126
 O    -7.61194     0.06504     1.58861
 O     1.02729     6.52037     1.03002
 O    -3.75359     7.71631     2.34747
 O    -2.49963     4.57125     4.75222
 O    -3.88045     2.23311     1.51972
 O    -0.42831     2.88034     3.53510
 O    -2.74175     8.36535    -1.45477
 O    -6.17333     5.23384     7.16788
 O    -4.44542     3.31368     3.31777
 O     0.32214     1.20413     2.36492
 O    -3.33152     6.87629     0.03539
 O    -4.42745     6.49445     6.75687
 O    -5.06962     4.08906     1.37500
 O    -1.51337     2.20303     1.73764
 O    -1.38982     6.72308    -0.95481
 O    -4.49465     5.27902     8.56024
Ba     5.23531     3.28680    -4.62375
Ba     0.13863     3.13625    -4.48787
Ba     2.57270    -1.31387    -4.58391
Ba     2.77045     1.84968    -8.72857
 N    -2.64337    -1.29951    -7.42422
 N     5.35136     3.31642    -7.65002
 N     2.69325     4.74247    -3.39035
 N     5.25767     0.16050    -3.72792
 N     2.57883     1.68918    -5.48180
 N     5.22813    -2.60727    -5.87158
 N     2.80094     4.80523    -9.72922
 N     0.42899     2.76318    -1.41010
 O    -3.11731    -0.37522    -6.72382
 O     5.36573     2.06237    -7.80203
 O     2.68926     3.48168    -3.44702
 O     6.17163     0.87159    -3.21051
 O    -2.64221    -1.21919    -8.68611
 O     4.26339     3.92800    -7.43663
 O     3.79704     5.35614    -3.25213
 O     5.07226    -1.01886    -3.31869
 O    -2.16561    -2.34148    -6.88381
 O     6.43902     3.95959    -7.64969
 O     1.61338     5.39545    -3.40477
 O     4.55191     0.62698    -4.65960
 O     2.83778     0.76939    -6.30269
 O     5.18358    -1.34720    -5.87420
 O     2.88313     6.06390    -9.67590
 O    -0.18166     1.86437    -2.04595
 O     2.18901     1.39534    -4.31880
 O     6.30232    -3.22319    -6.13030
 O     1.68916     4.23970    -9.58890
 O     0.76814     3.81603    -2.00980
 O     2.72559     2.89327    -5.84891
 O     4.16377    -3.26799    -5.67031
 O     3.85006     4.12336    -9.94435
 O     0.69061     2.63254    -0.18645
Ba     5.34256     9.06115    -0.40533
Ba     0.08365     8.90004    -0.25022
Ba     2.75437     4.56330    -0.32636
Ba     2.73753     7.66441    -4.46182
 N    -2.13266     4.68308    -2.94687
 N     5.24943     9.13276    -3.35116
 N     2.73034    10.40325     0.70456
 N     5.33552     6.05809     0.71602
 N     2.70495     7.55215    -1.39119
 N     5.33067     3.16341    -1.72491
 N     2.70867    10.59709    -5.58530
 N     0.05794     8.87092     2.90953
 O    -2.91308     5.48246    -2.36149
 O     5.30074     7.87400    -3.42827
 O     2.75199     9.16573     0.99861
 O     6.42044     6.69260     0.58813
 O    -1.65040     5.02370    -4.05814
 O     4.14724     9.73771    -3.26782
 O     3.80350    11.00379     0.45055
 O     5.35252     4.79668     0.78793
 O    -1.86489     3.55584    -2.46366
 O     6.33372     9.79156    -3.25422
 O     1.62761    11.01887     0.69330
 O     4.24988     6.69668     0.86427
 O     3.82115     6.96976    -1.49987
 O     5.25665     4.41650    -1.54971
 O     2.73552    11.85573    -5.52775
 O    -0.38343     7.88259     2.27983
 O     1.64269     6.88915    -1.29366
 O     6.45517     2.59205    -1.69242
 O     1.60019     9.99513    -5.61127
 O     0.26512     9.97541     2.32566
 O     2.66250     8.82218    -1.45838
 O     4.28661     2.50469    -2.00423
 O     3.79037     9.94785    -5.67739
 O     0.28610     8.78786     4.16010
Ba     5.04932    -2.91565     3.91999
Ba    -0.18210    -2.98061     4.10795
Ba     2.53669    -7.17741     3.96735
Ba     2.54174    -4.41620    -0.37341
 N    -2.50323    -7.28350     1.12028
 N     5.16245    -3.08876     0.74355
 N     2.14034    -1.64343     2.90453
 N     3.23504    -4.27948     5.63636
 N     0.85178    -5.28534     1.77173
 N     4.66701    -6.50021     2.23079
 N     2.64827    -1.15133    -0.93477
 N    -0.07213    -3.09185     7.29343
 O    -3.18723    -6.48684     1.81543
 O     5.07839    -2.91951    -0.50782
 O     2.21702    -2.85713     2.60102
 O     3.26015    -3.76340     6.77864
 O    -1.58896    -6.82464     0.38065
 O     4.13534    -3.35623     1.42032
 O     3.10349    -1.08430     3.50382
 O     4.07649    -5.21844     5.37112
 O    -2.72004    -8.52183     1.19885
 O     6.27259    -2.96209     1.32824
 O     1.09801    -0.95230     2.66882
 O     2.43219    -3.92835     4.73739
 O     1.30243    -6.34004     1.23823
 O     4.87665    -5.71592     3.19096
 O     2.61859     0.10313    -0.76751
 O    -1.17111    -3.44190     6.76551
 O     1.22580    -4.99556     2.94928
 O     5.37512    -7.55780     2.12981
 O     1.82394    -1.88067    -0.32104
 O     1.00070    -3.15155     6.63550
 O     0.08667    -4.49780     1.15039
 O     3.74750    -6.30811     1.38441
 O     3.51435    -1.64685    -1.70019
 O    -0.07823    -2.74902     8.51318
Ba     5.14941     3.01911     8.04940
Ba     0.01617     2.75815     8.20235
Ba     2.49457    -1.43564     8.22387
Ba     2.46851     1.41373     4.05488
 N    -2.80338    -1.55110     5.38139
 N     5.16069     2.73523     4.76807
 N     2.01943     4.19904     6.85928
 N     3.43067     1.46994     9.62040
 N     0.65196     0.28212     5.92877
 N     4.69493    -0.78773     6.46971
 N     2.64192     4.39224     2.95079
 N     0.00496     2.71714    11.43304
 O    -3.88472    -0.90063     5.47915
 O     5.13489     2.03420     3.72350
 O     2.09551     3.10013     6.26593
 O     3.72401     2.34560    10.47393
 O    -1.69439    -0.94362     5.35407
 O     4.27105     2.56324     5.64879
 O     2.78446     4.44135     7.85068
 O     4.04072     0.34744     9.65487
 O    -2.84560    -2.81441     5.40005
 O     6.06684     3.59655     4.94390
 O     1.15349     5.07666     6.54854
 O     2.59128     1.66484     8.69814
 O     0.64706    -0.96760     5.84180
 O     4.87822     0.01381     7.41966
 O     2.62467     5.51513     2.37165
 O    -0.99293     2.15811    10.88478
 O     1.52652     0.83062     6.70382
 O     5.54501    -1.69717     6.24824
 O     1.59214     3.89614     3.42448
 O     0.87594     3.28327    10.72914
 O    -0.14310     1.02315     5.30625
 O     3.65546    -0.74762     5.73853
 O     3.72935     3.74822     3.03013
 O     0.09566     2.69452    12.69578
Ba    10.53112     0.47470    -0.69118
Ba     5.32447     0.10629    -0.57789
Ba     7.70172    -4.15916    -0.60888
Ba     7.82804    -1.18222    -4.76770
 N     2.56792    -4.31810    -3.64030
 N    10.40382     0.44288    -3.93764
 N     7.85998     1.92788     0.34332
 N    10.35439    -2.55625     0.18872
 N     7.81317    -1.26877    -1.49952
 N    10.42254    -5.54053    -1.72336
 N     7.81694     1.88502    -5.77476
 N     5.60339    -0.21873     2.54214
 O     2.85200    -3.38529    -2.85973
 O    10.40838    -0.27847    -4.97293
 O     7.86708     1.06402    -0.57127
 O    11.39213    -1.96106     0.59799
 O     2.19511    -4.10196    -4.82542
 O     9.34124     0.97857    -3.53198
 O     8.96263     2.27678     0.87344
 O     9.76282    -3.37462     0.94769
 O     2.68588    -5.52530    -3.23707
 O    11.48829     0.65148    -3.31910
 O     6.78664     2.48524     0.70307
 O     9.91886    -2.35267    -0.97796
 O     8.68310    -0.71272    -2.20726
 O    10.39734    -4.68748    -0.80595
 O     7.77432     3.13997    -5.91378
 O     4.88100    -1.04886     1.92569
 O     7.86970    -1.22983    -0.23677
 O    11.49613    -5.84368    -2.30641
 O     6.76371     1.26023    -5.48871
 O     6.17249     0.68835     1.88295
 O     6.85311    -1.88939    -2.06749
 O     9.33764    -6.12251    -2.04675
 O     8.90699     1.26909    -5.95435
 O     5.73736    -0.26658     3.78837
Ba    10.43889     6.25771     3.57728
Ba     5.18160     5.96976     3.66057
Ba     7.83241     1.76813     3.61066
Ba     7.91348     4.68885    -0.59640
 N     3.03959     1.70652     1.07445
 N    10.41575     6.36192     0.39843
 N     7.75629     7.51197     4.82804
 N    10.37519     3.24640     4.67143
 N     7.82235     4.76392     2.52054
 N    10.40636     0.40954     2.20257
 N     7.81776     7.69793    -1.67036
 N     5.19282     5.94441     6.80769
 O     2.16975     2.48465     1.56019
 O    10.52198     5.86062    -0.75483
 O     7.72018     6.26468     5.00858
 O    11.47719     3.85741     4.57827
 O     3.74516     2.12070     0.12125
 O     9.32707     6.33390     1.02160
 O     8.87020     8.12733     4.96518
 O    10.36896     2.00156     4.91998
 O     3.19278     0.54173     1.51432
 O    11.42989     6.91753     0.92036
 O     6.71401     8.15538     4.57323
 O     9.29062     3.88968     4.62513
 O     8.93717     4.23118     2.26531
 O    10.36665     1.58897     2.63425
 O     7.78953     8.95439    -1.60138
 O     4.62297     5.00230     6.20669
 O     6.77655     4.05799     2.58783
 O    11.51482    -0.19517     2.11066
 O     6.74501     7.03404    -1.70828
 O     5.50472     7.00557     6.20009
 O     7.72770     6.02260     2.62563
 O     9.34783    -0.15707     1.79345
 O     8.92485     7.09418    -1.75111
 O     5.44971     5.85195     8.05129
