   64
 
Ba     0.00000     0.00000     0.00000
 O     2.03725    -2.40269     4.97630
Ba     1.13120     4.52465     3.66888
 O     5.13607     3.73973     1.65577
Ba     4.01213     1.24980     0.74141
 O     2.71742     3.60982    -3.54263
Ba     3.43032     1.01217     4.46148
 O     1.02038     1.63224     2.74829
Ba    -3.75587     2.04583     0.08774
 O    -3.20606     0.68398     4.68396
Ba    -2.03013     7.01602     2.87208
 O    -0.05211     9.39315     0.79773
Ba    -0.14571     3.61888     0.03243
 O    -2.64545     3.63652     2.04152
Ba    -1.23028     2.96803     4.31441
 O    -3.46599     4.45346     3.62566
Ba     2.15322    -3.16246    -3.29429
 O     1.83514    -2.03498    -0.70040
Ba     1.77069     0.26668    -3.32492
 O     4.96450     0.80577    -2.36065
Ba     5.71711    -1.20794    -7.95096
 O     2.57121    -0.83748    -9.48640
Ba     5.07287    -2.35523    -0.20053
 O     2.45863    -1.09276    -0.50863
Ba    -2.29507    -1.65128    -2.53281
 O    -2.32939     0.77894     2.51591
Ba    -3.51174     2.48471    -1.73261
 O    -0.84440     1.03300    -2.96327
Ba    -0.97888     0.05894    -5.92561
 O    -3.28039     0.67345    -7.79163
Ba     0.13926    -0.67055     1.65241
 O    -3.02079    -0.19495     2.26285
Ba     2.12232    -4.22792     7.69077
 O     5.34828    -5.12744     7.47437
Ba     2.00275    -0.57083     7.03056
 O     3.10540    -2.69452     5.57919
Ba     4.21042    -2.81838     1.48357
 O     0.98937    -2.60813     5.47698
Ba     4.73454    -3.32617    10.08927
 O     1.92367    -2.64573    10.79771
Ba    -2.35113    -2.29084     6.17400
 O     0.33813     0.84390     5.48221
Ba    -4.25285     1.86301     8.11565
 O    -3.25768     0.28012     5.84765
Ba    -0.11600    -1.09229     3.37872
 O    -2.34237     0.54024     6.62901
Ba    -0.79010    -1.98060    12.25005
 O    -2.77393    -0.45200    13.18556
Ba     2.73280    -8.39106     0.72748
 O     4.05111    -9.44893     3.12140
Ba     3.85808    -3.30081     3.12249
 O     2.35422    -3.22536    -0.54803
Ba     5.17110    -7.08551    -0.25810
 O     3.13328    -5.20639    -0.18285
Ba     3.21252    -6.96720     4.74877
 O     3.32553    -5.85031     2.16050
Ba    -2.83199    -6.23801     1.94278
 O    -0.45946    -7.43443     1.95127
Ba    -3.23160    -2.44699     4.61462
 O    -2.49151    -1.28284     1.99993
Ba     0.02056    -4.44537    -1.20370
 O    -1.61374    -3.66968     2.41162
Ba     0.74915    -5.04877     3.98071
 O    -2.86312    -5.13923     6.29306
