  240
 
 O     0.00000     0.00000     0.00000
 O     2.17870    -0.06866    -0.44633
 C     1.16775     0.58726    -0.23759
 C     1.11490     2.05537    -0.23678
 C    -0.10052     2.73891    -0.26808
 C    -0.10031     4.13281    -0.28226
 C     1.10465     4.83142    -0.26626
 C     2.31746     4.14227    -0.24028
 C     2.32552     2.75224    -0.22088
 H    -1.04320     2.18083    -0.28271
 H    -1.05049     4.67347    -0.29865
 H     1.10078     5.92298    -0.27152
 H     3.25973     4.68754    -0.22429
 H     3.26770     2.19877    -0.18224
 H     0.01166    -1.03018    -0.08161
 O    -4.49813    -9.54885     4.65167
 O    -6.29811   -10.66339     3.96395
 C    -5.66538   -10.14462     4.87281
 C    -6.09273   -10.12459     6.27836
 C    -5.19865    -9.80319     7.29973
 C    -5.64124    -9.80783     8.62150
 C    -6.96253   -10.13765     8.91501
 C    -7.85075   -10.46384     7.88951
 C    -7.41956   -10.45240     6.56761
 H    -4.15903    -9.55255     7.05938
 H    -4.94735    -9.54190     9.42385
 H    -7.30622   -10.13689     9.95139
 H    -8.88515   -10.71577     8.11716
 H    -8.10930   -10.68766     5.75296
 H    -4.15059    -9.63307     3.68208
 O     1.07303     0.76598     2.75521
 O    -1.10224     0.84129     3.20977
 C    -0.09817     0.18025     2.98910
 C    -0.04743    -1.28850     2.96706
 C     1.17144    -1.96516     3.02270
 C     1.18135    -3.35887     3.01744
 C    -0.01735    -4.06633     2.96201
 C    -1.23435    -3.38514     2.90744
 C    -1.25201    -1.99407     2.90383
 H     2.10985    -1.40073     3.07183
 H     2.13497    -3.89285     3.04910
 H    -0.00377    -5.15820     2.95804
 H    -2.16995    -3.93955     2.85657
 H    -2.19614    -1.44709     2.84014
 H     1.06840     1.79261     2.84025
 O    -6.52859    -7.26990     4.80471
 O    -4.74734    -6.12375     5.48850
 C    -5.37108    -6.65654     4.58129
 C    -4.94321    -6.67117     3.17650
 C    -5.81420    -7.07213     2.16349
 C    -5.38202    -7.03989     0.83907
 C    -4.08885    -6.61915     0.53778
 C    -3.21757    -6.22937     1.55584
 C    -3.64281    -6.25445     2.87951
 H    -6.82752    -7.40738     2.41184
 H    -6.06184    -7.35179     0.04214
 H    -3.75313    -6.59848    -0.50039
 H    -2.20289    -5.91562     1.31748
 H    -2.96992    -5.96179     3.68951
 H    -6.87369    -7.20306     5.77643
 O    -1.08802     3.50805     3.35242
 O     1.09757     3.43004     2.95269
 C     0.08572     4.09271     3.13050
 C     0.03171     5.56127     3.10582
 C    -1.18507     6.24138     3.05562
 C    -1.18951     7.63496     3.01978
 C     0.01211     8.33912     3.03085
 C     1.22680     7.65396     3.07564
 C     1.23913     6.26417     3.11852
 H    -2.12598     5.68009     3.04318
 H    -2.14168     8.17158     2.99340
 H     0.00338     9.43077     3.00871
 H     2.16641     8.20402     3.08985
 H     2.18345     5.71568     3.17294
 H    -1.07538     2.47760     3.29785
 O    -5.62378    -6.03681     7.98757
 O    -7.44862    -7.10720     7.29626
 C    -6.80067    -6.61123     8.20768
 C    -7.21556    -6.60238     9.61673
 C    -6.31081    -6.28994    10.63153
 C    -6.73778    -6.31306    11.95821
 C    -8.05357    -6.65396    12.26264
 C    -8.95353    -6.96557    11.24305
 C    -8.53923    -6.93216     9.91630
 H    -5.27492    -6.03133    10.38244
 H    -6.03623    -6.05229    12.75547
 H    -8.38360    -6.67370    13.30323
 H    -9.98413    -7.22364    11.47986
 H    -9.23939    -7.15208     9.10594
 H    -5.29242    -6.08512     7.00989
 O    -0.02232     4.32541     6.05044
 O    -2.20815     4.39893     6.45346
 C    -1.19335     3.73931     6.27794
 C    -1.13660     2.27183     6.31024
 C     0.08231     1.59856     6.39146
 C     0.09233     0.20516     6.42709
 C    -1.10589    -0.50359     6.38697
 C    -2.32372     0.17452     6.31768
 C    -2.34117     1.56440     6.27451
 H     1.01992     2.16510     6.42899
 H     1.04601    -0.32768     6.47580
 H    -1.09220    -1.59509     6.40486
 H    -3.25855    -0.38233     6.28358
 H    -3.28537     2.10956     6.20133
 H    -0.03634     5.35632     6.11279
 O    -7.63594    -3.72704     8.11446
 O    -5.79171    -2.69511     8.81299
 C    -6.45496    -3.15801     7.89566
 C    -6.05589    -3.12245     6.48233
 C    -6.94519    -3.47752     5.46836
 C    -6.53131    -3.40023     4.13924
 C    -5.24039    -2.97678     3.83278
 C    -4.35322    -2.62428     4.85123
 C    -4.75929    -2.69782     6.17874
 H    -7.95864    -3.81193     5.71878
 H    -7.22394    -3.68256     3.34166
 H    -4.91845    -2.92446     2.79090
 H    -3.34098    -2.30471     4.60989
 H    -4.07451    -2.43726     6.98943
 H    -7.96108    -3.68107     9.09464
 O    -4.34863     1.16184    -2.77408
 O    -2.15415     1.10155    -3.13914
 C    -3.17499     1.75386    -2.97238
 C    -3.23759     3.22172    -2.97057
 C    -4.45821     3.89490    -3.01718
 C    -4.47144     5.28877    -3.01921
 C    -3.27449     5.99946    -2.98747
 C    -2.05601     5.32109    -2.94805
 C    -2.03435     3.93102    -2.92838
 H    -5.39493     3.32787    -3.05487
 H    -5.42635     5.82102    -3.03880
 H    -3.28993     7.09104    -2.98913
 H    -1.12028     5.87633    -2.92029
 H    -1.08750     3.38809    -2.86873
 H    -4.33544     0.13369    -2.85528
 O    -8.80811    -8.38647     1.99376
 O   -10.64560    -9.44271     1.31149
 C    -9.98874    -8.95421     2.21990
 C   -10.40140    -8.93554     3.62990
 C    -9.51575    -8.55809     4.63888
 C    -9.94802    -8.56137     5.96398
 C   -11.25162    -8.94113     6.27320
 C   -12.13273    -9.32184     5.26045
 C   -11.71165    -9.31325     3.93533
 H    -8.49112    -8.26363     4.38615
 H    -9.25971    -8.25710     6.75745
 H   -11.58637    -8.93558     7.31222
 H   -13.15378    -9.61316     5.50173
 H   -12.39662    -9.58757     3.12883
 H    -8.47461    -8.45284     1.01966
 O    -3.23681     1.93038     0.12666
 O    -5.43342     1.99930     0.45739
 C    -4.41615     1.33975     0.30001
 C    -4.35453    -0.12953     0.29079
 C    -3.13152    -0.80073     0.27605
 C    -3.11257    -2.19453     0.28630
 C    -4.30638    -2.91085     0.30756
 C    -5.52814    -2.23632     0.31407
 C    -5.55509    -0.84540     0.30218
 H    -2.19470    -0.23253     0.25652
 H    -2.15545    -2.72328     0.27216
 H    -4.28546    -4.00276     0.31558
 H    -6.46107    -2.79747     0.31786
 H    -6.50525    -0.30551     0.28867
 H    -3.25299     2.95859     0.18926
 O   -10.90346    -5.99441     2.12231
 O    -9.07824    -4.92183     2.81026
 C    -9.72720    -5.41411     1.89866
 C    -9.31566    -5.42390     0.48795
 C   -10.20246    -5.81451    -0.51550
 C    -9.78479    -5.79551    -1.84502
 C    -8.49295    -5.38494    -2.16399
 C    -7.60727    -4.99780    -1.15724
 C    -8.01395    -5.02360     0.17259
 H   -11.21840    -6.13222    -0.25541
 H   -10.47451    -6.11002    -2.63337
 H    -8.17026    -5.36962    -3.20664
 H    -6.59482    -4.68688    -1.40986
 H    -7.32463    -4.74595     0.97359
 H   -11.23980    -5.93465     3.09454
 O    -5.43070     4.66992     0.57788
 O    -3.23354     4.60002     0.25189
 C    -4.25254     5.26032     0.39469
 C    -4.31496     6.72907     0.37500
 C    -5.53693     7.39957     0.31583
 C    -5.55488     8.79345     0.29533
 C    -4.36070     9.50905     0.31815
 C    -3.14053     8.83439     0.37134
 C    -3.11492     7.44445     0.41176
 H    -6.47265     6.82952     0.28464
 H    -6.51170     9.32273     0.27001
 H    -4.38058    10.60059     0.29744
 H    -2.20711     9.39393     0.39501
 H    -2.16630     6.90615     0.48506
 H    -5.41670     3.64209     0.51903
 O    -9.93466    -4.88126     5.33657
 O   -11.79724    -5.87547     4.63790
 C   -11.13034    -5.41927     5.55596
 C   -11.53134    -5.41439     6.97036
 C   -10.63352    -5.05074     7.97454
 C   -11.04818    -5.06997     9.30524
 C   -12.34724    -5.45471     9.62616
 C   -13.24208    -5.81683     8.61924
 C   -12.83903    -5.78902     7.28876
 H    -9.61160    -4.75146     7.71478
 H   -10.35076    -4.77293    10.09386
 H   -12.66824    -5.46835    10.66916
 H   -14.26046    -6.10856     8.86966
 H   -13.53786    -6.04503     6.48859
 H    -9.61528    -4.91591     4.35615
 O    -4.34147     5.48588     3.42274
 O    -6.54770     5.54840     3.70036
 C    -5.52063     4.89438     3.58845
 C    -5.45198     3.42760     3.63243
 C    -4.22629     2.76238     3.65117
 C    -4.20482     1.36962     3.69891
 C    -5.39812     0.65307     3.72658
 C    -6.62262     1.32229     3.71313
 C    -6.65191     2.71163     3.66226
 H    -3.29170     3.33445     3.62893
 H    -3.24658     0.84261     3.70639
 H    -5.37552    -0.43790     3.75413
 H    -7.55374     0.75840     3.72916
 H    -7.60177     3.25127     3.63222
 H    -4.36262     6.51675     3.46743
 O   -11.99426    -2.45983     5.44580
 O   -10.12657    -1.46883     6.13785
 C   -10.80356    -1.91275     5.22114
 C   -10.41426    -1.88896     3.80458
 C   -11.31680    -2.24039     2.80091
 C   -10.91098    -2.18807     1.46817
 C    -9.61866    -1.78264     1.14555
 C    -8.71962    -1.43030     2.15341
 C    -9.11275    -1.49042     3.48570
 H   -12.33541    -2.55133     3.06180
 H   -11.61215    -2.47340     0.67939
 H    -9.30733    -1.74530     0.09976
 H    -7.70816    -1.12020     1.89913
 H    -8.41388    -1.23961     4.28735
 H   -12.31170    -2.42257     6.42626
