   99
 
Cl     0.00000     0.00000     0.00000
Be     1.91342     0.36218     0.01402
Cl     2.78483     2.12098    -0.02551
Cl    -5.54651    -3.96772     1.75060
Be    -5.04940    -2.17955     1.13529
Cl    -4.96940    -1.56430    -0.70744
Cl     5.62585     0.47864    -4.32592
Be     6.20727     0.35940    -6.18423
Cl     8.02042    -0.10013    -6.70214
 O     2.61148    -0.45654     1.29969
 C     2.13716    -1.85436     1.46039
 C     2.90211     0.23714     2.56765
 C     3.30412    -2.71242     1.89377
 C     1.63329     0.64863     3.27976
 O    -6.08654    -1.13084     1.90455
 C    -6.14672    -1.29037     3.37471
 C    -7.33553    -0.66816     1.27430
 C    -6.12992     0.09729     3.98184
 C    -8.27985    -1.81970     1.00757
 O     5.14265    -0.66249    -6.99108
 C     3.71503    -0.38556    -6.70179
 C     5.49720    -2.09188    -7.06888
 C     2.87741    -0.77808    -7.90280
 C     5.81443    -2.67170    -5.70916
 O     2.57529    -0.54981    -1.22726
 C     4.05321    -0.45083    -1.27989
 C     1.90572    -0.67390    -2.53626
 C     4.60539    -1.80079    -1.68153
 C     1.78918     0.67257    -3.21767
 O     5.82806     1.78170    -6.97212
 C     6.02502     1.80287    -8.43927
 C     6.10049     3.05473    -6.28374
 C     4.84676     2.49772    -9.08992
 C     7.58006     3.33564    -6.14647
 O    -3.65621    -1.71794     1.95119
 C    -3.20763    -0.33488     1.65581
 C    -2.56502    -2.68863     2.14270
 C    -2.58819     0.25445     2.90432
 C    -2.00434    -3.14030     0.81431
 H     1.79238    -2.12719     0.43334
 H     1.30432    -1.83202     2.19617
 H     3.51466    -0.47298     3.17285
 H     3.51235     1.10675     2.22978
 H     4.23698    -2.40923     1.35682
 H     3.08017    -3.77475     1.62011
 H     3.48060    -2.65136     2.99221
 H     1.89294     1.39281     4.06849
 H     1.12956    -0.22720     3.75544
 H     0.90983     1.11483     2.56834
 H    -5.21120    -1.85297     3.62062
 H    -7.06159    -1.87630     3.60004
 H    -6.96378    -0.18077     0.34153
 H    -7.76661     0.06945     1.98579
 H    -5.52051     0.77889     3.33871
 H    -5.64121     0.06117     4.98623
 H    -7.15529     0.51539     4.08778
 H    -7.76554    -2.61368     0.41472
 H    -9.15820    -1.44558     0.43283
 H    -8.63455    -2.27387     1.96413
 H     3.72283     0.72204    -6.54914
 H     3.45151    -0.94622    -5.77880
 H     6.37695    -2.04934    -7.75119
 H     4.63483    -2.60690    -7.55107
 H     3.49445    -0.73226    -8.82944
 H     2.45026    -1.80440    -7.79064
 H     2.03341    -0.05327    -8.03381
 H     6.68636    -2.15680    -5.23458
 H     6.06190    -3.75275    -5.82876
 H     4.94355    -2.57656    -5.02034
 H     4.33132    -0.20326    -0.22441
 H     4.30232     0.36849    -1.98675
 H     2.51001    -1.39375    -3.13330
 H     0.92029    -1.11397    -2.24974
 H     5.67092    -1.87276    -1.35477
 H     4.04086    -2.61706    -1.16707
 H     4.56313    -1.94999    -2.78208
 H     2.78075     1.01107    -3.60152
 H     1.07933     0.58144    -4.07270
 H     1.40468     1.44342    -2.50544
 H     6.98834     2.32567    -8.63350
 H     6.06354     0.72059    -8.70979
 H     5.59256     2.88736    -5.30558
 H     5.58619     3.83487    -6.88857
 H     5.11579     2.74142   -10.14573
 H     3.93728     1.84957    -9.10081
 H     4.61016     3.45707    -8.57405
 H     8.12130     2.45077    -5.73033
 H     8.02555     3.59987    -7.13632
 H     7.71985     4.20503    -5.46193
 H    -2.50135    -0.39566     0.79928
 H    -4.16185     0.17797     1.38161
 H    -1.79409    -2.18075     2.77018
 H    -3.07986    -3.49811     2.70979
 H    -1.53139    -0.07124     3.03792
 H    -3.17602    -0.02488     3.81243
 H    -2.59231     1.36932     2.81545
 H    -1.28103    -3.96855     0.99382
 H    -2.81026    -3.50144     0.13025
 H    -1.47148    -2.29927     0.30552
