   72
 
Be     0.00000     0.00000     0.00000
Be     0.01246    -1.39003    -3.87457
Be     1.23456    -3.46337     3.28751
Be     4.54903    -3.01490     0.41989
Be     2.45810     4.22948    -4.95303
Be    -0.17256     4.90136    -0.86393
Be     4.08598     1.73986    -2.59122
Be     2.73087     3.12952     2.75845
 P    -2.32319     0.99674     0.36895
 P    -0.25406     1.39748     3.91874
 P    -2.01110    -3.95630     1.20507
 P    -0.16898    -3.00922     5.22315
 P    -0.10303    -4.99940    -2.21345
 P     1.92395    -4.55802     1.61853
 P     5.63237     0.94102    -0.40640
 P     1.58725     1.17807     0.53597
 P    -1.01681     3.70728     1.78764
 P     1.60789     4.68763     2.77633
 P     0.62066    -2.10617    -1.01633
 P     3.50388    -1.23681     0.26438
 P    -2.48999    -1.27027     2.27354
 P     0.31742    -1.35953     3.20165
 P     5.99935     3.76801     0.56386
 P     3.17621     2.91782    -1.19916
 O    -3.75852     1.05731    -0.42204
 O     0.86791     1.96232     4.82281
 O    -1.80338    -4.90057     2.40968
 O    -0.47141    -3.11313     3.60715
 O    -1.61968    -5.14356    -2.91698
 O     2.86361    -3.90262     2.74955
 O     0.14455    -0.99086    -2.05527
 O     1.17083     0.75554    -1.00225
 O    -2.90338     0.03171     1.50153
 O     0.68039     0.20287     3.33029
 O    -2.75247    -2.55946     1.43539
 O     0.31206    -1.50905     4.83845
 O    -0.26757    -6.42808    -1.52357
 O     3.27635     4.42496    -0.67739
 O     6.18590     2.13912     0.58754
 O     2.44823     2.44383     0.17388
 O    -1.69204     2.37635     0.86634
 O    -0.38138     2.62269     2.92652
 O     1.67041     6.28260     2.96211
 O    -0.34207    -5.54840     4.55471
 O     0.19874    -3.54014    -1.58282
 O     1.42826    -3.76232     0.32917
 O     4.17326     0.26255    -0.01596
 O     2.25105    -0.29345     0.77247
 O    -1.48682     0.14923    -0.57672
 O     2.25879    -0.81364    -2.62372
 O     5.22281    -3.27039     2.99750
 O    -1.44543    -3.63771     5.78132
 O     0.74791    -5.20854    -3.47721
 O     0.56684    -4.76076     2.35287
 O     6.66514     0.68970    -1.52009
 O     0.25249     1.11848     1.28476
 O    -0.18508     3.33298     0.55625
 O    -2.17514     4.48645     2.34911
 O     2.50488     4.29379     1.60969
 O     5.70015     2.15418    -2.98065
 O     2.27196    -1.91221    -0.79399
 O     0.12440    -1.59545     0.34803
 O     2.54181    -3.33762    -0.47528
 O     3.60340    -2.13900     1.50453
 O    -0.91974    -1.12617     2.27527
 O    -3.10944    -1.07804     3.62510
 O     1.48144    -1.97037     2.48022
 O    -5.26444    -0.63138     3.65469
 O     2.59542     2.46690    -2.53442
 O     7.19405     4.42684     1.30427
 O     4.63583     2.31913    -0.91125
 O     4.68155     4.26487     1.14600
