   96
 
Be     0.00000     0.00000     0.00000
Be    -0.39369     3.86293     2.62352
 S    -0.19684     2.82235     0.00000
 S     0.19684    -1.04058    -2.62353
 O     0.24891     1.44995     0.52471
 O    -1.46808    -0.52285     0.10494
 O    -0.04165     3.88031     1.10188
 O    -1.67279     2.76876    -0.41976
 O     0.64260    -2.41298    -2.09882
 O     1.07185    -0.67254    -3.83035
 O     0.35203     0.01738    -1.52164
 O     0.86713    -0.94449     0.89200
Be     5.07985    -3.86293    -2.62352
Be     4.68616     0.00000     0.00000
 S     4.88301    -1.04058    -2.62352
 S     5.27669    -4.90351    -5.24705
 O     5.32876    -2.41298    -2.09882
 O     3.61177    -4.38578    -2.51858
 O     5.03820     0.01738    -1.52164
 O     3.40706    -1.09418    -3.04329
 O     5.72245    -6.27591    -4.72234
 O     6.15170    -4.53547    -6.45387
 O     5.43188    -3.84555    -4.14517
 O     5.94698    -4.80742    -1.73153
Be    -2.14624    -3.71324     1.31176
Be    -2.53993     0.14969     3.93529
 S    -2.34308    -0.89089     1.31176
 S    -1.94939    -4.75382    -1.31176
 O    -1.89732    -2.26329     1.83647
 O    -3.61431    -4.23609     1.41670
 O    -2.18789     0.16707     2.41364
 O    -3.81903    -0.94449     0.89200
 O    -1.50364    -6.12622    -0.78706
 O    -1.07439    -4.38578    -2.51858
 O    -1.79420    -3.69586    -0.20988
 O    -1.27911    -4.65773     2.20376
Be     2.93361    -7.57617    -1.31176
Be     2.53992    -3.71324     1.31176
 S     2.73677    -4.75382    -1.31176
 S     3.13046    -8.61675    -3.93529
 O     3.18253    -6.12622    -0.78706
 O     1.46554    -8.09902    -1.20682
 O     2.89196    -3.69586    -0.20988
 O     1.26082    -4.80742    -1.73153
 O     3.57621    -9.98915    -3.41058
 O     4.00546    -8.24871    -5.14211
 O     3.28565    -7.55879    -2.83341
 O     3.80074    -8.52066    -0.41976
Be     2.14624     0.14969     3.93529
Be     1.75255     4.01262     6.55881
 S     1.94939     2.97204     3.93529
 S     2.34308    -0.89089     1.31176
 O     2.39515     1.59964     4.45999
 O     0.67816    -0.37316     4.04023
 O     2.10458     4.03000     5.03717
 O     0.47344     2.91844     3.51552
 O     2.78884    -2.26329     1.83647
 O     3.21808    -0.52285     0.10494
 O     2.49827     0.16707     2.41364
 O     3.01337    -0.79480     4.82729
Be     7.22609    -3.71324     1.31176
Be     6.83240     0.14969     3.93529
 S     7.02924    -0.89089     1.31176
 S     7.42293    -4.75382    -1.31176
 O     7.47500    -2.26329     1.83647
 O     5.75801    -4.23609     1.41670
 O     7.18443     0.16707     2.41364
 O     5.55329    -0.94449     0.89200
 O     7.86869    -6.12622    -0.78706
 O     8.29793    -4.38578    -2.51858
 O     7.57812    -3.69586    -0.20988
 O     8.09322    -4.65773     2.20376
Be    -0.00000    -3.56355     5.24705
Be    -0.39369     0.29938     7.87057
 S    -0.19685    -0.74120     5.24705
 S     0.19684    -4.60413     2.62352
 O     0.24891    -2.11360     5.77175
 O    -1.46808    -4.08640     5.35199
 O    -0.04166     0.31676     6.34893
 O    -1.67279    -0.79480     4.82729
 O     0.64260    -5.97653     3.14823
 O     1.07185    -4.23609     1.41670
 O     0.35203    -3.54617     3.72541
 O     0.86713    -4.50804     6.13905
Be     5.07985    -7.42648     2.62352
Be     4.68616    -3.56355     5.24705
 S     4.88300    -4.60413     2.62352
 S     5.27669    -8.46706    -0.00000
 O     5.32876    -5.97653     3.14823
 O     3.61177    -7.94933     2.72847
 O     5.03819    -3.54617     3.72541
 O     3.40705    -4.65773     2.20376
 O     5.72245    -9.83947     0.52470
 O     6.15170    -8.09902    -1.20682
 O     5.43188    -7.40910     1.10188
 O     5.94698    -8.37097     3.51552
