   96
 
 C     0.00000     0.00000     0.00000
 C     1.52438     0.18008     0.15344
 C     1.87519     1.66545     0.25458
 C     1.20109     2.53184    -0.83330
 C    -0.32270     2.27204    -0.79430
 C    -1.06002     2.97395    -1.93088
 H    -0.57373     0.16650     0.93342
 H     2.41094    -1.26204     1.21073
 H     3.77998     1.00354     0.06162
 H     1.54492     2.90041    -2.76769
 H     2.08677    -0.32884    -0.67537
 H     1.55068     2.05724     1.25798
 H     1.46220     3.60596    -0.66662
 H    -0.75218     2.53171     0.20428
 H    -0.61278     2.71514    -2.92212
 H    -1.09647     4.08059    -1.74252
 H    -2.70686     2.31791    -2.85889
 H    -1.08627    -1.46238    -0.91028
 O    -0.17019    -1.29896    -0.50013
 O     1.86023    -0.42472     1.41444
 O     3.28731     1.86465     0.19098
 O     1.66423     2.13022    -2.13469
 O    -0.54270     0.85732    -1.03737
 O    -2.42380     2.49153    -1.90629
 C    -2.16282     5.55406     2.33410
 C    -2.80986     4.90145     1.09689
 C    -3.62303     3.65520     1.49384
 C    -2.86891     2.74650     2.48778
 C    -2.05126     3.48360     3.56347
 C    -1.02296     2.53161     4.17115
 H    -2.89402     5.94311     3.07724
 H    -3.30131     6.38402    -0.15862
 H    -3.05150     2.41088     0.01342
 H    -1.97247     1.05753     1.86770
 H    -2.04249     4.67808     0.31917
 H    -4.63348     3.93581     1.87824
 H    -3.58492     2.03639     2.97614
 H    -2.72203     3.93354     4.34807
 H    -0.30659     2.14974     3.40517
 H    -1.55986     1.70145     4.69650
 H     0.71839     3.06179     5.09672
 H    -1.27989     7.33664     2.62326
 O    -1.25784     6.54411     1.92517
 O    -3.76013     5.84855     0.59334
 O    -3.89827     2.87034     0.32630
 O    -1.96578     2.02301     1.62903
 O    -1.29554     4.58035     2.98391
 O    -0.29229     3.28385     5.16952
 C    -0.95350     0.44085    -4.90307
 C    -0.93232    -0.35199    -3.58212
 C    -1.27449    -1.82913    -3.84121
 C    -2.46964    -2.04150    -4.79097
 C    -2.54782    -1.03937    -5.95851
 C    -3.97241    -1.01122    -6.50566
 H    -0.17550     0.12075    -5.62431
 H     0.55212     0.45228    -2.50795
 H    -2.45324    -2.21575    -2.24933
 H    -4.29429    -2.61484    -4.17109
 H    -1.58094     0.11678    -2.80794
 H    -0.36756    -2.35440    -4.23723
 H    -2.44522    -3.08772    -5.19402
 H    -1.79209    -1.28157    -6.75134
 H    -4.71067    -0.73148    -5.71355
 H    -4.20520    -2.00731    -6.95505
 H    -4.93327     0.45990    -7.51965
 H    -0.29304     2.27783    -5.40114
 O    -0.86775     1.81538    -4.64238
 O     0.44143    -0.33851    -3.15723
 O    -1.55925    -2.50274    -2.61337
 O    -3.62833    -1.90501    -3.95152
 O    -2.26604     0.31551    -5.51796
 O    -4.01021    -0.01086    -7.55215
 C    -3.33603     5.41688    -2.50379
 C    -4.28481     6.59057    -2.81785
 C    -3.48837     7.85299    -3.15755
 C    -2.35436     8.15327    -2.15047
 C    -1.46161     6.90336    -1.99837
 C    -0.40707     7.04189    -0.89946
 H    -2.83809     4.95361    -3.37801
 H    -5.98847     6.06207    -3.71973
 H    -5.29112     8.74913    -2.94526
 H    -2.23765     8.85298    -0.28886
 H    -5.00059     6.75655    -1.96949
 H    -3.04733     7.75403    -4.18880
 H    -1.78277     9.05396    -2.48922
 H    -0.99635     6.63447    -2.97766
 H    -0.87564     7.27979     0.08611
 H     0.38400     7.78012    -1.20122
 H     0.32801     5.52462     0.18876
 H    -3.59172     3.75699    -1.35254
 O    -4.12580     4.50726    -1.79197
 O    -5.01638     6.22640    -3.99968
 O    -4.35910     8.98484    -3.20902
 O    -2.93209     8.41018    -0.86200
 O    -2.30062     5.80489    -1.55613
 O     0.25280     5.75906    -0.78882
