   76
 
Fe     0.00000     0.00000     0.00000
Cl    -3.03929    -6.66008    -2.76876
Cl     0.01019    -4.81941    -2.76876
Cl    -0.51583    -7.26248    -0.19983
Cl    -2.47148    -4.28294    -0.23782
Fe    -1.48971    -5.78896    -1.48963
Fe    -5.62449     1.16024    -2.39500
Cl    -4.53146    -0.18326    -1.05519
Cl    -6.60410     2.71056    -1.18691
Cl    -7.11552     0.12544    -3.61595
Cl    -4.14061     2.08597    -3.71540
Cl     1.54994     0.87102     1.27820
Cl    -1.49953    -0.96965     1.27820
Cl    -0.97352     1.47342    -1.29073
Cl     0.98178    -1.50602    -1.25181
Fe    -7.14046    -4.75599    -3.88109
Cl    -8.23349    -3.41249    -5.22090
Cl    -6.16086    -6.30631    -5.08919
Cl    -5.64943    -3.72119    -2.66014
Cl    -8.62399    -5.68183    -2.56163
 O    -6.53850    -2.83573     0.47964
 O    -6.74750    -0.78097     1.33913
 C    -4.66419    -1.15061     3.17241
 C    -4.95020    -2.18957     2.11074
 C    -6.17297    -1.87196     1.26448
 N    -4.35925     0.19854     2.56397
 H    -4.33460    -2.31309     1.53852
 H    -5.23028    -3.19273     2.45286
 H    -3.86990    -1.39363     3.66915
 H    -5.59600    -1.05403     3.95575
 H    -3.67621     0.28229     1.93840
 H    -4.35955     0.70337     3.19432
 H    -4.98064     0.61785     2.12318
 H    -7.07139    -2.65539    -0.25793
 O    -4.73973    -9.27649     2.33586
 O    -3.74492    -7.52085     1.37130
 C    -5.82425    -7.13369    -0.46339
 C    -5.96081    -8.14282     0.65524
 C    -4.70288    -8.29008     1.49677
 N    -5.56436    -5.74348     0.06976
 H    -6.56873    -7.98209     1.22643
 H    -6.10410    -9.19165     0.37022
 H    -6.65530    -7.06885    -0.95519
 H    -4.93925    -7.45534    -1.23955
 H    -6.15131    -5.36328     0.68150
 H    -5.37101    -5.31443    -0.58750
 H    -4.82263    -5.58136     0.49344
 H    -4.17089    -9.28257     3.06859
 O     2.57141    -2.26201     4.50345
 O     2.78006    -4.31667     3.64489
 C     0.69675    -3.94703     1.81161
 C     0.98311    -2.90817     2.87234
 C     2.20497    -3.22561     3.71824
 N     0.39181    -5.29618     2.42004
 H     0.36751    -2.78465     3.44457
 H     1.26284    -1.90491     2.53116
 H    -0.09719    -3.70412     1.31393
 H     1.62856    -4.04361     1.02826
 H    -0.29088    -5.38003     3.04469
 H     0.39210    -5.80101     1.78969
 H     1.01320    -5.71550     2.86083
 H     3.10394    -2.44225     5.24195
 O     0.77229     4.17885     2.64815
 O    -0.22252     2.42321     3.61272
 C     1.85716     2.03594     5.44648
 C     1.99337     3.04517     4.32877
 C     0.73544     3.19244     3.48725
 N     1.59691     0.64583     4.91425
 H     2.60164     2.88435     3.75665
 H     2.13701     4.09391     4.61287
 H     2.68785     1.97121     5.93920
 H     0.97181     2.35770     6.22356
 H     2.18386     0.26563     4.30252
 H     1.40392     0.21669     5.57059
 H     0.85555     0.48362     4.48964
 H     0.20380     4.18482     1.91450
