   96
 
 O     0.00000     0.00000     0.00000
 O     2.68984     1.55847     4.33050
Si     0.03004     0.01913     7.05753
Si     2.68647     1.55552     2.69679
Si     0.00976     0.00599     1.63371
 O     1.36476     0.78960     6.51134
 O     4.03897     0.79619     6.49878
 O     2.69697     3.10844     6.49873
 O     1.34951     0.77975     2.16328
 O     4.02390     0.78553     2.15575
 O     2.68218     3.09845     2.15451
Si     2.69753     1.56302     5.96415
 O     2.67782    -4.62595     0.00038
 O     5.36773    -3.06776     4.33107
Si     2.70529    -4.60886     7.05766
Si     5.36124    -3.07244     2.69763
Si     2.68480    -4.62209     1.63428
 O     4.03775    -3.83650     6.50818
 O     6.71120    -3.83625     6.49994
 O     5.37468    -1.52020     6.50092
 O     4.02171    -3.84561     2.16757
 O     6.69536    -3.84717     2.15602
 O     5.36019    -1.53023     2.15307
Si     5.37271    -3.06502     5.96446
 O     2.68224     4.63702    -0.02309
 O     5.38168     6.17994     4.30681
Si     2.71037     4.65355     7.03367
Si     5.37476     6.17717     2.67310
Si     2.68984     4.64071     1.61094
 O     4.04998     5.41510     6.48599
 O     6.72514     5.41503     6.47696
 O     5.38859     7.73006     6.47401
 O     4.03416     5.40593     2.14196
 O     6.70914     5.40377     2.12914
 O     5.37409     7.71981     2.13101
Si     5.38593     6.18461     5.94034
 O     5.35050     0.01139    -0.02280
 O     8.05074     1.55364     4.30739
Si     5.37857     0.02573     7.03392
Si     8.04340     1.54916     2.67399
Si     5.35858     0.01279     1.61130
 O     6.71358     0.79477     6.48505
 O     9.38788     0.77779     6.47696
 O     8.06662     3.10164     6.47571
 O     6.69881     0.78485     2.14340
 O     9.37279     0.76691     2.13173
 O     8.05215     3.09126     2.13035
Si     8.05413     1.55665     5.94072
 O     0.03641     0.02159     8.69094
 O     2.72840     1.58033    13.02036
Si     0.07273     0.04083    15.74821
Si     2.72113     1.57684    11.38667
Si     0.04411     0.02759    10.32428
 O     1.40867     0.81112    15.20441
 O     4.08248     0.81783    15.18759
 O     2.74036     3.12997    15.19013
 O     1.38309     0.80168    10.85500
 O     4.05707     0.80636    10.84336
 O     2.71630     3.11933    10.84360
Si     2.74018     1.58480    14.65443
 O     2.71381    -4.60433     8.69118
 O     5.40638    -3.04593    13.02099
Si     2.74807    -4.58684    15.74838
Si     5.39640    -3.05112    11.38756
Si     2.71972    -4.60054    10.32482
 O     4.08135    -3.81401    15.20145
 O     6.75456    -3.81434    15.18911
 O     5.41857    -1.49844    15.19214
 O     4.05645    -3.82450    10.85889
 O     6.72963    -3.82583    10.84411
 O     5.39425    -1.50929    10.84244
Si     5.41547    -3.04307    14.65476
 O     2.71839     4.65797     8.66733
 O     5.41970     6.20147    12.99651
Si     2.75308     4.67535    15.72474
Si     5.40964     6.19863    11.36284
Si     2.72472     4.66188    10.30109
 O     4.09376     5.43687    15.17946
 O     6.76856     5.43701    15.16578
 O     5.43159     7.75164    15.16485
 O     4.06891     5.42689    10.83269
 O     6.74351     5.42580    10.81741
 O     5.40803     7.74126    10.82055
Si     5.42832     6.20624    14.63049
 O     5.38623     0.03245     8.66760
 O     8.08875     1.57513    12.99711
Si     5.42149     0.04766    15.72494
Si     8.07760     1.57066    11.36368
Si     5.39286     0.03396    10.30148
 O     6.75750     0.81689    15.17862
 O     9.43140     0.79984    15.16549
 O     8.11008     3.12357    15.16627
 O     6.73223     0.80669    10.83445
 O     9.40587     0.78843    10.81913
 O     8.08610     3.11253    10.81962
Si     8.09676     1.57857    14.63073
