   96
 
 C     0.00000     0.00000     0.00000
 C     1.54290    -0.03357    -0.08350
 C     2.02012     1.42760     0.02887
 C     1.30823     2.32358    -1.01669
 C    -0.22421     2.16404    -0.88270
 C    -1.00081     2.87656    -1.99754
 H    -0.36846     0.40215     0.97617
 H     2.19158    -1.64717     0.93614
 H     3.87523     0.70002    -0.25593
 H     1.69762     2.60860    -2.93172
 H     1.92671    -0.54632    -0.99006
 H     1.82702     1.81825     1.06227
 H     1.62655     3.38013    -0.89924
 H    -0.59632     2.49672     0.11755
 H    -0.63802     2.61910    -3.00957
 H    -0.98220     3.97987    -1.85325
 H    -2.68808     1.97648    -2.62628
 H    -1.51607    -1.23847     0.04480
 O    -0.51728    -1.27503    -0.19982
 O     1.98093    -0.68081     1.08774
 O     3.40266     1.56689    -0.15415
 O     1.67903     1.85044    -2.29467
 O    -0.51549     0.78769    -1.06678
 O    -2.35591     2.48433    -1.84095
 C    -2.32932     6.25310     3.20113
 C    -2.86386     5.66132     1.87528
 C    -3.69336     4.42123     2.25420
 C    -2.88209     3.44777     3.14893
 C    -2.29402     4.20661     4.36027
 C    -1.29957     3.36566     5.17487
 H    -3.14049     6.60087     3.88537
 H    -3.34916     7.17875     0.64225
 H    -3.91942     4.09773     0.27918
 H    -1.61111     2.02569     2.64523
 H    -2.05590     5.44232     1.14698
 H    -4.62729     4.73910     2.78623
 H    -3.52558     2.60130     3.47211
 H    -3.10045     4.60112     5.02764
 H    -0.55443     2.84222     4.54997
 H    -1.83801     2.63586     5.82145
 H     0.32027     4.33567     5.88822
 H    -1.24517     7.79375     3.78043
 O    -1.46763     7.30189     2.90400
 O    -3.76302     6.61781     1.36045
 O    -4.14700     3.68517     1.15241
 O    -1.81618     2.95455     2.36587
 O    -1.52244     5.28473     3.85927
 O    -0.65325     4.27167     6.05577
 C    -0.83636     0.06445    -5.17155
 C    -0.77346    -0.43564    -3.70933
 C    -1.15745    -1.92719    -3.73937
 C    -2.53731    -2.11385    -4.41447
 C    -2.49827    -1.48008    -5.82210
 C    -3.87007    -1.43797    -6.50741
 H    -0.10055    -0.44727    -5.83850
 H     0.79305     0.45023    -2.80812
 H    -0.97320    -1.89858    -1.73610
 H    -4.34830    -1.89690    -3.66935
 H    -1.40796     0.16135    -3.02190
 H    -0.37791    -2.51701    -4.28758
 H    -2.81054    -3.18939    -4.45344
 H    -1.75068    -1.99045    -6.47946
 H    -4.66502    -1.02839    -5.85929
 H    -4.16004    -2.44390    -6.88324
 H    -4.28943     0.17855    -7.64037
 H    -0.51149     1.71900    -6.18173
 O    -0.63002     1.44092    -5.19972
 O     0.58141    -0.37337    -3.33725
 O    -1.22817    -2.51517    -2.47096
 O    -3.48080    -1.41836    -3.62546
 O    -2.15237    -0.11384    -5.67382
 O    -3.69037    -0.61114    -7.64938
 C    -3.46242     5.63092    -1.96832
 C    -4.51934     6.76099    -1.99898
 C    -3.79467     8.02868    -2.48682
 C    -2.54637     8.32575    -1.62020
 C    -1.64231     7.07389    -1.58447
 C    -0.47588     7.19431    -0.59321
 H    -3.04981     5.39514    -2.97799
 H    -6.24505     5.95713    -2.65362
 H    -5.53422     9.00609    -2.18900
 H    -2.37568     9.24946     0.11082
 H    -5.03722     6.90441    -1.02844
 H    -3.49522     7.90772    -3.56173
 H    -2.01089     9.21498    -2.01571
 H    -1.25652     6.81724    -2.60174
 H    -0.77209     7.61581     0.38385
 H     0.35265     7.79470    -1.02978
 H    -0.03335     5.55340     0.49461
 H    -3.39591     3.69991    -1.56844
 O    -4.02813     4.48934    -1.40810
 O    -5.42783     6.40811    -3.01273
 O    -4.59848     9.17321    -2.47429
 O    -2.99146     8.59389    -0.30615
 O    -2.41474     5.99582    -1.08151
 O     0.02497     5.87517    -0.44137
