  128
 
 H     0.00000     0.00000     0.00000
 H     0.00000     2.42400     1.99900
 H     0.75500     0.93300     2.27800
 B     0.00000     1.11400     0.29900
 H     0.99800     1.50000    -0.20000
 H    -0.75500     0.93300     2.27800
 H    -0.99800     1.50000    -0.20000
 N     0.00000     1.35800     1.86500
 N    -2.69700    -0.93800    -0.62800
 H    -2.69700    -2.00400    -0.49400
 H    -3.45300    -0.51300    -0.21500
 B    -2.69700    -0.69400    -2.19400
 H    -2.69700     0.42000    -2.49300
 H    -3.69600    -1.08000    -2.69300
 H    -1.94200    -0.51300    -0.21500
 H    -1.69900    -1.08000    -2.69300
 H     0.00000     0.00000     4.98600
 H     0.00000     2.42400     6.98500
 H     0.75500     0.93300     7.26400
 B     0.00000     1.11400     5.28500
 H     0.99800     1.50000     4.78600
 H    -0.75500     0.93300     7.26400
 H    -0.99800     1.50000     4.78600
 N     0.00000     1.35800     6.85100
 N    -2.69700    -0.93800     4.35800
 H    -2.69700    -2.00400     4.49200
 H    -3.45300    -0.51300     4.77100
 B    -2.69700    -0.69400     2.79200
 H    -2.69700     0.42000     2.49300
 H    -3.69600    -1.08000     2.29300
 H    -1.94200    -0.51300     4.77100
 H    -1.69900    -1.08000     2.29300
 H     0.00000     4.88700     0.00000
 H     0.00000     7.31100     1.99900
 H     0.75500     5.82000     2.27800
 B     0.00000     6.00100     0.29900
 H     0.99800     6.38700    -0.20000
 H    -0.75500     5.82000     2.27800
 H    -0.99800     6.38700    -0.20000
 N     0.00000     6.24500     1.86500
 N    -2.69700     3.94900    -0.62800
 H    -2.69700     2.88300    -0.49400
 H    -3.45300     4.37400    -0.21500
 B    -2.69700     4.19300    -2.19400
 H    -2.69700     5.30700    -2.49300
 H    -3.69600     3.80700    -2.69300
 H    -1.94200     4.37400    -0.21500
 H    -1.69900     3.80700    -2.69300
 H     0.00000     4.88700     4.98600
 H     0.00000     7.31100     6.98500
 H     0.75500     5.82000     7.26400
 B     0.00000     6.00100     5.28500
 H     0.99800     6.38700     4.78600
 H    -0.75500     5.82000     7.26400
 H    -0.99800     6.38700     4.78600
 N     0.00000     6.24500     6.85100
 N    -2.69700     3.94900     4.35800
 H    -2.69700     2.88300     4.49200
 H    -3.45300     4.37400     4.77100
 B    -2.69700     4.19300     2.79200
 H    -2.69700     5.30700     2.49300
 H    -3.69600     3.80700     2.29300
 H    -1.94200     4.37400     4.77100
 H    -1.69900     3.80700     2.29300
 H     5.39500     0.00000     0.00000
 H     5.39500     2.42400     1.99900
 H     6.15000     0.93300     2.27800
 B     5.39500     1.11400     0.29900
 H     6.39300     1.50000    -0.20000
 H     4.64000     0.93300     2.27800
 H     4.39700     1.50000    -0.20000
 N     5.39500     1.35800     1.86500
 N     2.69800    -0.93800    -0.62800
 H     2.69800    -2.00400    -0.49400
 H     1.94200    -0.51300    -0.21500
 B     2.69800    -0.69400    -2.19400
 H     2.69800     0.42000    -2.49300
 H     1.69900    -1.08000    -2.69300
 H     3.45300    -0.51300    -0.21500
 H     3.69600    -1.08000    -2.69300
 H     5.39500     0.00000     4.98600
 H     5.39500     2.42400     6.98500
 H     6.15000     0.93300     7.26400
 B     5.39500     1.11400     5.28500
 H     6.39300     1.50000     4.78600
 H     4.64000     0.93300     7.26400
 H     4.39700     1.50000     4.78600
 N     5.39500     1.35800     6.85100
 N     2.69800    -0.93800     4.35800
 H     2.69800    -2.00400     4.49200
 H     1.94200    -0.51300     4.77100
 B     2.69800    -0.69400     2.79200
 H     2.69800     0.42000     2.49300
 H     1.69900    -1.08000     2.29300
 H     3.45300    -0.51300     4.77100
 H     3.69600    -1.08000     2.29300
 H     5.39500     4.88700     0.00000
 H     5.39500     7.31100     1.99900
 H     6.15000     5.82000     2.27800
 B     5.39500     6.00100     0.29900
 H     6.39300     6.38700    -0.20000
 H     4.64000     5.82000     2.27800
 H     4.39700     6.38700    -0.20000
 N     5.39500     6.24500     1.86500
 N     2.69800     3.94900    -0.62800
 H     2.69800     2.88300    -0.49400
 H     1.94200     4.37400    -0.21500
 B     2.69800     4.19300    -2.19400
 H     2.69800     5.30700    -2.49300
 H     1.69900     3.80700    -2.69300
 H     3.45300     4.37400    -0.21500
 H     3.69600     3.80700    -2.69300
 H     5.39500     4.88700     4.98600
 H     5.39500     7.31100     6.98500
 H     6.15000     5.82000     7.26400
 B     5.39500     6.00100     5.28500
 H     6.39300     6.38700     4.78600
 H     4.64000     5.82000     7.26400
 H     4.39700     6.38700     4.78600
 N     5.39500     6.24500     6.85100
 N     2.69800     3.94900     4.35800
 H     2.69800     2.88300     4.49200
 H     1.94200     4.37400     4.77100
 B     2.69800     4.19300     2.79200
 H     2.69800     5.30700     2.49300
 H     1.69900     3.80700     2.29300
 H     3.45300     4.37400     4.77100
 H     3.69600     3.80700     2.29300
