   92
 
Ge     0.00000     0.00000     0.00000
 F    -1.74675    -0.02719     0.23451
 F    -0.18463     1.71209     0.32373
 F    -0.33835     0.21942    -1.71483
 F     1.69063     0.12322    -0.41610
 F    -0.03595    -1.75444    -0.12869
 F     0.38896    -0.40885     1.66778
Ge    -2.08648    -1.02501    -5.78942
 F    -1.39945    -2.14366    -6.96245
 F    -0.55426    -1.28607    -4.97408
 F    -2.86185    -2.41335    -5.03904
 F    -2.77961    -0.09125    -4.49019
 F    -3.42623    -0.77253    -6.90397
 F    -1.49597     0.42749    -6.59387
Ge    -5.52849    -3.70698     0.96855
 F    -3.78027    -3.68737     0.71838
 F    -5.35368    -5.41937     0.64121
 F    -5.18479    -3.96312     2.67685
 F    -7.21771    -3.82933     1.38767
 F    -5.46343    -1.96355     1.12406
 F    -5.92706    -3.30135    -0.69764
Ge    -5.90811     2.88136     2.45156
 F    -6.61288     4.00593     3.61809
 F    -7.44956     3.13076     1.65230
 F    -5.13916     4.29238     1.73356
 F    -5.19491     2.00638     1.12417
 F    -4.57189     2.65497     3.56768
 F    -6.51522     1.43147     3.24003
 N     2.25137     1.92655    -3.19993
 N     4.22055     0.61506    -3.22777
 N     2.11229    -0.49934    -3.32547
 N     0.31093     3.07564    -2.49416
 N     0.16657     1.71272    -4.44399
 C     2.84798     0.65379    -3.22676
 C     0.86028     2.22347    -3.39809
 H     2.88095     2.76310    -3.18615
 H     4.77393     1.48915    -3.25190
 H     4.71536    -0.25179    -2.96426
 H     2.56767    -1.40844    -3.13616
 H     1.08830    -0.45768    -3.18592
 H     0.85103     3.36638    -1.66457
 H    -0.64429     3.43299    -2.61080
 H    -0.85470     1.84893    -4.51644
 H     0.63682     1.14327    -5.16433
 N    -3.31182    -1.82894    -1.65071
 N    -4.98471    -0.21047    -1.22442
 N    -5.16303    -1.53864    -3.19775
 N    -1.41905    -3.01692    -2.42139
 N    -3.52958    -4.11964    -2.44631
 C    -4.50247    -1.18682    -2.05346
 C    -2.76205    -3.03147    -2.20365
 H    -2.81011    -1.44996    -0.81587
 H    -4.54413    -0.02137    -0.30971
 H    -5.74381     0.41788    -1.53064
 H    -5.94704    -0.96088    -3.54115
 H    -4.71347    -2.17631    -3.87461
 H    -0.88727    -2.13663    -2.33376
 H    -0.91384    -3.86975    -2.68530
 H    -3.14171    -4.94178    -2.93495
 H    -4.52704    -4.14425    -2.16860
 N   -10.22296    -0.08540    -0.13792
 N   -12.18905     1.22350    -0.15596
 N   -10.08120     2.33883     0.04333
 N    -8.28496    -1.23342    -0.86964
 N    -8.13393     0.10663     1.09478
 C   -10.81636     1.18679    -0.07601
 C    -8.82856    -0.38398     0.03972
 H   -10.85211    -0.92015    -0.17971
 H   -12.74587     0.36627     0.00197
 H   -12.68164     2.12536    -0.07106
 H   -10.53817     3.24985    -0.13733
 H    -9.05903     2.30225    -0.12121
 H    -8.82725    -1.51754    -1.69825
 H    -7.30630    -1.53836    -0.79103
 H    -7.11083    -0.02786     1.15823
 H    -8.60125     0.66876     1.82158
 N    -2.23901    -1.82299     2.60594
 N    -0.63459    -3.52136     2.22782
 N    -0.39108    -2.12803     4.15314
 N    -4.14830    -0.69663     3.43610
 N    -2.05916     0.45304     3.43855
 C    -1.06218    -2.47678     3.01610
 C    -2.81215    -0.64838     3.20485
 H    -2.73163    -2.17709     1.75709
 H    -1.02596    -3.65376     1.28027
 H     0.27108    -3.97180     2.42603
 H     0.38594    -2.71554     4.49762
 H    -0.82387    -1.47496     4.82580
 H    -4.65887    -1.58967     3.34995
 H    -4.65390     0.11623     3.80987
 H    -2.45227     1.26104     3.94678
 H    -1.07272     0.50053     3.13181
