  112
 
Ga     0.00000     0.00000     0.00000
Cl    -2.20709    -4.69064    -4.27052
Cl    -5.71070    -4.23018    -4.27052
 C    -3.54947    -2.06202    -6.26633
Ga    -1.69307    -3.61836    -2.26446
Cl    -3.38579    -2.07660    -2.70713
Cl     0.11696    -2.53713    -2.70765
 C    -2.04341    -4.70522    -0.71132
Ga    -3.90066    -3.14896    -4.71371
Cl     1.69308    -1.54256     0.44219
Cl    -1.81004    -1.08123     0.44319
 C     0.35119     1.08694    -1.55262
Ga     2.20759    -0.46940     2.44925
Cl     0.51402     1.07228     2.00606
Cl     4.01763     0.61182     2.00606
 C     1.85639    -1.55634     4.00187
 H    -3.39671    -2.64023    -7.04154
 H    -2.75377    -1.51336    -6.10750
 H    -4.31860    -1.47997    -6.43856
 H     0.50346     0.50785    -2.32883
 H     1.14689     1.63559    -1.39379
 H    -0.41843     1.66811    -1.72584
 H    -2.19654    -4.12760     0.06460
 H    -2.84034    -5.25455    -0.86996
 H    -1.27466    -5.28787    -0.53839
 H     1.70326    -0.97872     4.77779
 H     1.06068    -2.10639     3.84327
 H     2.62515    -2.13898     4.17481
Ga     5.83463     3.78578    -1.93100
Cl     3.62754    -0.90487    -6.20152
Cl     0.12393    -0.44440    -6.20152
 C     2.28516     1.72376    -8.19733
Ga     4.14156     0.16742    -4.19546
Cl     2.44884     1.70918    -4.63813
Cl     5.95160     1.24864    -4.63865
 C     3.79122    -0.91944    -2.64232
Ga     1.93397     0.63682    -6.64471
Cl     7.52771     2.24321    -1.48880
Cl     4.02460     2.70455    -1.48781
 C     6.18583     4.87271    -3.48362
Ga     8.04222     3.31637     0.51825
Cl     6.34865     4.85806     0.07506
Cl     9.85226     4.39760     0.07506
 C     7.69103     2.22944     2.07087
 H     2.43792     1.14555    -8.97254
 H     3.08086     2.27242    -8.03850
 H     1.51603     2.30581    -8.36956
 H     6.33809     4.29363    -4.25983
 H     6.98152     5.42137    -3.32479
 H     5.41621     5.45389    -3.65684
 H     3.63809    -0.34183    -1.86640
 H     2.99429    -1.46877    -2.80096
 H     4.55997    -1.50209    -2.46939
 H     7.53790     2.80705     2.84679
 H     6.89532     1.67938     1.91227
 H     8.45978     1.64679     2.24381
Ga    -2.43139     5.39217     3.22491
Cl    -4.63848     0.70153    -1.04561
Cl    -8.14209     1.16199    -1.04561
 C    -5.98086     3.33015    -3.04143
Ga    -4.12446     1.77381     0.96045
Cl    -5.81718     3.31557     0.51777
Cl    -2.31442     2.85504     0.51726
 C    -4.47480     0.68695     2.51359
Ga    -6.33205     2.24321    -1.48880
Cl    -0.73831     3.84961     3.66710
Cl    -4.24143     4.31094     3.66810
 C    -2.08019     6.47911     1.67229
Ga    -0.22380     4.92277     5.67416
Cl    -1.91737     6.46445     5.23097
Cl     1.58624     6.00399     5.23097
 C    -0.57499     3.83583     7.22678
 H    -5.82810     2.75194    -3.81664
 H    -5.18516     3.87881    -2.88259
 H    -6.74999     3.91220    -3.21365
 H    -1.92793     5.90002     0.89608
 H    -1.28450     7.02776     1.83112
 H    -2.84982     7.06028     1.49906
 H    -4.62793     1.26457     3.28951
 H    -5.27173     0.13762     2.35494
 H    -3.70605     0.10431     2.68652
 H    -0.72813     4.41345     8.00270
 H    -1.37071     3.28578     7.06818
 H     0.19376     3.25319     7.39971
Ga     3.40324     9.17795     1.29391
Cl     1.19615     4.48730    -2.97661
Cl    -2.30745     4.94777    -2.97661
 C    -0.14622     7.11593    -4.97243
Ga     1.71017     5.55959    -0.97055
Cl     0.01745     7.10135    -1.41323
Cl     3.52021     6.64081    -1.41374
 C     1.35983     4.47273     0.58259
Ga    -0.49742     6.02899    -3.41980
Cl     5.09632     7.63538     1.73610
Cl     1.59321     8.09672     1.73710
 C     3.75444    10.26488    -0.25871
Ga     5.61083     8.70854     3.74316
Cl     3.91726    10.25023     3.29997
Cl     7.42087     9.78977     3.29997
 C     5.25964     7.62161     5.29578
 H     0.00653     6.53772    -5.74764
 H     0.64947     7.66459    -4.81359
 H    -0.91535     7.69798    -5.14465
 H     3.90670     9.68580    -1.03492
 H     4.55013    10.81354    -0.09988
 H     2.98482    10.84606    -0.43193
 H     1.20670     5.05034     1.35851
 H     0.56290     3.92340     0.42395
 H     2.12858     3.89008     0.75552
 H     5.10651     8.19922     6.07170
 H     4.46393     7.07155     5.13718
 H     6.02839     7.03896     5.46872
