  192
 
 O     0.00000     0.00000     0.00000
 N     2.12200     1.09700     1.81300
 O     2.53400    -1.13800     1.99800
 C     2.84000     0.06400     2.28500
 H     1.38700     0.89100     1.15900
 H     2.40500     2.04700     1.99900
 H     4.14200     1.26600     3.26100
 H     4.38500    -0.46500     3.48800
 N     3.89700     0.31700     3.06100
 N    -0.77200     6.50400    -0.15500
 N     1.00200     7.28400     1.09400
 O     0.59100     5.04900     0.90900
 C     0.28500     6.25100     0.62200
 H     1.73800     7.07800     1.74800
 H     0.72000     8.23400     0.90800
 H    -1.01700     7.45300    -0.35400
 H    -1.26000     5.72200    -0.58100
 N    -5.43600    -3.41700    -3.57100
 N    -3.66200    -4.19700    -2.32300
 O    -4.07400    -1.96200    -2.50800
 C    -4.38000    -3.16400    -2.79500
 H    -2.92600    -3.99100    -1.66900
 H    -3.94400    -5.14700    -2.50800
 H    -5.68100    -4.36600    -3.77100
 H    -5.92500    -2.63500    -3.99700
 N    -0.76800     2.77000    -0.35500
 N    -2.54200     1.99000    -1.60400
 O    -2.13000     4.22500    -1.41900
 C    -1.82400     3.02300    -1.13200
 H    -3.27700     2.19600    -2.25800
 H    -2.25900     1.04000    -1.41800
 H    -0.52300     1.82100    -0.15600
 H    -0.27900     3.55200     0.07100
 O     0.56500    -2.02300     0.77900
 C    -0.17800    -1.20800     0.10000
 H     1.37600    -1.53100     1.28400
 C    -1.36200    -1.89200    -0.61000
 O    -1.53900    -3.10000    -0.51000
 O    -2.10500    -1.07700    -1.28900
 H    -2.91600    -1.56900    -1.79400
 O    -1.92200     6.18700     2.90700
 O    -2.48800     4.16400     2.12800
 C    -1.74500     4.97900     2.80600
 H    -3.29900     4.65600     1.62300
 C    -0.56200     4.29500     3.51700
 O    -0.38400     3.08700     3.41600
 O     0.18200     5.11000     4.19500
 H     0.99300     4.61800     4.70000
 O     0.76700     0.00000    -6.83300
 N     2.88900     1.09700    -5.02000
 O     3.30100    -1.13800    -4.83500
 C     3.60700     0.06400    -4.54800
 H     2.15400     0.89100    -5.67400
 H     3.17200     2.04700    -4.83400
 H     4.90900     1.26600    -3.57200
 H     5.15200    -0.46500    -3.34500
 N     4.66400     0.31700    -3.77200
 N    -0.00500     6.50400    -6.98800
 N     1.76900     7.28400    -5.73900
 O     1.35800     5.04900    -5.92400
 C     1.05200     6.25100    -6.21100
 H     2.50500     7.07800    -5.08500
 H     1.48700     8.23400    -5.92500
 H    -0.25000     7.45300    -7.18700
 H    -0.49300     5.72200    -7.41400
 N    -4.66900    -3.41700   -10.40400
 N    -2.89500    -4.19700    -9.15600
 O    -3.30700    -1.96200    -9.34100
 C    -3.61300    -3.16400    -9.62800
 H    -2.15900    -3.99100    -8.50200
 H    -3.17700    -5.14700    -9.34100
 H    -4.91400    -4.36600   -10.60400
 H    -5.15800    -2.63500   -10.83000
 N    -0.00100     2.77000    -7.18800
 N    -1.77500     1.99000    -8.43700
 O    -1.36300     4.22500    -8.25200
 C    -1.05700     3.02300    -7.96500
 H    -2.51000     2.19600    -9.09100
 H    -1.49200     1.04000    -8.25100
 H     0.24400     1.82100    -6.98900
 H     0.48800     3.55200    -6.76200
 O     1.33200    -2.02300    -6.05400
 C     0.58900    -1.20800    -6.73300
 H     2.14300    -1.53100    -5.54900
 C    -0.59500    -1.89200    -7.44300
 O    -0.77200    -3.10000    -7.34300
 O    -1.33800    -1.07700    -8.12200
 H    -2.14900    -1.56900    -8.62700
 O    -1.15500     6.18700    -3.92600
 O    -1.72100     4.16400    -4.70500
 C    -0.97800     4.97900    -4.02700
 H    -2.53200     4.65600    -5.21000
 C     0.20500     4.29500    -3.31600
 O     0.38300     3.08700    -3.41700
 O     0.94900     5.11000    -2.63800
 H     1.76000     4.61800    -2.13300
 O     5.04800     0.00000     0.00000
 N     7.17000     1.09700     1.81300
 O     7.58200    -1.13800     1.99800
 C     7.88800     0.06400     2.28500
 H     6.43500     0.89100     1.15900
 H     7.45300     2.04700     1.99900
 H     9.19000     1.26600     3.26100
 H     9.43300    -0.46500     3.48800
 N     8.94500     0.31700     3.06100
 N     4.27600     6.50400    -0.15500
 N     6.05000     7.28400     1.09400
 O     5.63900     5.04900     0.90900
 C     5.33300     6.25100     0.62200
 H     6.78600     7.07800     1.74800
 H     5.76800     8.23400     0.90800
 H     4.03100     7.45300    -0.35400
 H     3.78800     5.72200    -0.58100
 N    -0.38800    -3.41700    -3.57100
 N     1.38600    -4.19700    -2.32300
 O     0.97400    -1.96200    -2.50800
 C     0.66800    -3.16400    -2.79500
 H     2.12200    -3.99100    -1.66900
 H     1.10400    -5.14700    -2.50800
 H    -0.63300    -4.36600    -3.77100
 H    -0.87700    -2.63500    -3.99700
 N     4.28000     2.77000    -0.35500
 N     2.50600     1.99000    -1.60400
 O     2.91800     4.22500    -1.41900
 C     3.22400     3.02300    -1.13200
 H     1.77100     2.19600    -2.25800
 H     2.78900     1.04000    -1.41800
 H     4.52500     1.82100    -0.15600
 H     4.76900     3.55200     0.07100
 O     5.61300    -2.02300     0.77900
 C     4.87000    -1.20800     0.10000
 H     6.42400    -1.53100     1.28400
 C     3.68600    -1.89200    -0.61000
 O     3.50900    -3.10000    -0.51000
 O     2.94300    -1.07700    -1.28900
 H     2.13200    -1.56900    -1.79400
 O     3.12600     6.18700     2.90700
 O     2.56000     4.16400     2.12800
 C     3.30300     4.97900     2.80600
 H     1.74900     4.65600     1.62300
 C     4.48600     4.29500     3.51700
 O     4.66400     3.08700     3.41600
 O     5.23000     5.11000     4.19500
 H     6.04100     4.61800     4.70000
 O     5.81500     0.00000    -6.83300
 N     7.93700     1.09700    -5.02000
 O     8.34900    -1.13800    -4.83500
 C     8.65500     0.06400    -4.54800
 H     7.20200     0.89100    -5.67400
 H     8.22000     2.04700    -4.83400
 H     9.95700     1.26600    -3.57200
 H    10.20000    -0.46500    -3.34500
 N     9.71200     0.31700    -3.77200
 N     5.04300     6.50400    -6.98800
 N     6.81700     7.28400    -5.73900
 O     6.40600     5.04900    -5.92400
 C     6.10000     6.25100    -6.21100
 H     7.55300     7.07800    -5.08500
 H     6.53500     8.23400    -5.92500
 H     4.79800     7.45300    -7.18700
 H     4.55500     5.72200    -7.41400
 N     0.37900    -3.41700   -10.40400
 N     2.15300    -4.19700    -9.15600
 O     1.74100    -1.96200    -9.34100
 C     1.43500    -3.16400    -9.62800
 H     2.88900    -3.99100    -8.50200
 H     1.87100    -5.14700    -9.34100
 H     0.13400    -4.36600   -10.60400
 H    -0.11000    -2.63500   -10.83000
 N     5.04700     2.77000    -7.18800
 N     3.27300     1.99000    -8.43700
 O     3.68500     4.22500    -8.25200
 C     3.99100     3.02300    -7.96500
 H     2.53800     2.19600    -9.09100
 H     3.55600     1.04000    -8.25100
 H     5.29200     1.82100    -6.98900
 H     5.53600     3.55200    -6.76200
 O     6.38000    -2.02300    -6.05400
 C     5.63700    -1.20800    -6.73300
 H     7.19100    -1.53100    -5.54900
 C     4.45300    -1.89200    -7.44300
 O     4.27600    -3.10000    -7.34300
 O     3.71000    -1.07700    -8.12200
 H     2.89900    -1.56900    -8.62700
 O     3.89300     6.18700    -3.92600
 O     3.32700     4.16400    -4.70500
 C     4.07000     4.97900    -4.02700
 H     2.51600     4.65600    -5.21000
 C     5.25300     4.29500    -3.31600
 O     5.43100     3.08700    -3.41700
 O     5.99700     5.11000    -2.63800
 H     6.80800     4.61800    -2.13300
