  104
 
Co     0.00000     0.00000     0.00000
 C     2.09251     0.00000     0.00000
 C     1.58001     1.33754     0.00000
 C     0.79833     1.53419    -1.17400
 C     0.78836     0.30900    -1.89215
 C     1.59558    -0.64431    -1.16355
 C     3.00559    -0.59412     1.00431
 C     1.87190     2.38716     1.03263
 C     0.16440     2.81437    -1.59811
 C     0.11520     0.01299    -3.20336
 C     1.89043    -2.04108    -1.61732
Co    -1.82202    -0.68729     1.13366
 C    -3.74592    -0.13220     1.74116
 C    -2.92081    -0.43770     2.87121
 C    -2.48988    -1.79195     2.77775
 C    -3.01421    -2.32584     1.57070
 C    -3.79866    -1.29472     0.92783
 C    -4.45147     1.14520     1.48465
 C    -2.61005     0.49396     4.00638
 C    -1.69056    -2.52761     3.79779
 C    -2.85540    -3.72035     1.03232
 C    -4.57111    -1.47317    -0.34293
Co    -3.24146     1.41444    -5.68584
 C    -5.33487     1.41429    -5.68545
 C    -4.82237     0.07675    -5.68545
 C    -4.04106    -0.11917    -4.51201
 C    -4.03018     1.10618    -3.79426
 C    -4.83794     2.05859    -4.52190
 C    -6.24795     2.00840    -6.68976
 C    -5.11427    -0.97287    -6.71808
 C    -3.40713    -1.39935    -4.08790
 C    -3.35757     1.40129    -2.48209
 C    -5.13279     3.45536    -4.06813
Co    -1.42072     2.10231    -6.81967
 C     0.50446     1.54664    -7.42700
 C    -0.32155     1.85199    -8.55665
 C    -0.75248     3.20623    -8.46320
 C    -0.22815     3.74013    -7.25615
 C     0.55592     2.70974    -6.61385
 C     1.20873     0.26982    -7.17066
 C    -0.63177     0.92121    -9.69279
 C    -1.55180     3.94190    -9.48324
 C    -0.38697     5.13464    -6.71777
 C     1.32928     2.88835    -5.34348
 H     4.03884    -0.41738     0.70555
 H     2.82481    -1.66701     1.06998
 H     2.82481    -0.13504     1.97625
 H     2.95060     2.49875     1.14242
 H     1.43854     2.08829     1.98708
 H     1.43854     3.33660     0.71823
 H     0.93993     3.54145    -1.83899
 H    -0.45517     2.63917    -2.47762
 H    -0.45517     3.19893    -0.78797
 H     0.87145    -0.15987    -3.96906
 H    -0.50692    -0.87603    -3.09988
 H    -0.50692     0.86024    -3.49185
 H     2.96950    -2.18748    -1.66488
 H     1.45817    -2.75105    -0.91220
 H     1.45817    -2.20109    -2.60507
 H    -3.72075     1.93817     1.32542
 H    -5.07631     1.04338     0.59735
 H    -5.07631     1.39382     2.34247
 H    -1.52943     0.58448     4.11668
 H    -3.03752     0.09901     4.92800
 H    -3.03752     1.47491     3.79877
 H    -0.62836    -2.38455     3.59943
 H    -1.92934    -3.59004     3.74943
 H    -1.92934    -2.14637     4.79063
 H    -1.79510    -3.95610     0.94131
 H    -3.32796    -4.42860     1.71290
 H    -3.32796    -3.78752     0.05239
 H    -3.87797    -1.59016    -1.17598
 H    -5.19871    -2.36095    -0.26505
 H    -5.19871    -0.59828    -0.51259
 H    -5.66245     2.47651    -7.48106
 H    -6.87653     1.22691    -7.11668
 H    -6.87653     2.75888    -6.21041
 H    -4.17684    -1.36935    -7.10814
 H    -5.68893    -1.77988    -6.26354
 H    -5.68893    -0.53157    -7.53239
 H    -2.32253    -1.29650    -4.12198
 H    -3.71759    -2.19886    -4.76058
 H    -3.71759    -1.63910    -3.07093
 H    -2.27592     1.37174    -2.61350
 H    -3.65462     0.65474    -1.74554
 H    -3.65462     2.39132    -2.13611
 H    -4.19672     3.98650    -3.89558
 H    -5.70807     3.42301    -3.14287
 H    -5.70807     3.97298    -4.83574
 H     2.28551     0.43575    -7.20398
 H     0.92958    -0.45833    -7.93222
 H     0.92958    -0.10798    -6.18708
 H     0.29865     0.56137   -10.13202
 H    -1.20959     0.07476    -9.32165
 H    -1.20959     1.45165   -10.44967
 H    -0.87931     4.44369   -10.17899
 H    -2.18035     3.23824   -10.02904
 H    -2.18035     4.68191    -8.98784
 H     0.59658     5.57294    -6.54856
 H    -0.93629     5.10053    -5.77693
 H    -0.93629     5.74161    -7.43744
 H     2.39698     2.85780    -5.56072
 H     1.07679     2.08729    -4.64874
 H     1.07679     3.84992    -4.89656
