  126
 
Te     0.00000     0.00000     0.00000
 I     2.98541     0.00000     0.00000
 I    -2.98541     0.00000     0.00000
 I    -0.00000     0.00000     2.98541
 I    -0.00000     0.00000    -2.98541
Te    -7.50665    -6.71400     0.00000
 I    -4.52266    -6.71400    -0.00000
 I   -10.49205    -6.71400     0.00000
 I    -7.50735    -6.71400     2.98470
 I    -7.50735    -6.71400    -2.98470
 N    -3.75332    -3.35700    -3.75332
 C    -2.91187    -2.41600    -4.59478
 C    -1.97212    -3.10700    -5.53452
 C    -4.59549    -4.29800    -4.59549
 C    -4.59478    -2.41600    -2.91187
 C    -2.91187    -4.29800    -2.91187
 C    -5.53523    -3.60700    -5.53523
 C    -5.53452    -3.10700    -1.97212
 C    -1.97212    -3.60700    -1.97212
 N    -3.75332     3.35700     3.75332
 C    -2.91186     4.29800     2.91187
 C    -1.97212     3.60700     1.97212
 C    -4.59478     2.41600     2.91187
 C    -4.59549     4.29800     4.59549
 C    -2.91186     2.41600     4.59478
 C    -5.53452     3.10700     1.97212
 C    -5.53523     3.60700     5.53523
 C    -1.97212     3.10700     5.53452
 N    -3.75332    -3.35700     3.75332
 C    -2.91187    -2.41600     4.59478
 C    -1.97212    -3.10700     5.53452
 C    -2.91187    -4.29800     2.91187
 C    -4.59478    -2.41600     2.91187
 C    -4.59549    -4.29800     4.59549
 C    -1.97212    -3.60700     1.97212
 C    -5.53452    -3.10700     1.97212
 C    -5.53523    -3.60700     5.53523
 N    -3.75332     3.35700    -3.75332
 C    -2.91186     4.29800    -2.91186
 C    -1.97212     3.60700    -1.97212
 C    -2.91186     2.41600    -4.59478
 C    -4.59549     4.29800    -4.59549
 C    -4.59478     2.41600    -2.91186
 C    -1.97212     3.10700    -5.53452
 C    -5.53523     3.60700    -5.53523
 C    -5.53452     3.10700    -1.97212
 H    -2.32468    -1.78951    -3.92334
 H    -3.58330    -1.78951    -5.18197
 H    -1.34857    -2.36606    -6.03482
 H    -1.33954    -3.79582    -4.97464
 H    -2.54439    -3.66188    -6.27797
 H    -3.92414    -4.92450    -5.18277
 H    -5.18277    -4.92450    -3.92414
 H    -3.92334    -1.78951    -2.32468
 H    -5.18197    -1.78951    -3.58330
 H    -2.32468    -4.92448    -3.58330
 H    -3.58330    -4.92448    -2.32468
 H    -5.36754    -2.53089    -5.49080
 H    -5.35857    -3.96061    -6.55103
 H    -6.56342    -3.82667    -5.24770
 H    -6.02939    -2.36663    -1.34358
 H    -4.97568    -3.80119    -1.34451
 H    -6.28237    -3.65593    -2.54440
 H    -2.01112    -2.53147    -2.14479
 H    -0.95735    -3.96599    -2.14380
 H    -2.26405    -3.82073    -0.94392
 H    -2.32468     4.92449     3.58330
 H    -3.58330     4.92449     2.32468
 H    -1.34857     4.34794     1.47183
 H    -1.33954     2.91818     2.53200
 H    -2.54439     3.05212     1.22867
 H    -3.92334     1.78952     2.32468
 H    -5.18197     1.78952     3.58330
 H    -3.92414     4.92450     5.18277
 H    -5.18276     4.92450     3.92414
 H    -2.32468     1.78952     3.92334
 H    -3.58330     1.78952     5.18197
 H    -5.36683     4.18311     2.01655
 H    -5.35786     2.75339     0.95632
 H    -6.56271     2.88733     2.25965
 H    -6.03009     4.34737     6.16377
 H    -4.97638     2.91281     6.16284
 H    -6.28307     3.05807     4.96295
 H    -2.01112     4.18253     5.36185
 H    -0.95735     2.74801     5.36284
 H    -2.26405     2.89327     6.56273
 H    -2.32468    -1.78951     3.92334
 H    -3.58330    -1.78951     5.18197
 H    -1.34857    -2.36606     6.03482
 H    -1.33954    -3.79582     4.97464
 H    -2.54439    -3.66188     6.27797
 H    -2.32468    -4.92448     3.58330
 H    -3.58330    -4.92448     2.32468
 H    -3.92334    -1.78951     2.32468
 H    -5.18197    -1.78951     3.58330
 H    -3.92414    -4.92450     5.18277
 H    -5.18277    -4.92450     3.92414
 H    -2.01112    -2.53147     2.14479
 H    -0.95735    -3.96599     2.14380
 H    -2.26405    -3.82073     0.94392
 H    -6.02939    -2.36663     1.34358
 H    -4.97568    -3.80119     1.34451
 H    -6.28237    -3.65593     2.54440
 H    -5.36754    -2.53089     5.49080
 H    -5.35857    -3.96061     6.55103
 H    -6.56342    -3.82667     5.24770
 H    -2.32468     4.92449    -3.58330
 H    -3.58330     4.92449    -2.32468
 H    -1.34857     4.34794    -1.47183
 H    -1.33954     2.91818    -2.53200
 H    -2.54439     3.05212    -1.22867
 H    -2.32468     1.78951    -3.92334
 H    -3.58330     1.78951    -5.18197
 H    -3.92414     4.92450    -5.18277
 H    -5.18276     4.92450    -3.92414
 H    -3.92334     1.78951    -2.32468
 H    -5.18197     1.78952    -3.58330
 H    -2.01112     4.18253    -5.36185
 H    -0.95735     2.74801    -5.36284
 H    -2.26404     2.89327    -6.56273
 H    -6.03009     4.34737    -6.16377
 H    -4.97638     2.91281    -6.16284
 H    -6.28307     3.05807    -4.96295
 H    -5.36683     4.18311    -2.01655
 H    -5.35786     2.75339    -0.95632
 H    -6.56271     2.88733    -2.25965
