  100
 
Bi     0.00000     0.00000     0.00000
Cl     2.51910    -0.00634     0.87436
Cl    -0.44069     2.28481     0.96486
Cl    -2.82632     1.22091    -3.16714
Cl    -0.47897    -1.16614     2.45923
Cl    -3.77079     0.42948     3.74580
Bi    -4.20071     2.69891     4.68284
Cl    -6.77814     2.59757     3.92222
Cl    -1.66144     1.29646     7.63960
Cl    -3.91168     3.83232     2.22672
Bi     4.81904    -5.79704     8.56770
Cl     5.24577    -8.05697     7.54097
Cl     6.72644    -6.36449    10.49446
 O     6.15539    -5.64278     6.22090
 O     3.57790    -4.28847     6.86386
 O     2.52669    -5.59601     4.36964
 O     3.50844    -3.26762     3.18617
 O     6.01175    -5.02402     2.37164
 O     7.67801    -6.49723     3.74933
 C     5.14858    -5.20542     5.24037
 C     4.50602    -3.93637     5.76825
 C     2.17350    -4.29307     6.44644
 C     1.80108    -5.51871     5.60924
 C     1.89930    -5.11722     3.16061
 C     2.15053    -3.63697     2.89329
 C     4.46283    -3.07725     2.12780
 C     5.02558    -4.38100     1.54324
 C     7.33992    -4.45104     2.43648
 C     8.23827    -5.65463     2.71909
 C     8.17550    -6.36356     5.08943
 C     7.51686    -5.23277     5.88971
 H     5.61953    -5.05672     4.23165
 H     4.45869    -6.09137     5.18674
 H     3.93306    -3.41210     4.95981
 H     5.20492    -3.21765     6.27118
 H     1.64771    -4.30008     7.42748
 H     1.99329    -3.32371     5.90974
 H     2.14156    -6.46215     6.10363
 H     0.70193    -5.52571     5.42021
 H     2.40612    -5.78849     2.40928
 H     0.80192    -5.30999     3.19063
 H     1.59378    -2.97226     3.61733
 H     1.88319    -3.38980     1.84187
 H     3.99322    -2.45853     1.33094
 H     5.23587    -2.50132     2.70278
 H     5.46451    -4.21077     0.53726
 H     4.25438    -5.19587     1.52006
 H     7.61619    -3.98614     1.46713
 H     7.34427    -3.68635     3.25632
 H     9.26631    -5.32132     2.98408
 H     8.23989    -6.37980     1.85522
 H     9.28265    -6.23425     5.06922
 H     7.87891    -7.35681     5.50918
 H     8.00000    -5.13110     6.88347
 H     7.49837    -4.25411     5.35060
Bi     7.08031     3.72835    -5.98852
Cl     6.66682     5.98853    -4.95557
Cl     4.97836     4.12321    -7.65511
 O     5.69767     3.60080    -3.63866
 O     8.28459     2.19950    -4.22199
 O     9.31043     3.51901    -1.68148
 O     8.30972     1.20368    -0.55729
 O     5.81726     3.03467     0.21516
 O     4.13458     4.46901    -1.23356
 C     6.68070     3.14163    -2.64578
 C     7.31423     1.86180    -3.16403
 C     9.66906     2.20168    -3.75491
 C    10.02279     3.44021    -2.92849
 C     9.94418     3.02615    -0.48290
 C     9.66444     1.54914    -0.22384
 C     7.32059     1.05531     0.47670
 C     6.80016     2.38436     1.04448
 C     4.48411     2.47523     0.16469
 C     3.59071     3.67024    -0.16274
 C     3.62971     4.28541    -2.56499
 C     4.33464     3.17623    -3.35675
 H     6.18862     3.00035    -1.64850
 H     7.38324     4.01565    -2.57991
 H     7.84373     1.31734    -2.33950
 H     6.61549     1.16445    -3.69871
 H    10.23053     2.18681    -4.71579
 H     9.82423     1.24227    -3.19509
 H     9.65984     4.37407    -3.42490
 H    11.12306     3.46806    -2.75233
 H     9.45849     3.70161     0.27825
 H    11.04322     3.20508    -0.52541
 H    10.22744     0.87689    -0.93498
 H     9.89507     1.29052     0.83341
 H     7.74286     0.41311     1.28080
 H     6.53781     0.51577    -0.11974
 H     6.38233     2.25248     2.06465
 H     7.59098     3.18079     1.03861
 H     4.20800     2.05414     1.15505
 H     4.47207     1.68260    -0.62809
 H     2.55711     3.33331    -0.39849
 H     3.60539     4.43105     0.67127
 H     2.53233     4.09761    -2.53475
 H     3.87892     5.28512    -3.00403
 H     3.88555     3.08928    -4.36926
 H     4.34125     2.19139    -2.82957
