  280
 
 V     0.00000     0.00000     0.00000
 O    -1.78211    -0.99995    -0.67085
 O    -0.75384     1.44902    -1.42214
 H    -2.03730    -0.94822    -1.64315
 H    -1.65043     1.39900    -1.83396
 H    -0.23857     2.23933    -1.72581
 O     1.80995     1.06146     0.28227
 O     1.28099    -1.41756     1.74583
 O     1.08276     0.07731    -1.90699
 O    -0.99283    -0.53422     1.67252
 H    -2.31855    -1.69091    -0.20699
 H     2.03356     1.07824     1.28649
 H     2.31685     1.73580    -0.23069
 H     2.06663    -1.77848     1.20303
 H     0.66189    -2.18955     1.94191
 H     1.92568     0.50969    -2.18074
 H     0.49705    -0.05642    -2.70888
 H    -1.81888    -1.08117     1.83398
 H    -0.60258    -0.20283     2.55383
 V    -1.26794    -9.22818    -1.96232
 O    -3.36790    -9.86022    -2.16799
 O    -2.22751    -7.84323    -2.98484
 H    -3.80445    -9.78629    -3.06077
 H    -3.05556    -7.78630    -3.58852
 H    -1.63574    -6.87640    -3.17850
 O     0.74386    -8.87635    -1.66045
 O    -0.25552   -11.02552    -1.05904
 O    -0.28773    -8.94857    -3.83370
 O    -1.98025    -9.75959    -0.03094
 H    -3.71852   -10.69770    -1.68759
 H     1.32608    -9.02949    -0.85276
 H     1.17623    -8.08607    -2.26654
 H     0.68515   -11.33736    -1.20126
 H    -0.84826   -11.81634    -0.81316
 H     0.57797    -9.34982    -4.18604
 H    -0.77463    -8.48262    -4.61031
 H    -2.97038    -9.71047     0.31662
 H    -1.35600    -9.85165     0.76240
 S    -3.02554    -8.87490    -6.34726
 F    -4.27281   -11.12107    -7.00353
 F    -2.50981   -10.82287    -8.13570
 O    -1.61556    -8.51047    -6.15167
 O    -3.78198    -8.17280    -7.37646
 C    -3.03144   -10.62641    -6.92446
 O    -3.74621    -8.95558    -5.04442
 F    -2.37468   -11.46461    -6.11854
 S    -1.93873    -3.98943     1.86182
 F    -3.61967    -5.68659     0.75561
 F    -2.18017    -4.93565    -0.60606
 O    -0.48412    -3.85902     2.02677
 O    -2.57560    -2.77191     1.31796
 C    -2.33992    -5.30403     0.66416
 O    -2.57826    -4.42449     3.12425
 F    -1.62710    -6.42218     0.81340
 S     0.75126    -5.52264    -3.75079
 F     1.69206    -3.22715    -2.42239
 F    -0.41701    -3.26390    -2.63592
 O    -0.68687    -6.05717    -4.05275
 O     1.39784    -5.04612    -5.03456
 C     0.64920    -4.06170    -2.45545
 O     1.61748    -6.65215    -3.12296
 F     0.52789    -4.50521    -1.19590
 S     2.03322    -0.48758     3.66748
 F     3.77825     0.52842     5.44148
 F     1.95705     1.61144     5.31219
 O     0.54304    -0.45463     3.79301
 O     2.67358     0.34799     2.63130
 C     2.46929     0.38114     5.23444
 O     2.65941    -1.82108     3.78443
 F     2.01162    -0.25223     6.31947
 V     5.98012     0.09260    -0.56992
 O     3.97837    -0.67121    -0.53110
 O     4.71724     1.38832    -1.48406
 H     4.02232    -1.69212    -0.41370
 H     3.85660     1.43228    -2.03607
 H     5.15772     2.32760    -1.44672
 O     7.92558     0.40389     0.44913
 O     6.67437    -1.52180     0.79841
 O     7.05700     0.18309    -1.86090
 O     5.16126     0.18305     1.45639
 H     3.04581    -0.37411    -0.48178
 H     8.23368     0.47749     1.38557
 H     8.42133     1.05744    -0.15390
 H     7.59558    -1.66793     1.11133
 H     6.07716    -2.30432     1.01347
 H     7.76320     0.21195    -2.49013
 H     5.62411     0.60055    -3.45467
 H     4.19678     0.26928     1.68820
 H     5.72424     0.11973     2.27581
 V     4.47661    -8.82224    -1.85275
 O     3.09852    -9.97567    -2.84817
 O     4.12153    -7.40040    -3.34685
 H     2.83545    -9.89673    -3.86237
 H     3.16756    -6.88827    -3.26443
 H     4.73092    -6.91088    -3.96418
 O     6.31792    -7.95688    -1.45723
 O     5.66010   -10.87138     0.11909
 O     5.55819    -9.20802    -3.85719
 O     3.84579    -9.26195    -0.37478
 H     2.66752   -10.79213    -2.44271
 H     6.77193    -8.35448    -0.62156
 H     6.91237    -7.29813    -1.93468
 H     6.56621   -11.24318     0.11857
 H     5.02704   -11.50662    -0.34390
 H     6.40404    -8.74957    -4.10590
 H     4.98530    -9.35720    -4.66312
 H     3.38396    -9.47734     0.42167
 H     5.12735    -9.96217     1.38260
 S     2.30595    -9.83326    -6.48453
 F     0.70404   -11.78556    -7.59066
 F     2.49266   -11.49988    -8.68531
 O     3.87975    -9.20832    -6.23418
 O     1.55756    -8.76485    -7.13525
 C     1.99614   -11.47771    -7.44448
 O     1.88106   -10.08731    -5.05804
 F     2.53812   -12.54118    -6.84520
 S     3.91682    -4.03374     1.30602
 F     2.85652    -6.25884     0.31372
 F     3.92793    -5.09907    -1.11302
 O     5.33492    -3.72868     1.63078
 O     3.30755    -2.89883     0.59025
 C     3.91508    -5.46034     0.17031
 O     3.20036    -4.42157     2.53489
 F     4.98236    -6.24899     0.33085
 S     7.02719    -4.99850    -3.88294
 F     8.21450    -2.91455    -2.51476
 F     6.24468    -2.47371    -3.15094
 O     5.53617    -5.53405    -4.54026
 O     7.79586    -4.64874    -5.08789
 C     7.01413    -3.46673    -2.70585
 O     7.50403    -6.19786    -3.14703
 F     6.55995    -3.73630    -1.47770
 S     7.89715     0.11948     4.35590
 F     9.19349     2.14107     5.43882
 F     7.44447     2.74458     4.39270
 O     6.49138    -0.16313     4.00719
 O     8.72817     0.21868     3.15171
 C     7.94393     1.76503     5.14700
 O     8.48165    -0.75999     5.38933
 F     7.28162     1.83490     6.30335
 V    -0.16746     3.99750    -6.35667
 O    -2.22504     3.57359    -6.64484
 O    -1.21756     5.68759    -6.96692
 H    -2.47102     3.34147    -7.60944
 H    -2.20777     5.86794    -6.95263
 H    -0.71575     6.43060    -7.47392
 O     1.88615     4.56161    -6.17329
 O     0.96168     2.39548    -5.82201
 O     0.68851     3.92847    -8.21052
 O    -1.06583     3.90868    -4.53885
 H    -3.04241     3.56232    -6.07041
 H     2.18046     4.74415    -5.22236
 H     2.68661     4.44476    -6.76770
 H     1.97139     2.22167    -5.89668
 H     0.49679     1.56696    -5.40832
 H     1.60722     4.11857    -8.60243
 H     0.06681     3.58099    -8.94971
 H    -1.98858     3.60849    -4.22758
 H    -0.45230     4.07843    -3.72945
 V    -1.01829    -5.74245    -8.72027
 O    -3.10045    -5.96543    -9.03313
 O    -2.08060    -3.88739    -8.56907
 H    -3.74350    -5.52323    -9.63191
 H    -3.08143    -3.69126    -8.57631
 H    -1.54661    -3.13890    -8.96030
 O     0.46431    -4.71684    -7.52237
 O     0.35608    -7.00533    -7.94636
 O    -0.98120    -6.27803   -10.34290
 O    -1.62534    -5.44154    -6.56912
 H    -3.56421    -6.49488    -8.31637
 H     0.62198    -4.75640    -6.50637
 H     1.00616    -4.02495    -7.96521
 H     1.32830    -6.91384    -7.73433
 H    -0.05340    -7.81651    -7.46756
 H     0.67940    -5.39543   -11.50734
 H    -1.21633    -6.47849   -11.22088
 H    -2.49628    -4.99244    -6.40358
 H    -1.35309    -5.98105    -5.76683
 S    -3.57046    -5.71029   -12.69355
 F    -5.22251    -7.49684   -13.81011
 F    -3.45774    -7.16924   -14.93846
 O    -2.10060    -5.59441   -12.67854
 O    -4.21440    -4.59424   -13.41017
 C    -3.92124    -7.22040   -13.68866
 O    -4.22348    -5.96911   -11.40746
 F    -3.38119    -8.32632   -13.16511
 S    -1.83526     0.48097    -4.45661
 F    -3.51612    -1.08574    -5.77141
 F    -2.06263    -0.16716    -7.02162
 O    -0.36032     0.60305    -4.43743
 O    -2.53680     1.74420    -4.74727
 C    -2.24364    -0.68192    -5.80182
 O    -2.34423    -0.13337    -3.22311
 F    -1.51334    -1.79803    -5.77579
 S     0.75920    -1.80460   -10.01369
 F     2.39631     0.09878    -9.11280
 F     0.44193     0.81124    -9.53828
 O    -0.70742    -1.94769   -10.02886
 O     1.29704    -1.57550   -11.36266
 C     1.10885    -0.25395    -9.08363
 O     1.50478    -2.83482    -9.27994
 F     0.79705    -0.32680    -7.78662
 S     2.00098     3.90450    -2.26959
 F     3.39666     5.62760    -0.78592
 F     1.49388     6.34746    -1.40551
 O     0.54891     3.66984    -2.43317
 O     2.62179     4.40536    -3.50478
 C     2.14332     5.24268    -1.03391
 O     2.70492     2.77019    -1.65482
 F     1.63445     4.91172     0.15396
 V     5.64542     4.16052    -6.27524
 O     3.98583     3.20188    -7.38505
 O     4.68226     5.46397    -7.61979
 H     3.76566     3.07775    -8.34220
 H     3.96299     5.44431    -8.27813
 H     5.23056     6.32780    -7.66990
 O     7.36162     5.06844    -5.16558
 O     6.77835     2.72904    -5.15823
 O     6.21351     3.70385    -8.25650
 O     5.22079     4.34316    -4.25630
 H     4.00372     2.28638    -6.89555
 H     7.58887     5.13881    -4.19711
 H     7.45744     5.96281    -5.64117
 H     7.56351     2.71254    -4.58180
 H     6.23030     1.85586    -5.12002
 H     7.20245     3.54782    -8.37249
 H     5.74008     3.73507    -9.12700
 H     4.24209     4.42983    -4.01738
 H     5.78191     4.23267    -3.44202
 V     4.33567    -6.03023    -7.98609
 O     2.75035    -5.79940    -9.49872
 O     3.95173    -3.95713    -8.76485
 H     2.42238    -4.92455    -9.86807
 H     3.16700    -3.37543    -8.63831
 H     4.65602    -3.49304    -9.30284
 O     7.28825    -3.97540    -7.62079
 O     5.56492    -7.11004    -7.58368
 O     5.09167    -5.78421   -10.00771
 O     3.49927    -5.68518    -6.55373
 H     2.15567    -6.52882    -9.79423
 H     7.16004    -4.05270    -6.64352
 H     6.47884    -3.65498    -8.06216
 H     6.30103    -7.65293    -7.37567
 H     4.05614    -8.33589    -6.69989
 H     6.06498    -5.80618   -10.22457
 H     4.53763    -5.59750   -10.81832
 H     2.96753    -5.40676    -5.80206
 H     5.41076    -5.50552    -5.52457
 S     2.46375    -5.54712   -13.05069
 F     1.27210    -7.89250   -13.86219
 F     3.06803    -7.52699   -14.92652
 O     3.82993    -5.25973   -12.56524
 O     1.80258    -4.49010   -13.84145
 C     2.49010    -7.36018   -13.73537
 O     1.63754    -5.54007   -11.54127
 F     3.14634    -8.19810   -12.92372
 S     3.73268     0.30594    -4.74838
 F     1.78832    -1.59065    -5.06071
 F     3.36163    -1.73249    -6.47720
 O     5.41482     0.58987    -4.42023
 O     3.28188     1.24442    -5.81124
 C     3.10276    -1.42589    -5.20242
 O     3.14834     0.67452    -3.43421
 F     3.67867    -2.38851    -4.48821
 S     6.55998    -1.31821    -9.91334
 F     7.53353     0.87486    -8.53657
 F     5.51187     1.09540    -9.13353
 O     4.99435    -1.96698    -9.98856
 O     6.96064    -0.95706   -11.32523
 C     6.40255     0.18895    -8.71519
 O     7.39252    -2.41393    -9.41977
 F     5.99709    -0.14524    -7.48931
 S     7.84975     3.79964    -1.66070
 F     9.36489     5.35388    -0.14009
 F     7.40432     6.11813    -0.41901
 O     6.39501     3.65305    -1.87351
 O     8.45163     4.44904    -2.85801
 C     8.08875     4.98099    -0.28367
 O     8.57511     2.59609    -1.26822
 F     7.73127     4.49088     0.90628
