  144
 
Tl     0.00000     0.00000     0.00000
Cl     0.03902    -2.52053     0.47359
Cl     2.44419    -0.37407     0.30298
Cl     0.53027     2.32223    -0.68354
Cl    -2.33143    -0.53817    -0.64364
Cl    -0.95216     0.61878     2.24915
Tl    -6.70541    -2.70329    -3.79779
Cl    -6.72010    -0.18743    -4.28285
Cl    -9.14331    -2.27611    -4.08317
Cl    -7.23494    -5.01465    -3.08586
Cl    -4.36914    -2.19093    -3.14790
Cl    -7.35739    -1.71396    -1.38665
 C    -1.05390    -4.79018     2.51162
 H    -0.40775    -5.25241     3.27551
 C    -2.13616    -4.83381     0.47172
 H    -2.29146    -5.41982    -0.44199
 C    -2.78253    -3.62140     0.68844
 C    -2.45482    -2.92116     1.92108
 N    -1.30318    -5.40447     1.38283
 N    -1.60367    -3.53565     2.81503
 H    -1.41151    -3.10932     3.73778
 N    -3.03253    -1.74914     2.28745
 H    -2.65768    -1.21999     3.07397
 H    -3.50936    -1.17710     1.59962
 N    -3.78651    -3.22720    -0.19185
 H    -3.52642    -3.30319    -1.17183
 H    -4.30269    -2.38145    -0.00824
 C    -6.33538    -4.83177     0.08490
 H    -6.97496    -4.35073    -0.67359
 C    -5.26074    -4.81971     2.12686
 H    -5.10135    -4.24956     3.04991
 C    -4.60883    -6.02444     1.88792
 C    -4.93643    -6.71058     0.64830
 N    -6.09297    -4.23438     1.22452
 N    -5.78943    -6.08446    -0.23470
 H    -6.00413    -6.50579    -1.15084
 N    -4.35480    -7.87851     0.27485
 H    -4.72266    -8.39996    -0.51928
 H    -3.89639    -8.46299     0.96514
 N    -3.60105    -6.43142     2.75725
 H    -3.86428    -6.42872     3.73263
 H    -3.04712    -7.23937     2.51883
 C     1.61525     2.93535     2.62196
 H     0.52901     2.78277     2.76835
 C     3.61024     2.28368     1.65359
 H     4.12167     1.47686     1.10611
 C     4.28225     3.41972     2.11398
 C     3.55084     4.31139     2.95869
 N     2.29304     2.08533     1.88416
 N     2.22250     4.04474     3.20694
 H     1.69857     4.59829     3.89061
 N     4.04585     5.51838     3.43059
 H     3.90270     5.70328     4.42341
 H     5.03015     5.70059     3.21037
 N     5.59868     3.68605     1.70053
 H     6.14760     2.83138     1.52158
 H     6.15240     4.29336     2.29062
 C     5.24740    -0.93204     2.44177
 H     6.33502    -0.78808     2.29724
 C     3.25480    -0.27092     3.40956
 H     2.74821     0.54097     3.95501
 C     2.57881    -1.40597     2.95271
 C     3.30574    -2.30044     2.10634
 N     4.57266    -0.07871     3.17836
 N     4.63471    -2.03807     1.85601
 H     5.15196    -2.58839     1.16584
 N     2.80736    -3.50644     1.63424
 H     2.92873    -3.67711     0.63453
 H     1.83074    -3.70010     1.87239
 N     1.26339    -1.67285     3.36699
 H     0.71911    -0.82330     3.56873
 H     0.70224    -2.26532     2.77060
Tl     1.57351    -1.56434    -4.67055
Cl     1.59559    -4.08806    -4.18172
Cl     4.01233    -1.96284    -4.34736
Cl     2.12848     0.74964    -5.37665
Cl    -0.74857    -2.11913    -5.33130
Cl     0.60058    -0.94612    -2.42958
Tl    -5.12869    -4.27901    -8.45186
Cl    -5.17606    -1.75790    -8.92705
Cl    -7.57532    -3.87858    -8.70797
Cl    -5.64992    -6.60518    -7.78071
Cl    -2.77621    -3.77721    -7.85914
Cl    -5.68510    -3.32971    -6.01967
 C     0.52984    -6.37852    -2.16958
 H     1.18112    -6.84463    -1.41062
 C    -0.55846    -6.41125    -4.20678
 H    -0.71863    -6.98764    -5.12661
 C    -1.21169    -5.20630    -3.97487
 C    -0.87767    -4.50920    -2.74167
 N     0.28472    -6.98254    -3.30518
 N    -0.03655    -5.13620    -1.84645
 H     0.21381    -4.68997    -0.95122
 N    -1.44115    -3.33239    -2.37147
 H    -1.05098    -2.80071    -1.59431
 H    -1.93258    -2.76239    -3.05030
 N    -2.21274    -4.80469    -4.85668
 H    -1.93846    -4.81071    -5.82897
 H    -2.76315    -3.99243    -4.62689
 C    -4.73651    -6.42415    -4.56804
 H    -5.37416    -5.94430    -5.32817
 C    -3.65961    -6.41216    -2.52577
 H    -3.49896    -5.84111    -1.60439
 C    -3.01001    -7.61924    -2.76150
 C    -3.33902    -8.30326    -4.00286
 N    -4.49336    -5.82795    -3.42767
 N    -4.19014    -7.67661    -4.88792
 H    -4.38564    -8.09266    -5.81630
 N    -2.75569    -9.46871    -4.37948
 H    -3.09748    -9.96696    -5.20033
 H    -2.32121   -10.07214    -3.68952
 N    -2.00207    -8.02341    -1.89260
 H    -2.25136    -7.95712    -0.90891
 H    -1.48034    -8.86106    -2.09496
 C     3.18396     1.39174    -2.05626
 H     2.09289     1.26773    -1.92131
 C     5.17919     0.70167    -2.99524
 H     5.67832    -0.12081    -3.52980
 C     5.86542     1.82720    -2.53868
 C     5.14192     2.73327    -1.69344
 N     3.85267     0.52828    -2.78169
 N     3.80464     2.49154    -1.46202
 H     3.28741     3.03729    -0.75434
 N     5.65839     3.91793    -1.21465
 H     5.41063     4.17759    -0.25113
 H     6.65677     4.07433    -1.36388
 N     7.18763     2.06923    -2.94835
 H     7.72522     1.20928    -3.11945
 H     7.74860     2.68020    -2.37125
 C     6.85250    -2.54653    -2.19698
 H     7.94408    -2.43018    -2.33469
 C     4.86242    -1.85832    -1.24406
 H     4.36463    -1.03893    -0.70221
 C     4.17044    -2.97502    -1.71210
 C     4.88679    -3.87670    -2.56776
 N     6.19001    -1.69065    -1.45672
 N     6.22332    -3.63346    -2.80404
 H     6.72946    -4.16386    -3.52883
 N     4.36757    -5.06079    -3.04546
 H     4.60638    -5.32198    -4.01022
 H     3.37191    -5.22240    -2.88383
 N     2.84379    -3.21292    -1.31023
 H     2.31397    -2.34846    -1.13122
 H     2.28261    -3.80651    -1.90542
