  112
 
Ga     0.00000     0.00000     0.00000
 I     7.79580    -0.13652    -0.14864
Ga     7.63301     2.37466    -0.12599
 S     5.43359     2.99759     0.45224
 C     5.41257     3.76186     2.15146
 C     5.76495     2.62011     3.08381
 C     4.01643     4.30212     2.35699
 S     6.87581     3.19513    -2.23079
Ga     5.22744     4.56480    -1.24768
 C     8.17265     4.29024    -3.03440
 I     6.27113     6.75394    -0.56437
 I     3.10791     4.79196    -2.54759
 C     7.45143     5.08915    -4.08963
 C     9.22425     3.33826    -3.54866
 I     9.43993     3.80659     0.89712
 I     1.79449     1.26090     1.21802
 I     0.19811    -2.48923    -0.05272
 S    -2.10971     0.80060     0.65473
 C    -2.06649     1.28835     2.46409
 C    -1.72285     0.04726     3.24903
 C    -3.43458     1.84574     2.77597
 S    -0.59776     1.17483    -1.90743
Ga    -2.00894     2.70040    -0.79489
 C     0.84138     2.02433    -2.70042
 I    -1.11329     4.71353     0.45665
 I    -4.11454     2.76493    -2.19225
 C     0.23652     2.71597    -3.90079
 C     1.85716     0.96177    -3.05632
 I     1.94814    10.48317    -7.07491
 I     3.54239    14.21101    -5.75388
Ga     3.74221    11.72272    -5.83237
 S     5.85185    10.92281    -6.48760
 C     5.79580    10.44660    -8.29858
 C     5.44297    11.69574    -9.06692
 C     7.15996     9.88942    -8.62482
 S     4.32777    10.52335    -3.93807
Ga     5.75444     9.01461    -5.05115
 C     2.87441     9.66285    -3.18508
 I     4.85974     7.00320    -6.30456
 I     7.86993     8.95458    -3.66746
 C     3.46108     8.95079    -1.98830
 C     1.85324    10.72327    -2.83484
 I    -5.69443     7.91877    -6.73699
 I    -4.05723    11.86701    -5.68895
Ga    -3.89001     9.35687    -5.71473
 S    -1.68781     8.73811    -6.28638
 C    -1.68055     7.99438    -7.99383
 C    -2.04807     9.14584    -8.90859
 C    -0.28667     7.45580    -8.21817
 S    -3.13532     8.52364    -3.61601
Ga    -1.49279     7.14968    -4.60348
 C    -4.44802     7.44249    -2.82159
 I    -2.54999     4.97966    -5.32518
 I     0.61447     6.89141    -3.28928
 C    -3.74172     6.63761    -1.76070
 C    -5.49124     8.40780    -2.31394
 H     6.16920     4.58879     2.20319
 H     5.22578     1.67751     2.81976
 H     6.86238     2.41988     3.09423
 H     5.46188     2.89041     4.12687
 H     3.22254     3.54963     2.12144
 H     3.88205     4.60045     3.43138
 H     3.86543     5.21298     1.74056
 H     8.60356     4.96313    -2.23567
 H     6.82343     4.44923    -4.75863
 H     8.20563     5.60840    -4.72721
 H     6.81762     5.89919    -3.65246
 H     8.79583     2.55527    -4.22324
 H     9.75668     2.86110    -2.69866
 H    10.00781     3.88928    -4.12502
 H    -1.27214     2.08422     2.57017
 H    -2.38725    -0.81274     2.98923
 H    -0.65839    -0.25465     3.12096
 H    -1.86767     0.25984     4.34112
 H    -4.25258     1.11745     2.54614
 H    -3.49213     2.09287     3.86633
 H    -3.60611     2.78962     2.21468
 H     1.28806     2.76475    -1.98064
 H    -0.32682     2.01034    -4.55821
 H     1.07515     3.14480    -4.49597
 H    -0.43766     3.56097    -3.61567
 H     1.39529     0.07688    -3.56129
 H     2.41474     0.64541    -2.14817
 H     2.62356     1.37935    -3.76190
 H     4.99932     9.65255    -8.40594
 H     4.37124    11.97847    -8.94528
 H     5.60271    11.50602   -10.16070
 H     6.09073    12.56140    -8.78590
 H     7.32990     8.93036    -8.08816
 H     7.98187    10.60745    -8.37680
 H     7.21534     9.66885    -9.72068
 H     2.44001     8.93143    -3.92165
 H     2.61016     8.56103    -1.38319
 H     4.09372     8.07636    -2.28025
 H     4.06283     9.63131    -1.33791
 H     1.11998    10.32496    -2.08654
 H     2.31485    11.63386    -2.37993
 H     1.25932    10.99141    -3.73650
 H    -2.43678     7.16666    -8.04750
 H    -3.15072     9.31747    -8.92889
 H    -1.72566     8.90576    -9.95279
 H    -1.53760    10.09757    -8.62019
 H    -0.13073     6.53778    -7.61308
 H     0.50988     8.20454    -7.98118
 H    -0.16232     7.16764    -9.29628
 H    -4.88423     6.77480    -3.62240
 H    -4.50509     6.12419    -1.12931
 H    -3.10941     5.82369    -2.19210
 H    -3.11509     7.27362    -1.08633
 H    -6.26137     7.87437    -1.70536
 H    -5.05199     9.20930    -1.66837
 H    -6.03976     8.86047    -3.16783
