   54
 
Sn     0.00000     0.00000     0.00000
Sn     8.34506     0.00000     0.00000
Cl     3.84354     2.57438     0.00000
Cl     4.19693     0.47699    -3.00500
Cl     6.41826     3.08365    -2.24975
Cl    10.03765    -1.23741    -1.04659
Cl     7.38320    -1.93271     1.05876
Cl     9.47280     0.81610     1.89696
 O     4.55161    -0.48265    -0.10400
 O     9.12641     1.72061    -1.04931
 O     7.01586    -0.05065    -1.61343
 O     6.71127     1.22077     0.45247
Sn     5.40517     1.21948    -1.15468
Sn    -2.93992     1.21982    -1.15689
Cl     1.56159    -1.35456    -1.15689
Cl     1.20954     0.74293     1.84855
Cl    -1.01336    -1.86433     1.09369
Cl    -4.63275     2.45672    -0.10948
Cl    -1.97831     3.15203    -2.21482
Cl    -4.06766     0.40372    -3.05385
 O     0.85328     1.70196    -1.05206
 O    -3.72128    -0.50079    -0.10759
 O    -1.61096     1.26997     0.45737
 O    -1.30614    -0.00095    -1.60936
 O     2.73268     8.75353     0.49647
 H     1.96841     8.47966     0.28072
 H     2.62928     9.24407     1.16868
 O     6.35619     2.86348     2.70841
 H     7.12046     3.13734     2.92415
 H     6.45983     2.37344     2.03536
 C     4.43876     7.04917    -2.02808
 H     3.82250     6.81849    -2.71400
 C     4.60568     6.21523    -0.99156
 H     4.14310     5.38721    -0.95645
 C     5.12997     8.22055    -2.12527
 H     5.02250     8.77843    -2.88575
 C     6.16072     7.76108    -0.06781
 H     6.77699     7.99176     0.61811
 C     5.99381     8.59502    -1.10433
 H     6.45663     9.42353    -1.14028
 C     5.46952     6.58970     0.02938
 H     5.57698     6.03182     0.78985
 H     3.64304    -0.24383     0.03729
 H     5.01373    -0.70459     0.69580
 H     8.37962     2.29991    -1.14526
 H     9.54572     1.50339    -1.87362
 H     6.73553    -0.93267    -1.82784
 H     6.28511     0.96553     1.26224
 H     0.13013     2.31099    -1.14494
 H     1.61003     2.07609    -0.61632
 H    -4.63999    -0.30019     0.02739
 H    -3.57576    -1.32109    -0.56414
 H    -2.02877     1.04718     1.28096
 H    -1.57101    -0.87902    -1.85703
