  140
 
Te     0.00000     0.00000     0.00000
Cl    -2.46543    -0.59207     0.00000
Cl     2.46543     0.59207     0.00000
Cl     0.36335    -1.70952     1.83696
Cl    -0.36335     1.70952    -1.83696
Cl    -0.46624     1.74499     1.77948
Cl     0.46624    -1.74499    -1.77948
Te    -6.25108     4.73554    -3.70983
Cl    -3.75896     4.26312    -3.70983
Cl    -8.74223     5.20877    -3.71043
Cl    -6.53154     3.01048    -1.87287
Cl    -5.96964     6.46142    -5.54739
Cl    -5.86859     6.50181    -1.93095
Cl    -6.63260     2.97009    -5.48931
Te    -0.02836     1.17482    -8.59482
Cl    -2.51009     1.25808    -9.10909
Cl     2.45337     1.09176    -8.08195
Cl     0.23971     3.41340    -9.75705
Cl    -0.29642    -1.06356    -7.43399
Cl    -0.48222     2.40709    -6.42585
Cl     0.42550    -0.05725   -10.76519
Te    -6.04370    -3.85678    -4.88499
Cl    -3.56786    -3.65466    -5.39866
Cl    -8.51853    -4.05947    -4.37212
Cl    -6.41943    -1.63454    -6.04662
Cl    -5.66696    -6.07960    -3.72416
Cl    -5.64881    -2.60403    -2.71602
Cl    -6.43757    -5.11011    -7.05476
 N    -2.51060    -0.54410     3.53517
 C    -3.85184    -0.01177     3.19057
 H    -2.02699    -0.43929     2.85420
 H    -4.20661    -0.64713     2.32412
 H    -3.61541     0.80210     2.97631
 H    -4.29223    -0.12518     4.13000
 C    -2.54246    -2.00084     3.81432
 C    -1.87089     0.22138     4.63328
 H    -1.46630    -2.28473     4.01819
 H    -2.85401    -2.27207     3.04389
 H    -3.22924    -1.97708     4.59989
 H    -1.87183     1.29677     4.28141
 H    -1.08827    -0.16793     4.62173
 H    -2.51398    -0.07262     5.40097
 N    -3.71717     4.31399    -0.17526
 C    -2.40218     4.91043    -0.51986
 H    -4.20528     4.39535    -0.85624
 H    -2.01815     4.29210    -1.38571
 H    -2.67860     5.71192    -0.73412
 H    -1.95681     4.81760     0.42018
 C    -3.61505     2.85969     0.10449
 C    -4.39307     5.04771     0.92285
 H    -4.67529     2.52502     0.30776
 H    -3.29080     2.60460    -0.66654
 H    -2.93023     2.91655     0.89007
 H    -4.44299     6.12113     0.57159
 H    -5.15600     4.62110     0.91130
 H    -3.73555     4.78511     1.69054
 N    -2.40015    -5.12045    -0.69199
 C    -3.71610    -5.63585    -0.24068
 H    -1.89786    -5.78950    -0.78510
 H    -4.06994    -6.30962    -1.07670
 H    -3.44996    -6.05283     0.48008
 H    -4.18149    -4.71348    -0.08809
 C    -2.48307    -4.46183    -2.01979
 C    -1.76302    -4.24769     0.32587
 H    -1.42112    -4.15677    -2.26207
 H    -2.78475    -5.14149    -2.47996
 H    -3.18688    -3.73208    -1.76927
 H    -1.72289    -4.87427     1.26566
 H    -0.99261    -4.13125    -0.07112
 H    -2.43248    -3.44937     0.26378
 N    -3.60672    -0.26237    -4.40243
 C    -2.26644    -0.71365    -3.95111
 H    -4.07615    -0.95487    -4.49554
 H    -1.88148    -1.37039    -4.78653
 H    -2.51315    -1.14301    -3.23036
 H    -1.84607     0.22930    -3.79792
 C    -3.55566     0.39869    -5.72961
 C    -4.28521     0.57864    -3.38456
 H    -4.63010     0.65299    -5.97250
 H    -3.22155    -0.26482    -6.19039
 H    -2.88787     1.16155    -5.47910
 H    -4.29405    -0.04991    -2.44417
 H    -5.06035     0.65778    -3.78155
 H    -3.65405     1.40835    -3.44665
 N     2.51060     0.54410    -3.53517
 C     3.85184     0.01176    -3.19057
 H     2.02699     0.43929    -2.85420
 H     4.20661     0.64713    -2.32412
 H     3.61541    -0.80210    -2.97631
 H     4.29223     0.12518    -4.13000
 C     2.54246     2.00084    -3.81432
 C     1.87089    -0.22137    -4.63328
 H     1.46630     2.28473    -4.01819
 H     2.85401     2.27207    -3.04389
 H     3.22924     1.97708    -4.59989
 H     1.87183    -1.29677    -4.28141
 H     1.08826     0.16793    -4.62174
 H     2.51398     0.07262    -5.40097
 N     3.71717    -4.31399     0.17526
 C     2.40218    -4.91043     0.51986
 H     4.20528    -4.39535     0.85624
 H     2.01815    -4.29210     1.38571
 H     2.67860    -5.71192     0.73412
 H     1.95681    -4.81760    -0.42018
 C     3.61505    -2.85969    -0.10449
 C     4.39307    -5.04771    -0.92285
 H     4.67529    -2.52502    -0.30776
 H     3.29080    -2.60460     0.66654
 H     2.93023    -2.91655    -0.89007
 H     4.44299    -6.12113    -0.57159
 H     5.15600    -4.62110    -0.91130
 H     3.73555    -4.78511    -1.69054
 N     2.40015     5.12045     0.69199
 C     3.71610     5.63585     0.24068
 H     1.89786     5.78950     0.78510
 H     4.06994     6.30962     1.07670
 H     3.44996     6.05283    -0.48008
 H     4.18149     4.71348     0.08809
 C     2.48306     4.46183     2.01979
 C     1.76302     4.24769    -0.32587
 H     1.42112     4.15677     2.26207
 H     2.78475     5.14149     2.47996
 H     3.18688     3.73208     1.76927
 H     1.72289     4.87427    -1.26566
 H     0.99261     4.13126     0.07112
 H     2.43248     3.44937    -0.26378
 N     3.60672     0.26237     4.40243
 C     2.26644     0.71365     3.95111
 H     4.07615     0.95487     4.49553
 H     1.88148     1.37039     4.78652
 H     2.51315     1.14301     3.23035
 H     1.84607    -0.22930     3.79791
 C     3.55565    -0.39869     5.72961
 C     4.28521    -0.57864     3.38456
 H     4.63010    -0.65299     5.97250
 H     3.22155     0.26482     6.19039
 H     2.88787    -1.16155     5.47910
 H     4.29405     0.04991     2.44417
 H     5.06034    -0.65778     3.78155
 H     3.65405    -1.40835     3.44665
