  100
 
Pd     0.00000     0.00000     0.00000
Cl    -1.52703    -1.47465    -0.84905
Cl    -1.21799     1.74794    -0.84905
Cl     1.52703     1.47465     0.84905
Cl     1.21800    -1.74794     0.84905
Pd    -5.07389    -5.30370    -2.30684
Cl    -6.72287    -6.20304    -1.00309
Cl    -6.07613    -6.17985    -4.17512
Cl    -3.42484    -4.40529    -3.61098
Cl    -4.07158    -4.42847    -0.43894
Pd     0.46267    -2.83082    -7.04249
Cl    -1.30840    -1.57778    -6.32104
Cl    -0.57257    -4.73016    -6.28061
Cl     2.23383    -4.08438    -7.76526
Cl     1.49800    -0.93199    -7.80568
Pd    -5.43650     1.73556    -5.16018
Cl    -7.08554     2.41276    -6.59284
Cl    -6.68741     2.45978    -3.38038
Cl    -3.78745     1.05876    -3.72844
Cl    -4.18558     1.01173    -6.94090
 C    -0.80837     3.13888    -5.91954
 N    -1.10572     2.21478    -6.79152
 N    -1.60662     3.34961    -4.88928
 N     0.26749     3.88741    -6.06957
 H    -0.47367     1.95800    -7.38662
 H    -1.66045     1.42678    -6.76929
 H    -1.39498     3.72343    -4.21632
 H    -2.20688     2.92823    -4.68986
 H     0.51945     4.41347    -5.53685
 H     0.78327     3.73468    -6.64007
 C    -6.20307    -1.35947    -1.33311
 N    -6.57120    -2.24272    -0.44643
 N    -7.00381    -0.35030    -1.62493
 N    -5.05048    -1.47572    -1.96425
 H    -5.95300    -2.82089    -0.12532
 H    -7.20619    -2.24060     0.27832
 H    -6.77326     0.33004    -1.97334
 H    -7.65058    -0.16979    -1.26889
 H    -4.75980    -0.93375    -2.46001
 H    -4.53760    -2.03212    -1.75882
 C    -0.37202    -6.08010    -1.18652
 N    -0.85632    -5.20813    -0.34569
 N    -1.05333    -6.38986    -2.27494
 N     0.77951    -6.67989    -0.95071
 H    -0.31190    -4.87230     0.29492
 H    -1.50798    -4.50158    -0.41368
 H    -0.74245    -6.72949    -2.92807
 H    -1.68729    -6.05233    -2.52250
 H     1.13971    -7.16481    -1.45975
 H     1.22477    -6.46165    -0.34264
 C    -5.95031    -2.31960    -6.19878
 N    -6.36391    -1.48796    -7.11531
 N    -6.62919    -3.42727    -5.96382
 N    -4.87558    -2.05408    -5.48056
 H    -5.80563    -0.83073    -7.39091
 H    -6.93521    -1.57206    -7.88713
 H    -6.33732    -4.07290    -5.59427
 H    -7.21674    -3.69111    -6.36669
 H    -4.55410    -2.55492    -4.96111
 H    -4.42734    -1.43271    -5.64972
 C     0.90845     1.06996    -3.97721
 N     1.20580     1.99406    -3.10523
 N     1.70669     0.85922    -5.00747
 N    -0.16741     0.32142    -3.82718
 H     0.57375     2.25084    -2.51013
 H     1.76052     2.78206    -3.12746
 H     1.49506     0.48541    -5.68043
 H     2.30695     1.28061    -5.20689
 H    -0.41937    -0.20463    -4.35990
 H    -0.68319     0.47416    -3.25668
 C    -4.77000     0.62214     0.90859
 N    -4.40187     1.50539     0.02191
 N    -3.96925    -0.38703     1.20040
 N    -5.92258     0.73839     1.53972
 H    -5.02006     2.08356    -0.29921
 H    -3.76687     1.50328    -0.70285
 H    -4.19980    -1.06736     1.54882
 H    -3.32249    -0.56754     0.84436
 H    -6.21326     0.19642     2.03548
 H    -6.43547     1.29479     1.33429
 C     1.19738    -3.79090    -3.00302
 N     1.68168    -4.66286    -3.84385
 N     1.87868    -3.48114    -1.91461
 N     0.04585    -3.19111    -3.23883
 H     1.13726    -4.99870    -4.48446
 H     2.33334    -5.36941    -3.77586
 H     1.56781    -3.14150    -1.26147
 H     2.51264    -3.81867    -1.66704
 H    -0.31435    -2.70618    -2.72980
 H    -0.39941    -3.40935    -3.84691
 C    -4.09732    -4.07988    -8.31204
 N    -3.68372    -4.91153    -7.39551
 N    -3.41843    -2.97221    -8.54700
 N    -5.17205    -4.34540    -9.03026
 H    -4.24199    -5.56875    -7.11990
 H    -3.11242    -4.82743    -6.62369
 H    -3.71031    -2.32659    -8.91655
 H    -2.83089    -2.70837    -8.14413
 H    -5.49353    -3.84456    -9.54971
 H    -5.62029    -4.96677    -8.86110
