  112
 
Ga     0.00000     0.00000     0.00000
Cl    -2.25233    -4.54414    -4.27074
Cl    -5.81106    -4.24796    -4.37028
 C    -3.77782    -2.05736    -6.42323
Ga    -1.59423    -3.51137    -2.27747
Cl    -3.36685    -2.09866    -2.84238
Cl     0.20086    -2.43271    -2.74942
 C    -1.85335    -4.59509    -0.68849
Ga    -4.03327    -3.13704    -4.83078
Cl     1.80394    -1.38160     0.54348
Cl    -1.77224    -1.12372     0.45403
 C     0.23928     1.08778    -1.58916
Ga     2.44952    -0.35376     2.54573
Cl     0.64912     1.03063     1.99745
Cl     4.22763     0.75297     2.07884
 C     2.17406    -1.44123     4.12951
 H    -3.85211    -2.72260    -7.32495
 H    -2.77642    -1.55945    -6.40969
 H    -4.58129    -1.27340    -6.46256
 H     0.22221     0.41959    -2.49174
 H     1.21224     1.63869    -1.55221
 H    -0.60403     1.82699    -1.64801
 H    -1.64360    -3.96660     0.21826
 H    -2.90178    -4.98181    -0.63662
 H    -1.13848    -5.46083    -0.72345
 H     2.35909    -0.81204     5.04110
 H     1.12736    -1.83554     4.15921
 H     2.89612    -2.30109     4.10886
Ga     5.59518     3.59949    -1.59630
Cl     3.33066    -0.97090    -5.85153
Cl    -0.24446    -0.66198    -5.95536
 C     1.82548     1.52401    -7.99121
Ga     3.98786     0.07076    -3.86324
Cl     2.18689     1.45393    -4.40773
Cl     5.76125     1.19006    -4.32216
 C     3.74398    -1.01555    -2.27420
Ga     1.54596     0.42939    -6.41307
Cl     7.36617     2.18220    -1.03077
Cl     3.79475     2.52428    -1.13379
 C     5.85631     4.67648    -3.19034
Ga     8.02809     3.20692     0.96495
Cl     6.24590     4.61506     0.40923
Cl     9.80144     4.33140     0.51955
 C     7.76543     2.13088     2.55910
 H     1.63613     0.90048    -8.90563
 H     2.87324     1.91541    -8.02080
 H     1.10575     2.38589    -7.96300
 H     5.65762     4.04141    -4.09514
 H     6.90160     5.07191    -3.23942
 H     5.13268     5.53544    -3.16348
 H     3.78139    -0.34840    -1.37151
 H     2.76074    -1.54792    -2.30376
 H     4.57285    -1.77112    -2.22222
 H     7.84461     2.79681     3.46004
 H     6.75984     1.64173     2.54731
 H     8.56231     1.34041     2.60102
Ga    -2.45962     5.33335     3.14844
Cl    -4.71844     0.78820    -1.12454
Cl    -8.27369     1.07197    -1.23513
 C    -6.23865     3.27255    -3.27459
Ga    -4.06682     1.80433     0.88084
Cl    -5.83898     3.22057     0.31593
Cl    -2.26699     2.87969     0.41687
 C    -4.32856     0.72667     2.47415
Ga    -6.50023     2.19657    -1.68018
Cl    -0.65958     3.94907     3.69351
Cl    -4.23298     4.21359     3.60641
 C    -2.21659     6.41876     1.55863
Ga    -0.01749     4.97406     5.69813
Cl    -1.80227     6.37466     5.13654
Cl     1.77225     6.06579     5.23914
 C    -0.29789     3.87944     7.27601
 H    -6.31409     2.60580    -4.17522
 H    -5.23492     3.76555    -3.26152
 H    -7.03846     4.05993    -3.31816
 H    -2.24865     5.75029     0.65678
 H    -1.23599     6.95598     1.58994
 H    -3.04913     7.17009     1.50372
 H    -4.12388     1.35979     3.37905
 H    -5.37585     0.33693     2.52582
 H    -3.60981    -0.13629     2.44431
 H    -0.10437     4.50186     8.19035
 H    -1.34716     3.49228     7.30732
 H     0.41828     3.01466     7.24597
Ga     3.12238     8.91559     1.56181
Cl     0.87928     4.37317    -2.71402
Cl    -2.69964     4.65013    -2.79461
 C    -0.64622     6.84488    -4.84529
Ga     1.52802     5.40357    -0.71610
Cl    -0.27657     6.78440    -1.25955
Cl     3.30021     6.52761    -1.16958
 C     1.28803     4.31576     0.87297
Ga    -0.92168     5.75696    -3.26187
Cl     4.89367     7.50157     2.12801
Cl     1.32663     7.83723     2.03229
 C     3.38105     9.99857    -0.02788
Ga     5.56155     8.54054     4.11573
Cl     3.78078     9.94783     3.55512
Cl     7.33948     9.65071     3.65444
 C     5.30478     7.46068     5.70782
 H    -0.82579     6.21451    -5.75709
 H     0.39878     7.24395    -4.87221
 H    -1.37225     7.70143    -4.82699
 H     3.17710     9.36807    -0.93445
 H     4.42765    10.39058    -0.07729
 H     2.66157    10.86064     0.00387
 H     1.31216     4.98323     1.77603
 H     0.31182     3.77052     0.83910
 H     2.12755     3.57198     0.92846
 H     5.38439     8.12498     6.60983
 H     4.30080     6.96806     5.69607
 H     6.10410     6.67238     5.74494
