  100
 
Pd     0.00000     0.00000     0.00000
Cl    -2.18455    -0.94577    -0.60019
Cl    -0.42227     2.39999     0.50221
Cl     2.18707     0.78369     1.05814
Cl     0.45754    -2.46606    -0.54362
Pd    -5.62567    -2.73136    -4.17951
Cl    -7.24785    -4.55679    -3.48021
Cl    -7.23517    -1.60602    -5.78944
Cl    -3.92883    -1.29891    -5.30311
Cl    -4.26517    -3.62326    -2.27120
Pd     0.12021     0.51620    -6.77574
Cl    -0.43495     2.04776    -4.91712
Cl    -2.17319     0.52668    -7.84144
Cl     0.68847    -1.03154    -8.62016
Cl     2.41658     0.93036    -5.83506
Pd    -4.34950     3.64387    -4.23252
Cl    -5.17579     5.33105    -5.87399
Cl    -6.46862     2.45295    -3.57378
Cl    -3.52982     1.87362    -2.61928
Cl    -2.12223     4.80693    -4.64139
 C     1.41340     6.18070    -4.95873
 N     1.14964     4.87140    -5.25038
 N     0.37989     7.05407    -4.60033
 N     2.72414     6.70379    -5.11256
 H     1.91736     4.27959    -5.60206
 H     0.16717     4.56610    -5.41796
 H     0.65320     7.89056    -4.05821
 H    -0.49171     6.60047    -4.25581
 H     2.95055     7.46891    -4.46177
 H     3.50755     6.02169    -5.21463
 C    -6.76930    -0.88699    -2.52325
 N    -7.12424    -1.57400    -1.37506
 N    -7.71445    -0.29838    -3.30499
 N    -5.39169    -0.76142    -2.84945
 H    -6.51768    -2.34525    -1.03960
 H    -8.13353    -1.68945    -1.17879
 H    -7.44764     0.37471    -4.03266
 H    -8.72510    -0.43325    -3.11416
 H    -5.14469     0.02675    -3.48159
 H    -4.75982    -0.81129    -2.01906
 C    -1.01569    -4.84840    -1.59878
 N    -1.85461    -5.05959    -0.45821
 N    -1.55791    -4.34526    -2.73286
 N     0.24156    -5.42518    -1.60189
 H    -1.41579    -4.68779     0.40820
 H    -2.83942    -4.71508    -0.55771
 H    -1.00156    -4.28392    -3.61107
 H    -2.59455    -3.87733    -2.73123
 H     0.94526    -5.05954    -2.27576
 H     0.63303    -5.77345    -0.70829
 C    -4.40822     1.87342    -6.48210
 N    -4.41516     2.59665    -7.65528
 N    -5.48229     1.10121    -6.14272
 N    -3.34117     2.05387    -5.54950
 H    -3.51520     2.87703    -8.08722
 H    -5.20847     2.48218    -8.30645
 H    -5.55119     0.65056    -5.23110
 H    -6.24895     0.93468    -6.81580
 H    -3.06302     1.19160    -5.04134
 H    -2.50688     2.55575    -5.94832
 C     0.15428     2.30010    -2.40771
 N    -0.47085     3.53220    -2.25174
 N     1.49417     2.24051    -2.67822
 N    -0.52162     1.08737    -2.04528
 H    -1.50335     3.50191    -2.32076
 H    -0.03762     4.35076    -2.72665
 H     1.91908     1.33330    -2.88234
 H     1.98999     3.06706    -3.06093
 H    -0.41497     0.34404    -2.76484
 H    -1.52638     1.23947    -1.77173
 C    -4.62346     1.32520     0.07539
 N    -3.44147     2.02116     0.47361
 N    -4.82533     0.01028     0.43399
 N    -5.59470     1.97389    -0.64782
 H    -2.98139     2.57758    -0.27192
 H    -2.75781     1.45059     1.02131
 H    -5.78485    -0.37625     0.45531
 H    -4.12347    -0.47609     1.01400
 H    -6.37563     1.41597    -1.04227
 H    -5.37239     2.84700    -1.13813
 C    -0.04559    -1.87345    -4.87148
 N     0.78452    -2.69720    -5.56043
 N     0.17785    -1.58576    -3.49628
 N    -1.00859    -1.10557    -5.53765
 H     0.57507    -2.96497    -6.54189
 H     1.47688    -3.27453    -5.05041
 H    -0.60231    -1.89273    -2.86629
 H     1.11851    -1.83943    -3.12419
 H    -1.56952    -0.46062    -4.94999
 H    -1.54918    -1.58799    -6.30226
 C    -5.88317    -0.85285    -8.86247
 N    -5.07708    -1.62287    -8.04411
 N    -5.39684     0.32612    -9.44913
 N    -7.21026    -1.21541    -9.06461
 H    -5.48176    -2.16778    -7.27118
 H    -4.07833    -1.38050    -7.95238
 H    -5.87459     0.64610   -10.31515
 H    -4.36088     0.42241    -9.50852
 H    -7.80999    -0.58904    -9.65153
 H    -7.71260    -1.74765    -8.34255
