  120
 
Be     0.00000     0.00000     0.00000
Br     2.14739     0.00000     0.00000
Br    -0.92192     1.93925     0.00000
 N    -0.57872    -0.90810     1.33200
 C    -1.02985    -1.61292     2.10400
 C    -1.60649    -2.52184     3.06900
 H    -2.57262    -2.36739     3.12700
 H    -1.19871    -2.36952     3.94700
 H    -1.44029    -3.44625     2.78800
 N    -0.57872    -0.90810    -1.33200
 C    -1.02985    -1.61292    -2.10400
 C    -1.60649    -2.52184    -3.06800
 H    -2.57262    -2.36739    -3.12600
 H    -1.19871    -2.36952    -3.94600
 H    -1.44029    -3.44625    -2.78700
Be     6.43910     3.80083     5.01900
Br     4.32222     3.44613     5.01900
Br     7.02797     5.86574     5.01900
 N     7.16089     3.00090     3.68700
 C     7.72227     2.38030     2.91500
 C     8.44115     1.57913     1.95000
 H     9.36849     1.89107     1.89200
 H     8.01282     1.66191     1.07200
 H     8.42996     0.63997     2.23100
 N     7.16089     3.00090     6.35100
 C     7.72227     2.38030     7.12300
 C     8.44115     1.57913     8.08700
 H     9.36849     1.89107     8.14500
 H     8.01282     1.66191     8.96500
 H     8.42996     0.63997     7.80600
Be     0.40555     0.75823     5.01900
Br    -1.74184     0.75823     5.01900
Br     1.32746    -1.18103     5.01900
 N     0.98426     1.66632     6.35100
 C     1.43539     2.37114     7.12300
 C     2.01204     3.28007     8.08700
 H     2.97816     3.12562     8.14500
 H     1.60426     3.12774     8.96500
 H     1.84584     4.20447     7.80600
 N     0.98426     1.66632     3.68700
 C     1.43539     2.37114     2.91500
 C     2.01203     3.28007     1.95000
 H     2.97816     3.12562     1.89200
 H     1.60426     3.12774     1.07200
 H     1.84584     4.20447     2.23100
Be     6.45432    -2.00389     0.00000
Br     8.57120    -1.64920     0.00000
Br     5.86545    -4.06881     0.00000
 N     5.73253    -1.20397    -1.33200
 C     5.17115    -0.58336    -2.10400
 C     4.45227     0.21780    -3.06800
 H     3.52493    -0.09414    -3.12600
 H     4.88060     0.13502    -3.94600
 H     4.46346     1.15696    -2.78700
 N     5.73253    -1.20397     1.33200
 C     5.17115    -0.58336     2.10400
 C     4.45227     0.21780     3.06900
 H     3.52493    -0.09414     3.12700
 H     4.88060     0.13502     3.94700
 H     4.46346     1.15696     2.78800
Be     0.53946    -6.48560     0.00000
Br     2.68685    -6.48560     0.00000
Br    -0.38246    -4.54635     0.00000
 N    -0.03926    -7.39370     1.33200
 C    -0.49039    -8.09852     2.10400
 C    -1.06703    -9.00745     3.06900
 H    -2.03316    -8.85300     3.12700
 H    -0.65926    -8.85512     3.94700
 H    -0.90084    -9.93185     2.78800
 N    -0.03926    -7.39370    -1.33200
 C    -0.49039    -8.09852    -2.10400
 C    -1.06703    -9.00745    -3.06800
 H    -2.03316    -8.85300    -3.12600
 H    -0.65926    -8.85512    -3.94600
 H    -0.90084    -9.93185    -2.78700
Be     6.97856    -2.68478     5.01900
Br     4.86168    -3.03947     5.01900
Br     7.56742    -0.61986     5.01900
 N     7.70035    -3.48470     3.68700
 C     8.26173    -4.10530     2.91500
 C     8.98061    -4.90647     1.95000
 H     9.90794    -4.59453     1.89200
 H     8.55227    -4.82369     1.07200
 H     8.96942    -5.84563     2.23100
 N     7.70035    -3.48470     6.35100
 C     8.26173    -4.10530     7.12300
 C     8.98061    -4.90647     8.08700
 H     9.90794    -4.59453     8.14500
 H     8.55227    -4.82369     8.96500
 H     8.96942    -5.84563     7.80600
Be     0.94500    -5.72738     5.01900
Br    -1.20239    -5.72738     5.01900
Br     1.86692    -7.66663     5.01900
 N     1.52372    -4.81928     6.35100
 C     1.97485    -4.11446     7.12300
 C     2.55149    -3.20553     8.08700
 H     3.51762    -3.35998     8.14500
 H     2.14372    -3.35786     8.96500
 H     2.38530    -2.28113     7.80600
 N     1.52372    -4.81928     3.68700
 C     1.97485    -4.11446     2.91500
 C     2.55149    -3.20554     1.95000
 H     3.51762    -3.35998     1.89200
 H     2.14372    -3.35786     1.07200
 H     2.38529    -2.28113     2.23100
Be     6.99377    -8.48949     0.00000
Br     9.11066    -8.13480     0.00000
Br     6.40491   -10.55441     0.00000
 N     6.27198    -7.68957    -1.33200
 C     5.71061    -7.06897    -2.10400
 C     4.99173    -6.26780    -3.06800
 H     4.06439    -6.57974    -3.12600
 H     5.42006    -6.35058    -3.94600
 H     5.00292    -5.32864    -2.78700
 N     6.27198    -7.68957     1.33200
 C     5.71061    -7.06897     2.10400
 C     4.99172    -6.26780     3.06900
 H     4.06439    -6.57974     3.12700
 H     5.42006    -6.35058     3.94700
 H     5.00292    -5.32864     2.78800
