  156
 
Zn     0.00000     0.00000     0.00000
Br     2.43957     0.01760    -0.06958
Br    -0.82059     2.28657    -0.06197
Br    -0.78224    -1.05934     2.00655
Br    -0.68700    -1.31810    -1.93263
Zn    -0.66226    -0.75869     8.77246
Br    -3.10040    -0.63274     8.68012
Br     0.20283    -1.59706     6.66902
Br     0.02933    -2.22429    10.55532
Br     0.04663     1.52222     9.24991
Zn     5.38735     2.75474     5.24302
Br     2.94816     2.75397     5.33836
Br     6.20247     0.47317     5.35084
Br     6.20117     3.77750     3.22097
Br     6.12536     4.11864     7.12488
Zn     5.81079    -5.08633     9.42400
Br     8.24893    -5.20782     9.51698
Br     5.15672     4.29439    -1.42966
Br     5.08005    -3.61607     7.65878
Br     5.28107     1.20652    -4.08336
 N     1.04631    -5.96526     9.01657
 C    -0.42576    -5.75455     9.21054
 C     1.75220    -5.81379    10.32897
 C     1.58047    -4.96197     8.03757
 C     1.26515    -7.34766     8.47630
 N    -1.82223     1.85180     4.79034
 C    -0.35200     1.57497     4.68510
 C    -2.55357     0.58931     5.12987
 C    -2.32969     2.39362     3.48692
 C    -2.03983     2.86869     5.87164
 N     4.05928     0.09004     9.22789
 C     5.53353    -0.08479     9.01557
 C     3.34822    -0.01561     7.91357
 C     3.54997    -0.96716    10.16180
 C     3.81871     1.44219     9.83237
 N     7.24477     0.88838     0.44356
 C     5.77174     1.16395     0.51116
 C     7.98207     2.15305     0.12542
 C     7.71851     0.34631     1.76002
 C     7.49473    -0.12761    -0.63181
 N     3.20768    -1.96762     3.53861
 C     3.50408    -2.59008     4.86931
 C     2.63872    -0.59657     3.74679
 C     4.47893    -1.87494     2.74869
 C     2.22384    -2.81729     2.79343
 N    -3.79190     5.37449    -1.10719
 C    -4.13692     4.39156    -0.02894
 C    -3.20260     4.64208    -2.27461
 C    -5.03960     6.08903    -1.53090
 C    -2.80607     6.37078    -0.57783
 N     2.20252     4.70640     1.73841
 C     1.88917     5.31535     0.40485
 C     2.77338     3.33541     1.53240
 C     0.93889     4.61488     2.53982
 C     3.19042     5.56711     2.46622
 N    -2.83630    -4.17204     5.08723
 C    -2.48662    -3.20046     4.00050
 C    -3.43803    -3.43064     6.24304
 C    -1.58834    -4.87577     5.53039
 C    -3.81517    -5.18073     4.56715
 H    -0.95149    -5.73627     8.24294
 H    -0.86619    -6.56264     9.82631
 H    -0.62868    -4.79991     9.72742
 H     1.74779    -4.76243    10.66773
 H     2.80486    -6.14050    10.26305
 H     1.26908    -6.42230    11.11230
 H     0.99910    -4.96523     7.10090
 H     2.63053    -5.18770     7.77491
 H     1.54950    -3.93804     8.45107
 H     0.68195    -7.50429     7.55169
 H     2.32866    -7.51142     8.21811
 H     0.97031    -8.11317     9.21467
 H     0.19251     2.46707     4.33667
 H    -0.14907     0.75439     3.97505
 H     0.07091     1.27786     5.66393
 H    -2.56177    -0.11142     4.27653
 H    -2.08505     0.07309     5.98505
 H    -3.60369     0.79201     5.40717
 H    -1.70862     3.23257     3.13016
 H    -2.33130     1.61598     2.70150
 H    -3.36395     2.77017     3.59077
 H    -1.43777     3.77520     5.68680
 H    -1.76831     2.45736     6.85967
 H    -3.09872     3.18779     5.91145
 H     5.94269     0.71826     8.37246
 H     5.75432    -1.04639     8.51916
 H     6.07546    -0.06115     9.97392
 H     3.77494     0.68044     7.17134
 H     3.42317    -1.03716     7.50058
 H     2.27537     0.22626     8.01442
 H     2.50962    -0.75375    10.46917
 H     3.56103    -1.96474     9.68722
 H     4.15938    -1.02169    11.07922
 H     4.13771     2.24571     9.14741
 H     4.36817     1.54841    10.78458
 H     2.74631     1.59203    10.06398
 H     5.36796     1.43413    -0.48355
 H     5.22126     0.28157     0.87323
 H     5.55427     2.00489     1.19349
 H     7.53295     2.67240    -0.73810
 H     9.03877     1.95221    -0.12532
 H     7.96882     2.85038     0.98189
 H     8.75096    -0.04114     1.68056
 H     7.08087    -0.48465     2.10530
 H     7.71016     1.12595     2.54307
 H     7.25613     0.28556    -1.62725
 H     8.55406    -0.44985    -0.63695
 H     6.88616    -1.03374    -0.46725
 H     4.20681    -1.95992     5.44557
 H     3.95445    -3.59031     4.74856
 H     2.58462    -2.71939     5.46974
 H     2.44787    -0.09192     2.78404
 H     3.33213     0.03282     4.33283
 H     1.68042    -0.64449     4.29345
 H     4.27894    -1.55897     1.71043
 H     4.98164    -2.85894     2.70358
 H     5.18443    -1.16287     3.20990
 H     1.97700    -2.36492     1.81637
 H     2.63527    -3.82587     2.60572
 H     1.28838    -2.93102     3.37082
 H    -4.86826     3.64805    -0.39654
 H    -3.24060     3.84928     0.32363
 H    -4.57176     4.90253     0.84700
 H    -2.93302     5.33568    -3.08953
 H    -2.28537     4.10128    -1.98061
 H    -3.91846     3.90288    -2.67591
 H    -4.80544     6.93393    -2.20108
 H    -5.73588     5.40474    -2.04493
 H    -5.56682     6.50364    -0.65099
 H    -2.51975     7.09625    -1.35959
 H    -1.89121     5.86350    -0.22040
 H    -3.23643     6.93975     0.26657
 H     2.80193     5.44118    -0.20599
 H     1.18405     4.67703    -0.15875
 H     1.43306     6.31331     0.52024
 H     3.73373     3.38440     0.98888
 H     2.95977     2.82722     2.49366
 H     2.08241     2.70795     0.94149
 H     0.44233     5.60148     2.59746
 H     0.22454     3.91220     2.07750
 H     1.14495     4.29017     3.57383
 H     4.11180     5.69538     1.86951
 H     3.46439     5.11488     3.43564
 H     2.76903     6.56944     2.66628
 H    -3.38441    -2.68204     3.61605
 H    -2.01860    -3.71566     3.14386
 H    -1.78004    -2.43576     4.37410
 H    -4.36587    -2.91309     5.94081
 H    -2.73775    -2.66896     6.63055
 H    -3.69242    -4.11601     7.06938
 H    -1.05045    -5.29854     4.66150
 H    -1.82446    -5.71420     6.20800
 H    -0.90043    -4.18191     6.04278
 H    -4.72614    -4.68245     4.18967
 H    -3.37619    -5.76827     3.73965
 H    -4.10954    -5.88939     5.36152
