   92
 
Sb     0.00000     0.00000     0.00000
 O     2.04408    -0.70386     0.11222
 O     0.17018     2.13697    -0.18889
 O     0.70398     0.33111    -1.77217
 C     3.07548    -0.76984    -0.61115
 C     4.32115    -1.50194    -0.04492
 F    -0.26036    -1.87474    -0.24488
 F    -1.11198     0.01004     1.56610
 F     1.07682     0.79585     1.53726
 F     4.78838    -0.97453     1.08548
 F     4.04944    -2.77748     0.23604
 F     5.34146    -1.51928    -0.89874
 O     3.15058    -0.30493    -1.78826
Sb     1.98266     0.96508    -3.06996
 O     1.25278     2.73868    -2.06063
 C     0.65310     3.00097    -0.98205
 F     0.41996     1.89312    -4.04580
 F     1.77009    -0.44292    -4.34330
 F     3.40341     1.82072    -4.06327
 C     0.46572     4.48790    -0.57828
 F     1.53543     5.23868    -0.82549
 F    -0.55667     5.05095    -1.22199
 F     0.21302     4.61601     0.72184
Sb    -7.91476    -1.14482     0.04941
 O    -6.01847    -2.05500    -0.10833
 O    -7.86027     0.93576    -0.27050
 O    -7.51836    -0.96010    -1.82518
 C    -5.03672    -2.02186    -0.91886
 C    -3.73906    -2.71959    -0.43649
 F    -8.24105    -3.10592     0.53904
 F    -9.70562    -1.90916    -0.38273
 F    -8.53593    -0.78130     1.83792
 F    -3.26518    -2.20223     0.69331
 F    -3.92864    -4.01801    -0.21081
 F    -2.75991    -2.63126    -1.33262
 O    -5.04819    -1.48739    -2.05341
Sb    -6.44931    -0.49238    -3.40435
 O    -6.71481     1.35778    -2.15505
 C    -7.28532     1.71919    -1.11063
 F    -7.22129     0.95213    -4.39787
 F    -5.41297    -1.29695    -4.81191
 F    -4.71547     0.57374    -3.08045
 C    -7.32619     3.22173    -0.73018
 F    -6.24735     3.88327    -1.14723
 F    -8.38160     3.84604    -1.25183
 F    -7.38550     3.40761     0.58666
Sb     6.61381     3.67843    -5.03978
 O     4.72015     4.59310    -4.88191
 O     6.55479     1.59794    -4.72176
 O     6.21750     3.49262    -3.16544
 C     3.73677     4.55954    -4.07326
 C     2.44186     5.26103    -4.55697
 F     6.93872     5.63979    -5.52825
 F     8.40523     4.44187    -4.60968
 F     7.23194     3.31632    -6.82961
 F     1.97839     4.75810    -5.69751
 F     2.63303     6.56237    -4.76460
 F     1.45469     5.16081    -3.67117
 O     3.74607     4.02236    -2.94014
Sb     5.14587     3.02653    -1.58781
 O     5.40805     1.17626    -2.83810
 C     5.97634     0.81488    -3.88379
 F     5.91568     1.58029    -0.59505
 F     4.10429     3.83166    -0.18473
 F     3.41061     1.96188    -1.91320
 C     6.01000    -0.68701    -4.26693
 F     4.92987    -1.34461    -3.84681
 F     7.06455    -1.31657    -3.74984
 F     6.06352    -0.87122    -5.58419
Sb    -1.30619     2.54184    -4.98962
 O    -3.35068     3.24274    -5.10297
 O    -1.47204     0.40427    -4.80085
 O    -2.01081     2.20862    -3.21794
 C    -4.38337     3.30707    -4.38116
 C    -5.62837     4.03954    -4.94830
 F    -1.04741     4.41633    -4.74135
 F    -0.19750     2.53748    -6.55802
 F    -2.38091     1.74079    -6.52606
 F    -6.08874     3.51754    -6.08397
 F    -5.35782     5.31727    -5.22060
 F    -6.65296     4.05016    -4.09959
 O    -4.45967     2.84000    -3.20510
Sb    -3.28995     1.57235    -1.92189
 O    -2.55573    -0.20000    -2.93087
 C    -1.95552    -0.46078    -4.00962
 F    -1.72631     0.64803    -0.94469
 F    -3.08629     2.98244    -0.64937
 F    -4.70915     0.71136    -0.93065
 C    -1.76953    -1.94741    -4.41518
 F    -2.84284    -2.69556    -4.17544
 F    -0.75245    -2.51540    -3.76746
 F    -1.51066    -2.07351    -5.71427
