  152
 
Ba     0.00000     0.00000     0.00000
Cl   -10.23602    -2.66548    -1.59649
Cl    -6.38606    -2.14119    -1.35396
Cl    -8.23135    -4.45243     0.56084
Cl    -8.06316    -4.79551    -3.31320
Cu    -8.16672    -3.53622    -1.45919
Cu    -5.57989     4.35247    -3.91281
Cl    -6.64930     5.59836    -2.37942
Cl    -5.01582     5.40580    -5.84043
Cl    -7.12453     2.88062    -4.52743
Cl    -3.73714     3.71719    -2.79506
Ba    -8.31812     2.39820     1.69851
 O    -6.23552     0.73268     2.86553
 O    -8.73327    -0.58567     2.01278
 O   -10.81849     1.09556     1.26171
 O   -10.31840     2.47826     3.81901
 O    -7.56831     2.71987     4.55500
 O    -8.67695     1.74421    -1.18197
 O   -10.10429     3.98555     0.00136
 O    -8.49082     5.32143     1.91212
 O    -5.94862     3.92148     1.83080
 O    -5.98013     1.79574    -0.06872
 C    -6.60725    -0.63920     2.98332
 C    -7.37572    -0.89860     1.68924
 C    -9.63767    -0.88246     0.94454
 C   -10.98329    -0.31429     1.39206
 C   -11.69065     1.92482     2.00539
 C   -11.52254     1.77623     3.51307
 C    -9.89447     2.28618     5.16926
 C    -8.65954     3.16744     5.33359
 C    -6.84819     1.60167     5.07182
 C    -5.75283     1.37440     4.03139
 C    -9.16957     2.85462    -1.93438
 C   -10.42437     3.27888    -1.18116
 C    -9.70138     5.34166    -0.17590
 C    -9.62029     5.86715     1.25780
 C    -7.25221     5.96992     1.63557
 C    -6.23559     5.16235     2.44115
 C    -5.11086     3.94507     0.67697
 C    -4.82792     2.46788     0.41442
 C    -6.27595     2.00752    -1.44719
 C    -7.50683     1.14090    -1.70387
 O     0.21554    -2.28790    -1.79792
 O    -0.03068    -2.80069     1.08371
 O    -0.66379    -0.64308     2.70607
 O    -2.83532    -0.11177     0.76922
 O    -2.14459    -0.58677    -1.95675
 O     2.36393     0.31235     1.77475
 O     0.25551     2.31128     1.79828
 O    -0.76977     2.72368    -0.78529
 O     0.87556     1.00947    -2.48210
 O     2.83947    -0.41724    -1.02441
 C     0.11650    -3.53905    -1.12064
 C     0.92805    -3.30480     0.15164
 C     0.50311    -2.63355     2.40031
 C    -0.62555    -1.98092     3.19751
 C    -1.86480     0.08332     2.88591
 C    -3.04625    -0.50699     2.12350
 C    -3.76786    -0.70353    -0.13593
 C    -3.40578    -0.13359    -1.50487
 C    -2.10514    -1.91394    -2.47888
 C    -0.64710    -2.08519    -2.90255
 C     2.55780     1.66484     2.19457
 C     1.21649     2.05295     2.80381
 C     0.34066     3.59090     1.17592
 C    -0.90871     3.62664     0.29475
 C    -0.01907     3.20296    -1.89772
 C    -0.02865     2.02244    -2.86845
 C     2.26311     1.26630    -2.68175
 C     2.91453    -0.08556    -2.40163
 C     3.79265     0.24028    -0.19236
 C     3.50407    -0.30402     1.20430
 H    -8.40203     3.64831    -1.96473
 H    -9.39575     2.52343    -2.96501
 H   -11.11402     3.85999    -1.81789
 H   -10.95544     2.39547    -0.75295
 H    -8.72500     5.36167    -0.69123
 H   -10.44323     5.87413    -0.78839
 H    -9.62648     6.96795     1.30381
 H   -10.44560     5.46722     1.89125
 H    -7.06154     5.93925     0.54869
 H    -7.30847     7.01686     1.98301
 H    -5.30672     5.72569     2.63193
 H    -6.68320     4.81677     3.40607
 H    -4.18139     4.49703     0.90289
 H    -5.65373     4.43060    -0.15116
 H    -3.97148     2.33830    -0.27227
 H    -4.63653     1.91522     1.36231
 H    -5.41906     1.68426    -2.06349
 H    -6.47906     3.08218    -1.59957
 H    -7.46834     0.19419    -1.12279
 H    -7.63044     0.91128    -2.77716
 H     3.38075     1.70452     2.93146
 H     2.82016     2.28549     1.31923
 H     1.30312     2.90438     3.50019
 H     0.74545     1.18583     3.32506
 H     1.27602     3.64898     0.59285
 H     0.33968     4.37801     1.94580
 H    -1.15054     4.64318    -0.05162
 H    -1.79403     3.20016     0.82136
 H     0.99676     3.47510    -1.56139
 H    -0.52774     4.08618    -2.32474
 H     0.15898     2.33279    -3.91011
 H    -0.99543     1.46286    -2.79735
 H     2.58725     2.05135    -1.97705
 H     2.44072     1.59207    -3.72150
 H     3.95937    -0.10534    -2.76563
 H     2.34185    -0.92262    -2.85972
 H     4.81496    -0.01295    -0.52324
 H     3.63116     1.33035    -0.26190
 H     4.37604    -0.19948     1.87334
 H     3.18479    -1.36851     1.16843
 H    -5.69322    -1.25203     3.07232
 H    -7.24235    -0.78825     3.87559
 H    -7.05403    -0.19353     0.88334
 H    -7.28541    -1.94104     1.33827
 H    -9.27632    -0.38666     0.02010
 H    -9.68535    -1.97903     0.81112
 H   -11.22330    -0.59394     2.43231
 H   -11.80661    -0.62099     0.72057
 H   -11.33770     2.93173     1.65862
 H   -12.73406     1.76266     1.68585
 H   -11.43387     0.72167     3.83458
 H   -12.35021     2.26168     4.06281
 H    -9.67925     1.21630     5.32824
 H   -10.70491     2.61838     5.85012
 H    -8.38172     3.24556     6.40130
 H    -8.81477     4.18395     4.90180
 H    -6.42725     1.85892     6.06276
 H    -7.53416     0.74497     5.17826
 H    -5.40964     2.34346     3.58609
 H    -4.89508     0.82461     4.45045
 H     0.53555    -4.33466    -1.76144
 H    -0.94204    -3.76394    -0.89358
 H     1.69761    -2.50891     0.00160
 H     1.40104    -4.22652     0.53290
 H     1.39461    -1.97543     2.34272
 H     0.76586    -3.62747     2.80616
 H    -0.39860    -1.93706     4.27878
 H    -1.59073    -2.49158     3.03665
 H    -1.55898     1.07015     2.44812
 H    -2.08050     0.20298     3.96059
 H    -3.09189    -1.61056     2.18633
 H    -4.00613    -0.07663     2.46509
 H    -3.67008    -1.80108    -0.09084
 H    -4.79502    -0.40489     0.15859
 H    -3.22633     0.96714    -1.46390
 H    -4.19593    -0.36338    -2.24317
 H    -2.41972    -2.62424    -1.69588
 H    -2.79489    -1.99445    -3.34046
 H    -0.22466    -1.12824    -3.29950
 H    -0.52534    -2.89249    -3.64353
