  432
 
Al     0.00000     0.00000     0.00000
 I     2.54841     0.00000     0.00000
 I    -0.74178     2.45204     0.00000
 O    -0.45897    -0.58933     1.69380
 C    -1.49978    -1.46213     1.93346
 H    -1.33893    -1.93252     2.76601
 H    -1.54064    -2.11684     1.21987
 C    -2.82600    -0.72872     2.02084
 H    -3.07533    -0.62798     2.94089
 H    -3.49773    -1.23313     1.55665
 H    -2.74342     0.13539     1.61831
 C     0.10529     0.00299     2.90872
 H    -0.60822     0.23547     3.52284
 H     0.59141     0.81121     2.68434
 C     1.05976    -1.01608     3.57482
 H     0.57874    -1.81677     3.78045
 H     1.41344    -0.63569     4.38101
 H     1.78013    -1.21938     2.97460
Al     6.85993    -3.87004    -1.93203
 I     8.06300    -3.47828    -4.15086
 I     7.20570    -6.29334    -1.27864
 O     5.05650    -3.78889    -2.39689
 C     4.31214    -2.53280    -2.28262
 H     4.59219    -2.05630    -1.48327
 H     3.36228    -2.72074    -2.20645
 C     4.56358    -1.69229    -3.48045
 H     5.48833    -1.44082    -3.50626
 H     4.02157    -0.90373    -3.43896
 H     4.34688    -2.19123    -4.27189
 C     4.33964    -4.88439    -3.11346
 H     3.92764    -4.51874    -3.91252
 H     4.98433    -5.55176    -3.39183
 C     3.32935    -5.51599    -2.31700
 H     3.72167    -5.86044    -1.51345
 H     2.93258    -6.23712    -2.81273
 H     2.65250    -4.87672    -2.09064
Al     4.29179     2.91119     4.82731
 I     1.74338     2.91119     4.82731
 I     5.03333     0.45840     4.82668
 O     4.75092     3.50112     3.13272
 C     5.79133     4.37257     2.89321
 H     5.63049     4.84296     2.06067
 H     5.83236     5.02788     3.60603
 C     7.11700     3.64080     2.80570
 H     7.36609     3.53932     1.88503
 H     7.78951     4.14431     3.27065
 H     7.03425     2.77609     3.20901
 C     4.18531     2.90774     1.91798
 H     4.90001     2.67571     1.30446
 H     3.70014     2.09924     2.14234
 C     3.23179     3.92652     1.25186
 H     3.71304     4.72795     1.04685
 H     2.87732     3.54703     0.44490
 H     2.51165     4.13057     1.85270
Al    -5.79785   -13.49496    -9.47784
 I    -6.99979   -13.88640    -7.25980
 I    -6.14266   -11.07195   -10.13125
 O    -3.99322   -13.57566    -9.01237
 C    -3.24893   -14.83188    -9.12804
 H    -3.52891   -15.30824    -9.92598
 H    -2.30020   -14.64426    -9.20342
 C    -3.50031   -15.67225    -7.92880
 H    -4.42601   -15.92343    -7.90298
 H    -2.95853   -16.46155    -7.97093
 H    -3.28361   -15.17331    -7.13737
 C    -3.27637   -12.48016    -8.29580
 H    -2.86443   -12.84594    -7.49814
 H    -3.92224   -11.81324    -8.01804
 C    -2.26704   -11.84827    -9.09224
 H    -2.65863   -11.50485    -9.89644
 H    -1.86931   -11.12742    -8.59653
 H    -1.58922   -12.48782    -9.31862
Al     2.66515    -6.29337    -7.52467
 I     2.96995    -8.00750    -5.67294
 I     4.63327    -4.68921    -7.39058
 O     1.24765    -5.28762    -6.85325
 C     1.27974    -3.73154    -7.03961
 H     0.75633    -3.30059    -6.34666
 H     2.19196    -3.40741    -6.98592
 C     0.72863    -3.43972    -8.32880
 H     1.44308    -3.25395    -8.94903
 H     0.15340    -2.67623    -8.26133
 H     0.22448    -4.19415    -8.63728
 C     0.08427    -5.81186    -6.50286
 H     0.09978    -6.76513    -6.68694
 H    -0.61608    -5.41796    -7.04583
 C    -0.24537    -5.59852    -5.04479
 H    -1.16770    -5.34641    -4.96097
 H     0.30702    -4.90149    -4.68945
 H    -0.08792    -6.41136    -4.55907
Al     2.16744    -7.24450    -9.80123
 I     1.86263    -5.53037   -11.65295
 I     0.19836    -8.84836    -9.93531
 O     3.58398    -8.24996   -10.47263
 C     3.55284    -9.80632   -10.28629
 H     4.07531   -10.23699   -10.97923
 H     2.63967   -10.13016   -10.33997
 C     4.10300   -10.09786    -8.99709
 H     3.38855   -10.28363    -8.37685
 H     4.67919   -10.86164    -9.06457
 H     4.60715    -9.34343    -8.68860
 C     4.74832    -7.72600   -10.82304
 H     4.73185    -6.77245   -10.63894
 H     5.44771    -8.11961   -10.28005
 C     5.07796    -7.93934   -12.28110
 H     5.99933    -8.19117   -12.36491
 H     4.52461    -8.63609   -12.63643
 H     4.91955    -7.12621   -12.76681
Al    -3.76955    -3.82742     5.91601
 I    -1.22114    -3.82742     5.91601
 I    -4.51133    -1.37538     5.91601
 O    -4.22851    -4.41675     7.60982
 C    -5.26932    -5.28955     7.84948
 H    -5.10848    -5.75994     8.68202
 H    -5.31018    -5.94426     7.13589
 C    -6.59555    -4.55614     7.93685
 H    -6.84487    -4.45540     8.85690
 H    -7.26727    -5.06055     7.47266
 H    -6.51297    -3.69204     7.53432
 C    -3.66426    -3.82443     8.82473
 H    -4.37777    -3.59195     9.43886
 H    -3.17813    -3.01622     8.60035
 C    -2.70978    -4.84350     9.49083
 H    -3.19080    -5.64419     9.69647
 H    -2.35610    -4.46312    10.29703
 H    -1.98941    -5.04681     8.89062
Al     3.09039    -7.69747     3.98398
 I     4.29346    -7.30571     1.76515
 I     3.43616   -10.12076     4.63738
 O     1.28695    -7.61631     3.51913
 C     0.54259    -6.36022     3.63339
 H     0.82264    -5.88373     4.43274
 H    -0.40726    -6.54817     3.70957
 C     0.79404    -5.51972     2.43556
 H     1.71879    -5.26825     2.40975
 H     0.25203    -4.73116     2.47706
 H     0.57734    -6.01865     1.64413
 C     0.57010    -8.71181     2.80256
 H     0.15810    -8.34616     2.00349
 H     1.21478    -9.37918     2.52418
 C    -0.44019    -9.34341     3.59901
 H    -0.04788    -9.68786     4.40257
 H    -0.83696   -10.06455     3.10328
 H    -1.11705    -8.70414     3.82538
Al     0.52224    -0.91624    10.74332
 I    -2.02617    -0.91624    10.74332
 I     1.26379    -3.36902    10.74269
 O     0.98138    -0.32630     9.04874
 C     2.02179     0.54515     8.80923
 H     1.86094     1.01554     7.97668
 H     2.06281     1.20046     9.52204
 C     3.34745    -0.18663     8.72171
 H     3.59655    -0.28811     7.80104
 H     4.01997     0.31689     9.18667
 H     3.26470    -1.05134     9.12502
 C     0.41576    -0.91969     7.83399
 H     1.13046    -1.15171     7.22047
 H    -0.06940    -1.72819     8.05835
 C    -0.53776     0.09910     7.16787
 H    -0.05650     0.90053     6.96287
 H    -0.89222    -0.28040     6.36091
 H    -1.25789     0.30314     7.76872
Al    -9.56739   -17.32238    -3.56183
 I   -10.76933   -17.71382    -1.34379
 I    -9.91221   -14.89937    -4.21523
 O    -7.76277   -17.40308    -3.09636
 C    -7.01847   -18.65930    -3.21203
 H    -7.29846   -19.13567    -4.00997
 H    -6.06974   -18.47168    -3.28741
 C    -7.26985   -19.49968    -2.01279
 H    -8.19556   -19.75086    -1.98697
 H    -6.72808   -20.28898    -2.05491
 H    -7.05315   -19.00074    -1.22136
 C    -7.04591   -16.30758    -2.37979
 H    -6.63398   -16.67336    -1.58212
 H    -7.69179   -15.64067    -2.10203
 C    -6.03658   -15.67569    -3.17622
 H    -6.42817   -15.33227    -3.98042
 H    -5.63885   -14.95484    -2.68051
 H    -5.35877   -16.31525    -3.40260
Al    -1.10439   -10.12079    -1.60866
 I    -0.79959   -11.83492     0.24307
 I     0.86372    -8.51664    -1.47456
 O    -2.52190    -9.11504    -0.93724
 C    -2.48980    -7.55896    -1.12360
 H    -3.01322    -7.12801    -0.43064
 H    -1.57759    -7.23483    -1.06990
 C    -3.04092    -7.26714    -2.41278
 H    -2.32646    -7.08137    -3.03302
 H    -3.61614    -6.50365    -2.34531
 H    -3.54506    -8.02157    -2.72127
 C    -3.68528    -9.63929    -0.58685
 H    -3.66977   -10.59255    -0.77093
 H    -4.38562    -9.24539    -1.12982
 C    -4.01491    -9.42595     0.87122
 H    -4.93725    -9.17383     0.95504
 H    -3.46253    -8.72891     1.22656
 H    -3.85747   -10.23879     1.35694
Al    -1.60211   -11.07192    -3.88521
 I    -1.90691    -9.35779    -5.73694
 I    -3.57118   -12.67579    -4.01929
 O    -0.18556   -12.07738    -4.55662
 C    -0.21670   -13.63375    -4.37027
 H     0.30576   -14.06441    -5.06321
 H    -1.12987   -13.95759    -4.42395
 C     0.33346   -13.92528    -3.08107
 H    -0.38100   -14.11105    -2.46084
 H     0.90964   -14.68906    -3.14856
 H     0.83760   -13.17085    -2.77259
 C     0.97877   -11.55342    -4.90702
 H     0.96231   -10.59987    -4.72293
 H     1.67816   -11.94704    -4.36404
 C     1.30841   -11.76676    -6.36509
 H     2.22979   -12.01859    -6.44890
 H     0.75507   -12.46351    -6.72042
 H     1.15001   -10.95364    -6.85079
Al    -7.60822     2.27882     0.11467
 I    -5.05982     2.27882     0.11467
 I    -8.35000     4.73086     0.11467
 O    -8.06719     1.68949     1.80847
 C    -9.10800     0.81669     2.04813
 H    -8.94716     0.34630     2.88068
 H    -9.14886     0.16198     1.33454
 C   -10.43423     1.55010     2.13551
 H   -10.68355     1.65084     3.05555
 H   -11.10595     1.04569     1.67132
 H   -10.35165     2.41421     1.73298
 C    -7.50294     2.28181     3.02338
 H    -8.21645     2.51429     3.63751
 H    -7.01681     3.09003     2.79901
 C    -6.54846     1.26274     3.68949
 H    -7.02948     0.46205     3.89512
 H    -6.19478     1.64313     4.49568
 H    -5.82809     1.05944     3.08927
Al    -0.74829    -1.59122    -1.81736
 I     0.45478    -1.19946    -4.03619
 I    -0.40252    -4.01452    -1.16397
 O    -2.55173    -1.51007    -2.28222
 C    -3.29609    -0.25398    -2.16796
 H    -3.01604     0.22252    -1.36861
 H    -4.24594    -0.44192    -2.09178
 C    -3.04464     0.58653    -3.36579
 H    -2.11989     0.83800    -3.39159
 H    -3.58665     1.37509    -3.32429
 H    -3.26134     0.08759    -4.15722
 C    -3.26858    -2.60557    -2.99879
 H    -3.68058    -2.23992    -3.79786
 H    -2.62389    -3.27294    -3.27716
 C    -4.27887    -3.23717    -2.20234
 H    -3.88656    -3.58162    -1.39878
 H    -4.67564    -3.95830    -2.69806
 H    -4.95573    -2.59790    -1.97597
Al    -3.31644     5.19001     4.94197
 I    -5.86485     5.19001     4.94197
 I    -2.57489     2.73722     4.94134
 O    -2.85730     5.77994     3.24739
 C    -1.81689     6.65139     3.00788
 H    -1.97774     7.12178     2.17533
 H    -1.77587     7.30670     3.72069
 C    -0.49123     5.91962     2.92037
 H    -0.24213     5.81814     1.99969
 H     0.18129     6.42313     3.38532
 H    -0.57397     5.05491     3.32368
 C    -3.42292     5.18656     2.03264
 H    -2.70822     4.95453     1.41913
 H    -3.90808     4.37806     2.25700
 C    -4.37643     6.20534     1.36653
 H    -3.89518     7.00677     1.16152
 H    -4.73090     5.82585     0.55957
 H    -5.09657     6.40939     1.96737
Al   -13.40607   -11.21614    -9.36317
 I   -14.60801   -11.60758    -7.14514
 I   -13.75088    -8.79313   -10.01658
 O   -11.60144   -11.29684    -8.89770
 C   -10.85715   -12.55306    -9.01337
 H   -11.13714   -13.02942    -9.81131
 H    -9.90842   -12.36544    -9.08876
 C   -11.10853   -13.39343    -7.81413
 H   -12.03424   -13.64461    -7.78831
 H   -10.56675   -14.18273    -7.85626
 H   -10.89183   -12.89449    -7.02270
 C   -10.88459   -10.20134    -8.18113
 H   -10.47266   -10.56712    -7.38347
 H   -11.53047    -9.53442    -7.90337
 C    -9.87526    -9.56945    -8.97757
 H   -10.26685    -9.22603    -9.78177
 H    -9.47753    -8.84860    -8.48186
 H    -9.19745   -10.20900    -9.20395
Al    -4.94307    -4.01455    -7.41000
 I    -4.63827    -5.72868    -5.55828
 I    -2.97496    -2.41039    -7.27591
 O    -6.36058    -3.00880    -6.73859
 C    -6.32848    -1.45272    -6.92494
 H    -6.85190    -1.02177    -6.23199
 H    -5.41626    -1.12859    -6.87125
 C    -6.87960    -1.16090    -8.21413
 H    -6.16514    -0.97513    -8.83436
 H    -7.45482    -0.39741    -8.14666
 H    -7.38374    -1.91533    -8.52262
 C    -7.52395    -3.53304    -6.38819
 H    -7.50845    -4.48631    -6.57228
 H    -8.22430    -3.13914    -6.93116
 C    -7.85359    -3.31970    -4.93013
 H    -8.77592    -3.06759    -4.84630
 H    -7.30120    -2.62267    -4.57478
 H    -7.69615    -4.13254    -4.44441
Al    -5.44079    -4.96568    -9.68656
 I    -5.74559    -3.25155   -11.53829
 I    -7.40986    -6.56954    -9.82064
 O    -4.02424    -5.97114   -10.35796
 C    -4.05538    -7.52750   -10.17162
 H    -3.53292    -7.95817   -10.86456
 H    -4.96855    -7.85134   -10.22530
 C    -3.50522    -7.81904    -8.88242
 H    -4.21968    -8.00481    -8.26218
 H    -2.92904    -8.58282    -8.94990
 H    -3.00108    -7.06461    -8.57393
 C    -2.85991    -5.44718   -10.70837
 H    -2.87637    -4.49363   -10.52427
 H    -2.16051    -5.84079   -10.16538
 C    -2.53027    -5.66052   -12.16644
 H    -1.60889    -5.91235   -12.25024
 H    -3.08361    -6.35727   -12.52176
 H    -2.68867    -4.84739   -12.65214
Al   -11.37777    -1.54860     6.03068
 I    -8.82936    -1.54860     6.03068
 I   -12.11955     0.90344     6.03068
 O   -11.83674    -2.13793     7.72448
 C   -12.87755    -3.01073     7.96414
 H   -12.71670    -3.48112     8.79669
 H   -12.91841    -3.66544     7.25055
 C   -14.20377    -2.27732     8.05152
 H   -14.45310    -2.17658     8.97157
 H   -14.87550    -2.78173     7.58733
 H   -14.12119    -1.41322     7.64899
 C   -11.27248    -1.54561     8.93940
 H   -11.98599    -1.31313     9.55353
 H   -10.78636    -0.73740     8.71502
 C   -10.31801    -2.56468     9.60550
 H   -10.79902    -3.36537     9.81113
 H    -9.96433    -2.18429    10.41170
 H    -9.59764    -2.76798     9.00528
Al    -4.51784    -5.41865     4.09865
 I    -3.31477    -5.02689     1.87982
 I    -4.17207    -7.84194     4.75204
 O    -6.32127    -5.33749     3.63380
 C    -7.06563    -4.08140     3.74806
 H    -6.78558    -3.60491     4.54741
 H    -8.01548    -4.26935     3.82423
 C    -6.81419    -3.24090     2.55023
 H    -5.88944    -2.98943     2.52442
 H    -7.35620    -2.45234     2.59172
 H    -7.03089    -3.73983     1.75880
 C    -7.03813    -6.43299     2.91722
 H    -7.45012    -6.06734     2.11816
 H    -6.39344    -7.10036     2.63885
 C    -8.04842    -7.06459     3.71368
 H    -7.65610    -7.40904     4.51723
 H    -8.44519    -7.78573     3.21795
 H    -8.72527    -6.42532     3.94004
Al    -7.08598     1.36258    10.85799
 I    -9.63439     1.36258    10.85799
 I    -6.34444    -1.09020    10.85736
 O    -6.62685     1.95252     9.16341
 C    -5.58644     2.82397     8.92389
 H    -5.74728     3.29436     8.09135
 H    -5.54541     3.47928     9.63671
 C    -4.26077     2.09219     8.83638
 H    -4.01168     1.99071     7.91571
 H    -3.58826     2.59571     9.30133
 H    -4.34352     1.22748     9.23969
 C    -7.19246     1.35913     7.94866
 H    -6.47776     1.12711     7.33514
 H    -7.67763     0.55063     8.17302
 C    -8.14598     2.37792     7.28254
 H    -7.66473     3.17935     7.07753
 H    -8.50044     1.99842     6.47558
 H    -8.86612     2.58196     7.88338
Al   -17.17562   -15.04356    -3.44716
 I   -18.37756   -15.43500    -1.22912
 I   -17.52043   -12.62055    -4.10057
 O   -15.37099   -15.12426    -2.98169
 C   -14.62670   -16.38048    -3.09736
 H   -14.90668   -16.85685    -3.89530
 H   -13.67797   -16.19286    -3.17274
 C   -14.87808   -17.22086    -1.89812
 H   -15.80378   -17.47204    -1.87230
 H   -14.33630   -18.01016    -1.94025
 H   -14.66138   -16.72192    -1.10669
 C   -14.65414   -14.02876    -2.26512
 H   -14.24220   -14.39454    -1.46746
 H   -15.30001   -13.36185    -1.98736
 C   -13.64481   -13.39687    -3.06156
 H   -14.03639   -13.05345    -3.86576
 H   -13.24708   -12.67602    -2.56584
 H   -12.96699   -14.03643    -3.28794
Al    -8.71262    -7.84197    -1.49399
 I    -8.40781    -9.55610     0.35774
 I    -6.74450    -6.23782    -1.35990
 O   -10.13012    -6.83622    -0.82257
 C   -10.09802    -5.28014    -1.00893
 H   -10.62144    -4.84919    -0.31598
 H    -9.18581    -4.95601    -0.95524
 C   -10.64914    -4.98832    -2.29812
 H    -9.93469    -4.80255    -2.91835
 H   -11.22437    -4.22483    -2.23065
 H   -11.15329    -5.74275    -2.60660
 C   -11.29350    -7.36047    -0.47218
 H   -11.27799    -8.31373    -0.65626
 H   -11.99385    -6.96657    -1.01515
 C   -11.62314    -7.14713     0.98589
 H   -12.54547    -6.89501     1.06971
 H   -11.07075    -6.45009     1.34123
 H   -11.46569    -7.95997     1.47161
Al    -9.21033    -8.79310    -3.77054
 I    -9.51513    -7.07897    -5.62227
 I   -11.17940   -10.39697    -3.90463
 O    -7.79379    -9.79856    -4.44195
 C    -7.82493   -11.35493    -4.25561
 H    -7.30246   -11.78559    -4.94855
 H    -8.73810   -11.67877    -4.30929
 C    -7.27477   -11.64646    -2.96641
 H    -7.98922   -11.83223    -2.34617
 H    -6.69858   -12.41024    -3.03389
 H    -6.77062   -10.89203    -2.65792
 C    -6.62945    -9.27460    -4.79236
 H    -6.64592    -8.32105    -4.60826
 H    -5.93006    -9.66822    -4.24937
 C    -6.29981    -9.48794    -6.25042
 H    -5.37844    -9.73977    -6.33423
 H    -6.85316   -10.18469    -6.60575
 H    -6.45822    -8.67482    -6.73613
