  472
 
Lu     0.00000     0.00000     0.00000
 N     2.28291    -0.01503    -0.03268
 C     2.96452     1.17103    -0.24938
 C     4.15351     0.92237    -1.06571
 N     2.62813     2.38514     0.24074
 C     1.57358     2.62423     0.96617
 C     1.21752     3.95536     1.50925
 C     0.07332     3.77771     2.32905
 C    -0.24551     2.33365     2.26965
 N     0.61217     1.67661     1.44229
 N    -1.24418     1.80804     3.01298
 C    -1.57006     0.53481     2.97049
 C    -2.66560    -0.06047     3.78805
 N    -0.95637    -0.45689     2.19952
 C     5.10605     1.76470    -1.62702
 C     6.06399     1.18714    -2.45170
 C     1.78038     5.19849     1.34233
 C     1.17765     6.27326     2.01388
 C     0.03607     6.10520     2.79131
 C    -0.53261     4.83586     2.97296
 C    -3.59027     0.49048     4.64436
 C    -4.53186    -0.38486     5.21821
 N     2.14002     0.77972    -3.24688
 C     1.58997     1.86022    -2.65232
 C     2.05786     3.23507    -2.96448
 C     1.11776     4.11694    -2.35591
 C     0.15171     3.23106    -1.63857
 N     0.48727     1.88691    -1.84740
 N    -0.87250     3.65357    -0.92018
 C    -1.73546     2.83863    -0.29165
 C    -2.76913     3.39927     0.61902
 C    -3.53920     2.29553     1.08213
 C    -2.96918     1.09374     0.40943
 N    -1.85027     1.47361    -0.36445
 N    -3.46941    -0.11953     0.52551
 C     3.12469     3.69066    -3.69461
 C     3.24605     5.08731    -3.83853
 C     2.31427     5.95195    -3.28918
 C     1.22609     5.47510    -2.52205
 C    -2.95766     4.67071     1.09356
 C    -3.93038     4.83209     2.10276
 C    -4.65710     3.75612     2.58499
 C    -4.49017     2.45547     2.06015
 H     5.07678     2.83861    -1.42605
 H     6.82383     1.81633    -2.91440
 H    -3.59548     1.55977     4.86983
 H    -5.28507     0.01890     5.89947
 H     2.67718     5.33428     0.73004
 H     1.66187     7.25089     1.94570
 H    -0.41957     6.97119     3.28079
 H    -1.41273     4.68369     3.60416
 H     3.84260     3.00777    -4.14518
 H     4.10420     5.48026    -4.39308
 H     2.42314     7.03341    -3.43645
 H     0.50534     6.17115    -2.08789
 H    -2.37307     5.52022     0.72316
 H    -4.09650     5.84311     2.50775
 H    -5.37305     3.91273     3.40394
 H    -5.07227     1.61402     2.43513
 N     0.64407    -2.13104     0.67133
 N     0.54470    -0.86087    -2.35166
 N    -1.83035    -1.19868    -0.89589
 C     2.98345    -1.03002    -0.68105
 C     4.17267    -0.47731    -1.32348
 C    -2.65358    -1.45200     3.50725
 C    -1.54717    -1.66927     2.53259
 C     6.08617    -0.19505    -2.70176
 C    -4.52742    -1.74293     4.93259
 C     1.66538    -0.43173    -3.12832
 C    -2.89965    -1.20388    -0.06455
 C     1.57912    -2.82723    -0.14823
 C    -0.22119    -3.05554     1.18728
 C     0.25249    -2.12029    -2.73061
 C    -1.65648    -2.52626    -1.39950
 N     2.65063    -2.33666    -0.71207
 C     5.14994    -1.04838    -2.13050
 C    -3.57084    -2.30847     4.06882
 N    -1.20720    -2.86338     2.08076
 H     6.86052    -0.59978    -3.35580
 H    -5.27941    -2.39467     5.38382
 C     2.12651    -1.55531    -3.97978
 C    -3.45232    -2.58425     0.08322
 C     1.18808    -4.25547    -0.20868
 C     0.06951    -4.40680     0.65075
 C     1.18832    -2.60657    -3.79708
 N    -0.74491    -2.91532    -2.24005
 C    -2.70833    -3.40414    -0.81306
 H     5.15099    -2.12206    -2.30957
 H    -3.55399    -3.37819     3.85741
 C     3.17784    -1.65820    -4.85649
 C    -4.40318    -3.11862     0.91766
 C     1.67301    -5.32022    -0.93323
 C    -0.56308    -5.62063     0.81041
 C     1.26990    -3.74533    -4.55822
 C    -2.96957    -4.74829    -0.93243
 C     3.25239    -2.82125    -5.64479
 H     3.91749    -0.86746    -4.93161
 C    -4.64835    -4.50503     0.82087
 H    -4.92970    -2.49360     1.63951
 C     1.04438    -6.56349    -0.75404
 H     2.51125    -5.19578    -1.62026
 C    -0.05434    -6.71082     0.08684
 H    -1.42316    -5.72503     1.47905
 C     2.30893    -3.82811    -5.51030
 H     0.55736    -4.56682    -4.44953
 C    -3.96248    -5.29434    -0.08892
 H    -2.42643    -5.38094    -1.64722
 H     4.06352    -2.91979    -6.36949
 H    -5.38871    -4.95862     1.48829
 H     1.45183    -7.43158    -1.27940
 H    -0.53758    -7.68740     0.19182
 H     2.36589    -4.71895    -6.14617
 H    -4.17764    -6.37682    -0.15401
Lu    -5.91910    11.96146    -1.59381
 N    -8.28387    11.84091    -1.53104
 C    -8.95681    12.99129    -1.74786
 C   -10.15292    12.75480    -2.59484
 N    -8.65229    14.23133    -1.25892
 C    -7.55837    14.45861    -0.56498
 C    -7.16504    15.82006    -0.08041
 C    -6.00222    15.65344     0.71094
 C    -5.70483    14.18793     0.70878
 N    -6.63422    13.52715    -0.09434
 N    -4.75433    13.65762     1.44361
 C    -4.46184    12.33087     1.39338
 C    -3.37964    11.74734     2.23947
 N    -5.06966    11.38584     0.64324
 C   -11.09281    13.59677    -3.15755
 C   -12.08160    13.01818    -3.95763
 C    -7.69588    17.06715    -0.29963
 C    -7.05172    18.16311     0.29706
 C    -5.89526    18.00218     1.05286
 C    -5.34890    16.72627     1.27325
 C    -2.45986    12.30451     3.09878
 C    -1.54087    11.43393     3.70884
 N    -7.94213    12.89098    -4.67688
 C    -7.34798    13.96332    -4.08357
 C    -7.74450    15.34601    -4.46325
 C    -6.82156    16.20420    -3.81321
 C    -5.91045    15.32419    -3.03505
 N    -6.32154    13.96002    -3.22183
 N    -4.89328    15.73477    -2.34996
 C    -4.04561    14.90568    -1.68161
 C    -3.00891    15.41651    -0.81190
 C    -2.30245    14.28118    -0.31863
 C    -2.91502    13.12931    -0.95798
 N    -3.99625    13.52421    -1.72375
 N    -2.42999    11.85986    -0.84166
 C    -8.74092    15.82945    -5.28225
 C    -8.80691    17.21791    -5.45612
 C    -7.88786    18.06673    -4.84423
 C    -6.88065    17.56888    -4.00466
 C    -2.70259    16.70382    -0.37242
 C    -1.73237    16.83080     0.60225
 C    -1.06515    15.70754     1.13569
 C    -1.32814    14.43063     0.67022
 H   -11.04511    14.67084    -2.99442
 H   -12.85426    13.64976    -4.40058
 H    -2.45317    13.37409     3.29849
 H    -0.80421    11.83581     4.40218
 H    -8.58710    17.19179    -0.91463
 H    -7.49899    19.14639     0.17596
 H    -5.40110    18.87064     1.48262
 H    -4.43694    16.58148     1.85537
 H    -9.42987    15.15348    -5.78651
 H    -9.58549    17.62891    -6.09535
 H    -7.94351    19.13924    -5.02802
 H    -6.16280    18.23293    -3.53617
 H    -3.24005    17.55847    -0.77338
 H    -1.48825    17.82351     0.96900
 H    -0.33966    15.85496     1.93366
 H    -0.83401    13.55006     1.07335
 N    -6.62302     9.67825    -0.92743
 N    -6.37603    11.22781    -3.80302
 N    -4.08130    10.82744    -2.32296
 C    -8.99295    10.78459    -2.19736
 C   -10.18049    11.35847    -2.84868
 C    -3.39884    10.35286     1.98010
 C    -4.47615    10.11969     0.97734
 C   -12.11646    11.64237    -4.19445
 C    -1.56589    10.06693     3.45977
 C    -7.46069    11.68051    -4.56989
 C    -2.95000    10.83304    -1.43675
 C    -7.56176     8.99779    -1.72112
 C    -5.77748     8.74524    -0.41015
 C    -6.10725     9.92305    -4.17487
 C    -4.21847     9.58052    -2.82787
 N    -8.66459     9.52475    -2.27177
 C   -11.16241    10.78761    -3.63810
 C    -2.50763     9.49811     2.58541
 N    -4.79065     8.95407     0.51646
 H   -12.90730    11.23259    -4.82658
 H    -0.84699     9.41669     3.95881
 C    -7.95312    10.57285    -5.43933
 C    -2.42975     9.44554    -1.35215
 C    -7.23444     7.58366    -1.75849
 C    -6.10131     7.41415    -0.91172
 C    -7.08500     9.47603    -5.22735
 N    -5.11292     9.15666    -3.75307
 C    -3.18473     8.66557    -2.26401
 H   -11.17022     9.71736    -3.82105
 H    -2.53989     8.42762     2.40053
 C    -8.97857    10.53323    -6.35329
 C    -1.47887     8.86785    -0.53599
 C    -7.79508     6.48669    -2.40942
 C    -5.54654     6.15585    -0.70320
 C    -7.23577     8.32554    -5.96559
 C    -2.94790     7.31561    -2.41221
 C    -9.11955     9.36411    -7.11840
 H    -9.63334    11.38985    -6.48474
 C    -1.23387     7.49744    -0.68862
 H    -0.97224     9.46796     0.21930
 C    -7.26264     5.23110    -2.15662
 H    -8.63333     6.63617    -3.08363
 C    -6.14576     5.06531    -1.31761
 H    -4.67264     6.05576    -0.06291
 C    -8.25452     8.29193    -6.93339
 H    -6.58165     7.47136    -5.82735
 C    -1.94522     6.74248    -1.61863
 H    -3.53657     6.71346    -3.10233
 H    -9.89799     9.31910    -7.87738
 H    -0.48447     7.01857    -0.05582
 H    -7.73401     4.35344    -2.59117
 H    -5.75584     4.06757    -1.14206
 H    -8.34538     7.40980    -7.56811
 H    -1.73813     5.67586    -1.72821
Lu     6.61878     9.76716     3.46289
 N     4.24294     9.76319     3.32194
 C     3.56717     8.52491     3.53606
 C     2.38791     8.77362     4.37958
 N     3.92255     7.35185     3.06671
 C     5.01490     7.12616     2.33832
 C     5.37548     5.82180     1.80142
 C     6.55024     6.00843     1.02266
 C     6.85901     7.43648     1.10922
 N     5.97150     8.07834     1.91376
 N     7.88404     7.98235     0.38426
 C     8.19752     9.23945     0.43741
 C     9.27546     9.86946    -0.38083
 N     7.55849    10.24655     1.21715
 C     1.47667     7.93167     4.99631
 C     0.52514     8.51397     5.83292
 C     4.81115     4.55906     1.92408
 C     5.43129     3.49966     1.27641
 C     6.60806     3.68045     0.53212
 C     7.17478     4.94175     0.38906
 C    10.20069     9.34942    -1.25709
 C    11.09383    10.25035    -1.86377
 N     4.51431     9.04496     6.50383
 C     5.06796     8.00115     5.93268
 C     4.61559     6.61176     6.23218
 C     5.56387     5.74329     5.63702
 C     6.53591     6.63539     4.92027
 N     6.19147     7.96624     5.10802
 N     7.58071     6.18211     4.25113
 C     8.43961     7.02436     3.62514
 C     9.50748     6.48442     2.73892
 C    10.25684     7.60053     2.29440
 C     9.66239     8.79222     2.94764
 N     8.50893     8.37207     3.69475
 N    10.14976     9.98793     2.84668
 C     3.54810     6.14590     6.95975
 C     3.44996     4.75551     7.12777
 C     4.40018     3.89753     6.58906
 C     5.47071     4.38270     5.81334
 C     9.74201     5.21801     2.25281
 C    10.72849     5.08902     1.26745
 C    11.44359     6.19071     0.80064
 C    11.23262     7.47163     1.32780
 H     1.53166     6.85575     4.85224
 H    -0.20446     7.88085     6.33634
 H    10.23070     8.28546    -1.47760
 H    11.83430     9.87629    -2.56850
 H     3.90204     4.43152     2.50714
 H     4.96927     2.51860     1.32128
 H     7.07459     2.82186     0.05927
 H     8.07975     5.11147    -0.19213
 H     2.82515     6.83070     7.39846
 H     2.61596     4.36185     7.70549
 H     4.32790     2.82527     6.77504
 H     6.20336     3.70323     5.38892
 H     9.15305     4.36782     2.59528
 H    10.91608     4.09980     0.85123
 H    12.16771     6.06308    -0.00577
 H    11.77859     8.34298     0.96681
 N     5.87415    11.88321     2.68054
 N     6.08924    10.69731     5.64833
 N     8.44208    11.09470     4.20450
 C     3.52453    10.73421     3.93087
 C     2.34434    10.17508     4.61178
 C     9.22315    11.25988    -0.10564
 C     8.11943    11.43979     0.88545
 C     0.47630     9.89586     6.04566
 C    11.04116    11.61226    -1.59413
 C     5.03043    10.29215     6.37507
 C     9.58083    11.08268     3.42433
 C     4.89644    12.55876     3.42926
 C     6.75614    12.82475     2.18271
 C     6.36541    12.06092     6.00572
 C     8.28107    12.38535     4.68271
 N     3.80886    12.07062     3.96617
 C     1.38658    10.75167     5.42720
 C    10.09043    12.14443    -0.70511
 N     7.75026    12.65806     1.32732
 H    -0.29481    10.30808     6.70216
 H    11.73624    12.28828    -2.09428
 C     4.49056    11.39581     7.21175
 C    10.13705    12.41750     3.32466
 C     5.22816    14.01440     3.47719
 C     6.39072    14.18511     2.68717
 C     5.36761    12.49228     7.02777
 N     7.33083    12.80248     5.56336
 C     9.31924    13.24675     4.14853
 H     1.37167    11.82731     5.58643
 H    10.02971    13.21427    -0.50927
 C     3.39496    11.45587     8.04507
 C    11.17179    12.95705     2.55874
 C     4.64774    15.07497     4.12955
 C     6.98457    15.41670     2.53969
 C     5.18758    13.63934     7.77333
 C     9.58276    14.61534     4.24107
 C     3.22048    12.62096     8.80051
 H     2.70322    10.61904     8.10320
 C    11.40744    14.31738     2.64849
 H    11.73707    12.30822     1.89329
 C     5.22842    16.34235     3.95082
 H     3.77210    14.92535     4.75813
 C     6.37680    16.50831     3.18555
 H     7.89158    15.52647     1.94346
 C     4.12289    13.67561     8.68696
 H     5.85128    14.48943     7.67008
 C    10.62609    15.13397     3.49319
 H     8.96158    15.24426     4.87255
 H     2.37725    12.68951     9.48585
 H    12.19318    14.77079     2.04807
 H     4.74602    17.20741     4.40478
 H     6.81644    17.49691     3.07559
 H     4.00670    14.55287     9.32299
 H    10.84826    16.19977     3.54872
Lu   -12.73392     0.09317    -3.26857
 N   -10.42169     0.07471    -3.25464
 C    -9.74686    -1.11222    -3.07664
 C    -8.53891    -0.88721    -2.27211
 N   -10.08540    -2.32176    -3.58911
 C   -11.16830    -2.54678    -4.28226
 C   -11.54561    -3.87406    -4.83557
 C   -12.72138    -3.68007    -5.60894
 C   -13.03408    -2.23076    -5.51647
 N   -12.13473    -1.59306    -4.69914
 N   -14.02533    -1.67162    -6.22132
 C   -14.30253    -0.37215    -6.17770
 C   -15.37889     0.24064    -7.01009
 N   -13.66260     0.59323    -5.42733
 C    -7.57071    -1.73982    -1.76045
 C    -6.60083    -1.18460    -0.93147
 C   -10.97610    -5.11790    -4.71367
 C   -11.59922    -6.18561    -5.38494
 C   -12.76607    -6.00280    -6.11570
 C   -13.34600    -4.72820    -6.24818
 C   -16.30576    -0.29899    -7.87193
 C   -17.20551     0.59337    -8.48482
 N   -10.63564    -0.75591    -0.10477
 C   -11.16282    -1.81942    -0.65983
 C   -10.75105    -3.21441    -0.34826
 C   -11.73664    -4.06016    -0.93520
 C   -12.66637    -3.14033    -1.65817
 N   -12.30379    -1.84821    -1.50911
 N   -13.72593    -3.60345    -2.37721
 C   -14.58890    -2.83993    -2.98476
 C   -15.67320    -3.37218    -3.85126
 C   -16.37459    -2.24104    -4.35601
 C   -15.74556    -1.04930    -3.70328
 N   -14.67284    -1.41487    -2.95821
 N   -16.25830     0.20296    -3.84094
 C    -9.70243    -3.72640     0.37283
 C    -9.64926    -5.12852     0.52094
 C   -10.62556    -5.95126    -0.01561
 C   -11.69964    -5.42121    -0.76532
 C   -15.96153    -4.64910    -4.26358
 C   -16.94179    -4.78590    -5.26863
 C   -17.58159    -3.68203    -5.80989
 C   -17.32542    -2.37633    -5.33716
 H    -7.59127    -2.80437    -1.99888
 H    -5.82708    -1.82621    -0.51379
 H   -16.33745    -1.37213    -8.07260
 H   -17.95256     0.20413    -9.17855
 H   -10.06632    -5.26932    -4.12638
 H   -11.11348    -7.16609    -5.34397
 H   -13.24604    -6.85616    -6.60586
 H   -14.24990    -4.57445    -6.84788
 H    -8.94459    -3.08262     0.81515
 H    -8.80603    -5.56099     1.06600
 H   -10.56656    -7.03640     0.12651
 H   -12.46783    -6.07774    -1.18502
 H   -15.44621    -5.52691    -3.85355
 H   -17.17377    -5.79823    -5.63733
 H   -18.29037    -3.81869    -6.63504
 H   -17.83810    -1.51065    -5.75450
 N   -12.04067     2.25201    -3.90142
 N   -12.22599     0.89492    -0.97136
 N   -14.58644     1.26855    -2.43380
 C    -9.70325     1.07960    -2.59465
 C    -8.51476     0.50326    -1.97120
 C   -15.32847     1.63464    -6.74824
 C   -14.22807     1.84090    -5.76225
 C    -6.58676     0.18434    -0.62373
 C   -17.16028     1.95625    -8.22380
 C   -11.13257     0.49012    -0.24009
 C   -15.71149     1.26330    -3.27901
 C   -11.06755     2.91786    -3.09283
 C   -12.86966     3.19832    -4.41017
 C   -12.50796     2.21656    -0.61319
 C   -14.42653     2.54383    -1.94254
 N   -10.00436     2.38561    -2.54917
 C    -7.53208     1.05353    -1.15823
 C   -16.21031     2.50659    -7.34255
 N   -13.87021     3.01644    -5.31050
 H    -5.81411     0.56933     0.04568
 H   -17.87390     2.62451    -8.71244
 C   -10.63161     1.59972     0.61493
 C   -16.24157     2.65457    -3.39455
 C   -11.38952     4.35986    -3.05667
 C   -12.52100     4.54379    -3.89471
 C   -11.53084     2.68404     0.42116
 N   -13.50973     2.96143    -1.06090
 C   -15.46844     3.45347    -2.50342
 H    -7.52848     2.12258    -0.94665
 H   -16.17147     3.57862    -7.14403
 C    -9.57492     1.67538     1.48841
 C   -17.19178     3.21884    -4.20984
 C   -10.81840     5.42173    -2.38629
 C   -13.08699     5.79099    -4.06877
 C   -11.39394     3.83687     1.15485
 C   -15.69814     4.80101    -2.36877
 C    -9.44330     2.85496     2.24701
 H    -8.87457     0.85043     1.58814
 C   -17.41034     4.60878    -4.09599
 H   -17.73644     2.61434    -4.93436
 C   -11.37134     6.69319    -2.59320
 H    -9.95956     5.27073    -1.72784
 C   -12.49092     6.87154    -3.40358
 H   -13.96275     5.92532    -4.70868
 C   -10.34125     3.89960     2.09390
 H   -12.07418     4.68157     1.03524
 C   -16.69625     5.37425    -3.18836
 H   -15.12961     5.41692    -1.66337
 H    -8.62637     2.93278     2.96996
 H   -18.15062     5.08420    -4.75153
 H   -10.88913     7.55825    -2.12327
 H   -12.91716     7.87007    -3.52805
 H   -10.23902     4.80155     2.70921
 H   -16.89384     6.45863    -3.10250
Cl     1.22237    12.36148     2.21956
 C     1.84780    11.07685     1.18549
Cl     1.07435     9.56657     1.67931
Cl    -7.08256     2.61232    -4.36508
 C    -7.73508     1.31832    -5.36341
Cl    -7.02550    -0.20985    -4.83029
Cl     5.53430    -0.11445    -6.98488
 C     4.92638     1.16530    -5.93037
Cl     5.68180     2.68307    -6.40743
Cl   -11.59671     9.45231    -0.49027
 C   -11.00392    10.76445     0.53580
Cl   -11.71649    12.27536    -0.03622
 H     2.93891    10.98046     1.34012
 H     1.56876    11.29304     0.13697
 H    -8.82779     1.26636    -5.21334
 H    -7.44712     1.49081    -6.41691
 H     5.21074     0.93490    -4.88587
 H     3.83479     1.25491    -6.07225
 H   -11.34120    10.58603     1.57402
 H    -9.90359    10.82984     0.42793
