   31
 
Re     0.00000     0.00000     0.00000
Cl     2.24376    -0.14791     0.69733
Cl    -0.05824     2.24425     0.69733
Cl    -0.76382    -0.70183     2.13625
Cl    -2.24377     0.14718    -0.69664
Cl     0.05925    -2.24565    -0.69734
Cl     0.76382     0.70183    -2.13625
 N    -5.40343     0.98542    -7.90872
 H    -6.24329     0.47246    -8.13357
 C    -5.52070     2.25677    -7.48855
 H    -6.49452     2.71426    -7.41029
 C    -4.40754     2.96235    -7.16450
 H    -4.48404     3.97451    -6.79522
 C    -3.16273     2.34892    -7.31959
 H    -2.25918     2.89347    -7.09165
 C    -3.09258     1.06013    -7.76241
 H    -2.13381     0.58213    -7.89345
 C    -4.24467     0.37961    -8.03607
 H    -4.20271    -0.65054    -8.35680
 N    -2.10490     1.63391    -3.87555
 H    -1.26509     2.14682    -3.64929
 C    -1.98765     0.36183    -4.29504
 H    -1.01286    -0.09496    -4.37253
 C    -3.09983    -0.34306    -4.61833
 H    -3.02432    -1.35450    -4.98833
 C    -4.34465     0.27038    -4.46323
 H    -5.24917    -0.27487    -4.69194
 C    -4.41478     1.55989    -4.02110
 H    -5.37355     2.03789    -3.89006
 C    -3.26368     2.23899    -3.74752
 H    -3.30467     3.26984    -3.42603
