  148
 
Zn     0.00000     0.00000     0.00000
 I    -8.51213     0.00141    -5.67609
Zn    -9.20007     2.52401    -5.67609
 I    -7.05546     4.04825    -5.81206
 I   -10.50999     3.10050    -3.48752
 I   -10.70772     2.99450    -7.78516
 I    -1.50744     0.47114    -2.10980
 I     0.68794    -2.52260     0.00000
 I     2.14481     1.52490    -0.13670
 I    -1.30992     0.57650     2.18858
 I    -6.46854     5.87881     2.88551
 I    -8.66430     8.87267     0.77706
Zn    -7.97636     6.35007     0.77706
 I   -10.12079     4.82506     0.91241
 I    -6.66644     5.77357    -1.41151
 I     4.34173     8.40076     2.88624
 I     0.53598     6.34931     6.45243
Zn     1.22392     3.82671     6.45243
 I     0.68948     7.34701     0.91314
 I     2.53383     3.25021     4.26385
 N    -5.48909     4.78567     6.40580
 C    -4.16772     4.64946     6.34636
 C    -3.34611     5.73004     6.46234
 C    -3.91154     6.98518     6.68607
 C    -6.35352     3.58101     6.26856
 C    -3.08854     8.14588     6.87779
 N    -2.34909     8.98749     7.16972
 C    -5.27574     7.11286     6.72357
 C    -6.07870     5.94714     6.54622
 H    -7.30933     3.67207     6.32182
 H    -6.08635     2.99764     6.98288
 H    -6.15813     3.15786     5.42937
 H    -7.03551     6.02263     6.53337
 H    -5.66905     7.97510     6.86431
 H    -2.39298     5.62491     6.44780
 H    -3.79051     3.78123     6.17796
 N     5.32118     7.30762     6.40654
 C     6.64255     7.17141     6.34709
 C     7.46436     8.25264     6.46234
 C     6.89893     9.50778     6.68607
 C     4.45674     6.10296     6.26929
 C     7.72193    10.66848     6.87779
 N     8.46118    11.50944     7.17045
 C     5.53473     9.63547     6.72357
 C     4.73157     8.46909     6.54695
 H     3.50094     6.19402     6.32255
 H     4.72412     5.52024     6.98289
 H     4.65214     5.67981     5.43010
 H     3.77476     8.54458     6.53410
 H     5.14143    10.49770     6.86431
 H     8.41750     8.14752     6.44780
 H     7.01976     6.30318     6.17869
 N   -12.37854     1.91365     1.89764
 C   -13.60490     2.34756     1.62225
 C   -14.09865     2.29139     0.35436
 C   -13.31225     1.73175    -0.65189
 C   -11.87055     1.99696     3.29491
 C   -13.80863     1.59155    -1.99113
 N   -14.34606     1.38304    -2.99514
 C   -12.04257     1.30797    -0.35680
 C   -11.56905     1.44119     0.98228
 H   -10.98876     1.67526     3.50254
 H   -12.48981     1.48129     3.81792
 H   -11.90968     2.91281     3.57967
 H   -10.66936     1.18370     1.20010
 H   -11.49329     0.93450    -1.04728
 H   -14.99467     2.57852     0.16393
 H   -14.13270     2.74390     2.32141
 N    -1.56827     4.43561     1.89837
 C    -2.79463     4.86952     1.62298
 C    -3.28818     4.81399     0.35436
 C    -2.50177     4.25435    -0.65189
 C    -1.06028     4.51891     3.29564
 C    -2.99816     4.11415    -1.99113
 N    -3.53579     3.90499    -2.99440
 C    -1.23209     3.83057    -0.35680
 C    -0.75878     3.96314     0.98301
 H    -0.17849     4.19721     3.50327
 H    -1.67934     4.00389     3.81792
 H    -1.09941     5.43476     3.58041
 H     0.14090     3.70566     1.20084
 H    -0.68281     3.45711    -1.04728
 H    -4.18420     5.10112     0.16393
 H    -3.32243     5.26585     2.32214
 N   -13.29754    -0.95755    -5.62947
 C   -14.61891    -0.82135    -5.57003
 C   -15.44052    -1.90192    -5.68601
 C   -14.87509    -3.15707    -5.90974
 C   -12.43293     0.24635    -5.49285
 C   -15.69808    -4.31776    -6.10146
 N   -16.43754    -5.15937    -6.39339
 C   -13.51088    -3.28475    -5.94723
 C   -12.70889    -2.11902    -5.77016
 H   -11.47730     0.15605    -5.54549
 H   -12.70027     0.83048    -6.20655
 H   -12.62946     0.67026    -4.65331
 H   -11.75112    -2.19451    -5.75704
 H   -13.11758    -4.14698    -6.08798
 H   -16.39365    -1.79680    -5.67147
 H   -14.99612     0.04689    -5.40163
 N    -2.48707     1.56505    -5.62947
 C    -3.80843     1.70125    -5.57003
 C    -4.63025     0.62003    -5.68528
 C    -4.06482    -0.63511    -5.90901
 C    -1.62245     2.76895    -5.49285
 C    -4.88781    -1.79581    -6.10072
 N    -5.62706    -2.63677    -6.39339
 C    -2.70061    -0.76280    -5.94650
 C    -1.89841     0.40358    -5.77016
 H    -0.66682     2.67865    -5.54549
 H    -1.89001     3.35243    -6.20582
 H    -1.81898     3.19286    -4.65331
 H    -0.94065     0.32809    -5.75704
 H    -2.30731    -1.62503    -6.08725
 H    -5.58338     0.72515    -5.67074
 H    -4.18564     2.56949    -5.40163
 N    -6.40809     1.91446    -1.12131
 C    -5.18269     1.48055    -0.84619
 C    -4.68798     1.53673     0.42197
 C    -5.47534     2.09637     1.42795
 C    -6.91590     1.83040    -2.51920
 C    -4.97800     2.23656     2.76746
 N    -4.44057     2.44507     3.77147
 C    -6.74436     2.51939     1.13332
 C    -7.21758     2.38692    -0.20595
 H    -7.79786     2.15286    -2.72621
 H    -6.29778     2.34683    -3.04186
 H    -6.87677     0.91455    -2.80397
 H    -8.11726     2.64441    -0.42377
 H    -7.29459     2.89286     1.82353
 H    -3.79195     1.24960     0.61240
 H    -4.65393     1.08422    -1.54508
 N     4.40238     4.43706    -1.12131
 C     5.62779     4.00315    -0.84619
 C     6.12229     4.05868     0.42270
 C     5.33492     4.61832     1.42868
 C     3.89457     4.35300    -2.51920
 C     5.83227     4.75851     2.76819
 N     6.36991     4.96767     3.77147
 C     4.06591     5.04134     1.13405
 C     3.59290     4.90953    -0.20595
 H     3.01261     4.67546    -2.72621
 H     4.51249     4.86878    -3.04113
 H     3.93371     3.43715    -2.80397
 H     2.69321     5.16701    -0.42377
 H     3.51568     5.41481     1.82426
 H     7.01831     3.77155     0.61313
 H     6.15655     3.60682    -1.54508
