  116
 
Sb     0.00000     0.00000     0.00000
 S    -1.40472    -2.93320    -1.51389
 F    -0.42613     0.74610    -1.78903
 F     0.24729     1.88900     0.53460
 F    -1.90311     0.25166     0.50351
 O    -0.80775    -1.63950    -0.84818
 O    -2.35587    -2.41262    -2.54641
 O    -0.29738    -3.78657    -1.98619
 O    -2.19794    -3.64557    -0.42671
Sb    -1.60717    -9.77008    -2.01851
 S     1.13938    -9.69300    -4.34568
 F    -0.49701   -10.93943    -0.86752
 F    -2.80919    -9.21380    -0.51890
 F    -0.54171    -8.29076    -1.23865
 O    -0.03464    -9.74736    -3.31253
 O     2.38730    -9.71656    -3.52451
 O     1.03344   -10.85755    -5.29846
 O     1.08909    -8.37858    -5.05962
Sb     0.55121    -2.33338     4.19605
 S     6.30529    -8.91984    -2.93465
 F    -0.05659    -0.60292     3.44656
 F     0.10774    -3.20326     2.44827
 F     2.39692    -2.04755     3.54599
 O     5.90097    -9.68041    -4.24509
 O     6.09589    -7.46708    -3.27832
 O     5.43552    -9.33874    -1.79529
 O     7.73135    -9.25683    -2.63065
Sb    -3.02845    -5.87224    -4.48388
 S     3.63240    -1.30901    -2.05007
 F    -3.49311    -6.98434    -2.90669
 F    -1.75106    -7.35906    -4.78501
 F    -3.91002    -6.89183    -5.94569
 O     5.07951    -1.70516    -2.56231
 O     3.12142    -2.53124    -1.33312
 O     3.76549    -0.10737    -1.19325
 O     2.81146    -1.08700    -3.28972
 N    -2.69312    -7.71055     2.04547
 N    -3.25052    -6.10981     0.36831
 N    -1.31131    -5.82500     1.66479
 C    -2.40114    -6.60159     1.31075
 H    -3.32828    -8.41079     1.67317
 H    -1.94738    -8.12797     2.64576
 H    -2.96561    -5.25246    -0.15604
 H    -3.88372    -6.72104    -0.12642
 H    -0.90723    -5.94349     2.58445
 H    -1.32284    -4.86227     1.31078
 N     1.16136    -5.67566    -8.88511
 N     0.55833    -7.55849    -7.56835
 N     1.33464    -5.56593    -6.53394
 C     1.02873    -6.26233    -7.68057
 H     0.97749    -6.19486    -9.72249
 H     1.50036    -4.70653    -9.00428
 H     0.65937    -7.98988    -6.60973
 H     0.74824    -8.19334    -8.32625
 H     1.23491    -4.56577    -6.51313
 H     1.22204    -6.03348    -5.64021
 N    -2.67591    -9.70355    -6.87810
 N    -2.62373    -8.13776    -8.65041
 N    -4.67516    -9.14433    -8.05505
 C    -3.35162    -8.95182    -7.82577
 H    -1.83422    -9.27570    -6.49533
 H    -3.23092   -10.20166    -6.14663
 H    -3.09235    -7.57816    -9.39258
 H    -1.77291    -7.71746    -8.29889
 H    -5.17815    -9.89897    -7.61040
 H    -5.14264    -8.68084    -8.83003
 N     1.48384    -4.60415    -0.01063
 N     2.39071    -5.91271     1.74253
 N     3.80191    -4.61845     0.35190
 C     2.55100    -4.97734     0.75294
 H     0.54451    -4.81283     0.28608
 H     1.56228    -3.78478    -0.62992
 H     3.19428    -6.27409     2.29761
 H     1.49372    -5.99311     2.19323
 H     3.90679    -3.86473    -0.35063
 H     4.61733    -4.98394     0.81110
 N     1.71675    -2.12053    -7.64274
 N     3.20961    -2.27049    -5.84253
 N     0.89206    -2.27781    -5.40195
 C     1.94000    -2.19681    -6.30317
 H     0.78795    -2.13708    -8.03169
 H     2.47076    -2.43584    -8.28977
 H     3.39890    -2.19220    -4.84282
 H     3.97117    -2.50932    -6.48411
 H     1.13671    -2.18438    -4.40799
 H     0.00001    -1.86800    -5.63730
 N    -4.96699    -1.34201    -1.84371
 N    -6.68548     0.26957    -1.87124
 N    -4.45614     0.97135    -1.57206
 C    -5.37486    -0.04432    -1.78366
 H    -3.97806    -1.57968    -2.00097
 H    -5.62469    -2.09005    -2.13411
 H    -7.04848     1.20952    -1.62738
 H    -7.38539    -0.46109    -1.80760
 H    -4.74627     1.94694    -1.70680
 H    -3.48960     0.77036    -1.76987
 N     3.08391    -4.63542    -3.09850
 N     1.34801    -6.22935    -2.94799
 N     3.46034    -6.85326    -3.82033
 C     2.64133    -5.92502    -3.24518
 H     4.06931    -4.45703    -3.22379
 H     2.62017    -3.99519    -2.44040
 H     0.92319    -7.04709    -3.37281
 H     0.72541    -5.50932    -2.56769
 H     3.07031    -7.77567    -4.02900
 H     4.48576    -6.84814    -3.65367
 N    -5.41823    -3.33226     2.77158
 N    -3.27111    -3.05373     1.90427
 N    -5.08046    -3.32339     0.40443
 C    -4.60081    -3.23776     1.68591
 H    -6.41959    -3.24954     2.67825
 H    -5.02990    -3.08228     3.70473
 H    -2.61652    -3.00930     1.09346
 H    -2.97840    -2.68034     2.80038
 H    -4.39556    -3.27773    -0.35228
 H    -5.90149    -3.87920     0.19464
