   31
 
Re     0.00000     0.00000     0.00000
Cl     2.31030    -0.15557     0.57468
Cl    -0.24037     2.17545     0.91917
Cl    -0.99271    -0.61722     2.11164
Cl    -2.29644     0.17611    -0.63324
Cl     0.20353    -2.20284    -0.87363
Cl     0.98686     0.59138    -2.12226
 N    -5.26239     0.84934    -7.77623
 H    -6.12787     0.32876    -8.03059
 C    -5.35171     2.15678    -7.35941
 H    -6.35206     2.63249    -7.33164
 C    -4.19612     2.84981    -6.98729
 H    -4.28702     3.87680    -6.59906
 C    -2.94691     2.23203    -7.09659
 H    -2.03183     2.78378    -6.82613
 C    -2.87488     0.90573    -7.53969
 H    -1.90536     0.39138    -7.63262
 C    -4.04379     0.21393    -7.85681
 H    -4.02820    -0.85470    -8.15510
 N    -1.71693     1.46653    -3.66964
 H    -0.84703     1.98348    -3.41911
 C    -1.63468     0.16309    -4.09869
 H    -0.63598    -0.31517    -4.14296
 C    -2.79475    -0.52446    -4.46678
 H    -2.70846    -1.54939    -4.85969
 C    -4.04148     0.09747    -4.34756
 H    -4.95976    -0.44568    -4.62036
 C    -4.10650     1.41930    -3.88992
 H    -5.07499     1.93472    -3.78984
 C    -2.93364     2.10271    -3.57105
 H    -2.94429     3.16476    -3.25125
