  316
 
Zr     0.00000     0.00000     0.00000
Cl    -0.21669    -2.36692    -0.06612
Cl     0.32778     2.43234    -0.06612
Cl    -2.22165     0.34871     1.04917
Cl     1.03501    -0.22884     2.21338
 F    -0.86349    -0.01566    -1.81357
 F     1.76643    -0.14570    -0.85999
Zr   -10.87882     3.76901     2.13745
Cl   -10.11103     1.76164     1.12030
Cl   -11.76207     5.74565     3.29541
Cl    -8.86499     5.06982     1.49677
Cl   -11.95801     4.34857     0.01092
 F    -9.93206     3.12372     3.78733
 F   -12.50930     2.83559     2.73020
Zr   -13.39878    -3.25431     8.56267
Cl   -13.18209    -0.88739     8.62879
Cl   -13.72656    -5.68665     8.62879
Cl   -11.17713    -3.60302     7.51350
Cl   -14.43378    -3.02547     6.34929
 F   -12.53529    -3.23864    10.37624
 F   -15.16521    -3.10861     9.42266
Zr    -3.84599     3.50196     9.03174
Cl    -4.61378     5.50933    10.04888
Cl    -2.96274     1.52532     7.87377
Cl    -5.85983     2.20116     9.67242
Cl    -2.76680     2.92241    11.15827
 F    -4.79275     4.14725     7.38185
 F    -2.21552     4.43538     8.43899
Na    -1.59617    -2.17220    -2.57683
 O    -1.08762     8.23670    -1.66838
 O    -1.98087     6.03532    -0.47980
 O    -4.36419     6.55170     0.88297
 O    -5.29833     8.96058    -0.08244
 O    -3.57185     9.06087    -2.22432
 C    -0.37756     7.12233    -1.82393
 C    -0.62426     6.32332    -0.59637
 C    -2.35480     5.31277     0.48742
 C    -3.83055     5.16053     0.64061
 C    -5.57700     6.51619     0.58118
 C    -6.02625     7.98086     0.85886
 C    -5.83422     8.97820    -1.20995
 C    -4.91366     9.81407    -2.12200
 C    -2.67053     9.81527    -2.68303
 C    -1.47082     8.82777    -2.90480
 H    -0.66890     6.64730    -2.59370
 H     0.54632     7.32520    -1.90910
 H    -0.34172     6.81910     0.16478
 H    -0.13373     5.51179    -0.64478
 H    -1.98194     4.44795     0.36805
 H    -2.01515     5.69630     1.28663
 H    -4.20911     4.79368    -0.14938
 H    -4.02940     4.59652     1.37942
 H    -5.69781     6.28515    -0.33271
 H    -6.04933     5.90177     1.12879
 H    -5.82379     8.20477     1.75925
 H    -6.96317     8.05113     0.71873
 H    -5.91595     8.09257    -1.54782
 H    -6.69477     9.37707    -1.15870
 H    -5.30307     9.90470    -2.98363
 H    -4.77708    10.67522    -1.74540
 H    -2.94249    10.21269    -3.49998
 H    -2.44454    10.49348    -2.05870
 H    -0.73363     9.30607    -3.26673
 H    -1.73226     8.14485    -3.51143
Na    -8.67231     1.09673     3.51457
 O   -10.32817    -0.21288     4.85912
 O    -9.01424    -1.34327     2.84583
 O    -6.90088     0.28318     2.01371
 O    -6.50182     2.12141     4.03089
 O    -8.07680     0.81866     5.87500
 C   -10.74670    -1.40511     4.44384
 C   -10.39149    -1.46747     3.00296
 C    -8.53834    -1.43006     1.67818
 C    -7.07934    -1.14485     1.55792
 C    -5.69815     0.39866     2.33530
 C    -5.62071     1.88519     2.78848
 C    -5.92053     1.74344     5.06916
 C    -6.95665     1.82482     6.20837
 C    -9.10238     1.04317     6.57574
 C   -10.02290    -0.18539     6.24872
 H   -10.30825    -2.09784     4.92442
 H   -11.68588    -1.48659     4.55906
 H   -10.82668    -0.75890     2.53968
 H   -10.67493    -2.29968     2.64431
 H    -8.69229    -2.31332     1.36523
 H    -9.00399    -0.81348     1.12664
 H    -6.58037    -1.73380     2.11121
 H    -6.79723    -1.24181     0.65542
 H    -5.47380    -0.19217     3.04567
 H    -5.12762     0.23361     1.59467
 H    -5.92174     2.44364     2.08183
 H    -4.71972     2.10011     2.99923
 H    -5.61448     0.84852     4.96609
 H    -5.18161     2.30999     5.25699
 H    -6.55000     1.59737     7.03612
 H    -7.31246     2.70375     6.26268
 H    -8.88315     1.07163     7.49853
 H    -9.51560     1.85839     6.32163
 H   -10.82836    -0.11447     6.74704
 H    -9.57464    -0.98845     6.48832
Na   -11.80260    -1.08211    11.13950
 O    -7.40180     3.58464    -2.36495
 O    -6.50764     5.78604    -3.55315
 O    -4.12431     5.26966    -4.91592
 O    -3.19017     2.86078    -3.95051
 O    -4.91665     2.76049    -1.80863
 C    -8.11094     4.69903    -2.20902
 C    -7.86425     5.49804    -3.43658
 C    -6.13370     6.50859    -4.52037
 C    -4.65795     6.66083    -4.67356
 C    -2.91138     5.30421    -4.61438
 C    -2.46225     3.84050    -4.89181
 C    -2.65429     2.84316    -2.82301
 C    -3.57484     2.00729    -1.91095
 C    -5.81890     2.00607    -1.35031
 C    -7.01860     2.99357    -1.12854
 H    -7.81961     5.17406    -1.43925
 H    -9.03482     4.49616    -2.12386
 H    -8.14770     5.00224    -4.19812
 H    -8.35478     6.30957    -3.38817
 H    -6.50785     7.37312    -4.40050
 H    -6.47335     6.12505    -5.31958
 H    -4.27939     7.02768    -3.88357
 H    -4.45911     7.22484    -5.41238
 H    -2.79069     5.53621    -3.70024
 H    -2.43917     5.91959    -5.16174
 H    -2.66472     3.61659    -5.79221
 H    -1.52533     3.77023    -4.75168
 H    -2.57255     3.72879    -2.48513
 H    -1.79373     2.44429    -2.87425
 H    -3.18543     1.91666    -1.04932
 H    -3.71143     1.14613    -2.28755
 H    -5.54601     1.60867    -0.53298
 H    -6.04397     1.32787    -1.97426
 H    -7.75488     2.51529    -0.76622
 H    -6.75753     3.67622    -0.52101
Na    -4.72647    -4.35104     5.04810
 O    -3.07154    -3.04145     3.70317
 O    -4.38454    -1.91104     5.71684
 O    -6.49790    -3.53749     6.54896
 O    -6.89696    -5.37571     4.53178
 O    -5.32198    -4.07297     2.68768
 C    -2.65208    -1.84919     4.11883
 C    -3.00729    -1.78683     5.55971
 C    -4.86044    -1.82425     6.88449
 C    -6.31944    -2.10946     7.00475
 C    -7.70063    -3.65296     6.22737
 C    -7.77807    -5.13949     5.77420
 C    -7.47825    -4.99775     3.49351
 C    -6.44213    -5.07912     2.35431
 C    -4.29732    -4.29750     1.98655
 C    -3.37680    -3.06894     2.31357
 H    -3.09053    -1.15646     3.63826
 H    -1.71290    -1.76772     4.00361
 H    -2.57302    -2.49543     6.02261
 H    -2.72385    -0.95463     5.91836
 H    -4.70777    -0.94128     7.19795
 H    -4.39479    -2.44083     7.43603
 H    -6.81841    -1.52051     6.45146
 H    -6.60155    -2.01250     7.90725
 H    -7.92498    -3.06214     5.51700
 H    -8.27116    -3.48791     6.96801
 H    -7.47704    -5.69795     6.48085
 H    -8.67906    -5.35442     5.56344
 H    -7.78430    -4.10282     3.59658
 H    -8.21717    -5.56430     3.30568
 H    -6.84878    -4.85168     1.52656
 H    -6.08632    -5.95805     2.29999
 H    -4.51563    -4.32594     1.06414
 H    -3.88318    -5.11270     2.24105
 H    -2.57042    -3.13983     1.81563
 H    -3.82543    -2.26614     2.07486
Na     3.03415     1.60668    -1.53699
 O     1.97465     2.11738    -3.69400
 O     3.98657     0.29951    -3.43522
 O     5.09874     0.45999    -0.95252
 O     4.24251     2.83788     0.13700
 O     3.20842     3.94753    -2.14994
 C     2.28484     1.19289    -4.71492
 C     2.84380    -0.04611    -4.12972
 C     4.63618    -0.80345    -2.84613
 C     5.70666    -0.29341    -1.96385
 C     5.98610     1.26390    -0.26040
 C     5.28403     2.04746     0.69441
 C     4.61311     4.12923    -0.27888
 C     3.46040     4.72434    -1.03458
 C     2.04796     4.30759    -2.89506
 C     1.96556     3.45885    -4.07791
 H     1.49407     0.98143    -5.19794
 H     2.92298     1.57811    -5.30461
 H     3.05827    -0.66226    -4.81834
 H     2.21260    -0.43820    -3.53811
 H     4.01214    -1.30698    -2.33318
 H     5.00997    -1.35647    -3.52004
 H     6.30320     0.25399    -2.46261
 H     6.18579    -1.01934    -1.58419
 H     6.62124     0.71716     0.18755
 H     6.43559     1.83590    -0.87045
 H     4.90468     1.46313     1.33964
 H     5.90494     2.62908     1.11761
 H     4.81315     4.66660     0.47771
 H     5.37542     4.07870    -0.84376
 H     3.67843     5.60838    -1.30410
 H     2.68980     4.74298    -0.47928
 H     1.27235     4.18297    -2.35890
 H     2.10669     5.21773    -3.15820
 H     2.71089     3.63035    -4.64274
 H     1.16258     3.64748    -4.54825
Na   -14.11034     3.72899     4.06241
 O   -13.07750     3.42253     6.26961
 O   -14.61898     1.51360     5.08830
 O   -15.87973     2.53245     2.89765
 O   -15.66806     5.27074     3.07512
 O   -14.79189     5.41145     5.67266
 C   -13.10224     2.08860     6.73163
 C   -13.38972     1.16548     5.61062
 C   -15.02557     0.68763     4.02153
 C   -16.23491     1.27984     3.41220
 C   -16.97036     3.33151     2.60307
 C   -16.52628     4.60628     2.15741
 C   -16.30571     6.09909     4.01593
 C   -15.28332     6.53105     5.02559
 C   -13.70633     5.64902     6.56482
 C   -13.36060     4.39705     7.22802
 H   -12.25733     1.87033     7.10823
 H   -13.77752     1.99820     7.39433
 H   -13.41294     0.27088     5.92550
 H   -12.72005     1.24899     4.94355
 H   -14.33185     0.63811     3.37161
 H   -15.21995    -0.18341     4.34278
 H   -16.91303     1.37991     4.07131
 H   -16.55211     0.72045     2.71425
 H   -17.48355     2.92082     1.91744
 H   -17.50377     3.43618     3.38011
 H   -16.05881     4.49111     1.33896
 H   -17.29039     5.15386     2.01347
 H   -16.66938     6.86052     3.58098
 H   -17.00101     5.61777     4.44909
 H   -15.68518     7.11348     5.65866
 H   -14.57103     6.98262     4.58712
 H   -12.95548     5.97020     6.07734
 H   -13.96097     6.29398     7.21306
 H   -14.09007     4.11021     7.76371
 H   -12.59686     4.53051     7.77754
Na   -16.43292    -4.86099    10.09966
 O    -9.13804    -0.82133    -2.94585
 O   -11.14904     0.99657    -3.20424
 O   -12.26121     0.83609    -5.68694
 O   -11.40498    -1.54180    -6.77646
 O   -10.37125    -2.65172    -4.48863
 C    -9.44731     0.10319    -1.92455
 C   -10.00719     1.34217    -2.51013
 C   -11.79865     2.09953    -3.79333
 C   -12.86913     1.58949    -4.67562
 C   -13.14985     0.03189    -6.37856
 C   -12.44649    -0.75138    -7.33387
 C   -11.77557    -2.83315    -6.36058
 C   -10.62379    -3.42828    -5.60527
 C    -9.21043    -3.01152    -3.74441
 C    -9.12932    -2.16306    -2.56105
 H    -8.65654     0.31464    -1.44152
 H   -10.08545    -0.28204    -1.33486
 H   -10.22074     1.95834    -1.82112
 H    -9.37636     1.73399    -3.10084
 H   -11.17460     2.60305    -4.30629
 H   -12.17244     2.65254    -3.11942
 H   -13.46567     1.04209    -4.17685
 H   -13.34825     2.31541    -5.05527
 H   -13.78371     0.57892    -6.82701
 H   -13.59805    -0.53982    -5.76902
 H   -12.06715    -0.16705    -7.97910
 H   -13.06833    -1.33302    -7.75746
 H   -11.97562    -3.37053    -7.11717
 H   -12.53789    -2.78263    -5.79571
 H   -10.84089    -4.31230    -5.33536
 H    -9.85226    -3.44690    -6.16018
 H    -8.43481    -2.88689    -4.28056
 H    -9.26915    -3.92165    -3.48127
 H    -9.87336    -2.33427    -1.99673
 H    -8.32504    -2.35141    -2.09122
Na    -0.61447     3.54199     7.10678
 O    -1.64824     3.84843     4.89919
 O    -0.10584     5.75737     6.08088
 O     1.15491     4.73853     8.27153
 O     0.94324     2.00023     8.09406
 O     0.06671     1.85926     5.49741
 C    -1.62257     5.18238     4.43755
 C    -1.33601     6.10547     5.55818
 C     0.30075     6.58334     7.14765
 C     1.51010     5.99113     7.75698
 C     2.24425     3.93917     8.56662
 C     1.80146     2.66469     9.01177
 C     1.58089     1.17188     7.15326
 C     0.55758     0.73990     6.14321
 C    -1.01848     1.62195     4.60437
 C    -1.36550     2.87363     3.94167
 H    -2.46749     5.40064     4.06095
 H    -0.94729     5.27277     3.77485
 H    -1.31188     7.00009     5.24368
 H    -2.00605     6.02170     6.22614
 H    -0.39297     6.63286     7.79757
 H     0.49513     7.45438     6.82640
 H     2.18821     5.89106     7.09787
 H     1.82730     6.55052     8.45494
 H     2.75874     4.35015     9.25174
 H     2.77896     3.83480     7.78907
 H     1.33399     2.77986     9.83022
 H     2.56465     2.11709     9.15533
 H     1.94457     0.41045     7.58820
 H     2.27620     1.65320     6.72009
 H     0.96036     0.15749     5.51053
 H    -0.15378     0.28835     6.58207
 H    -1.76933     1.30077     5.09184
 H    -0.76384     0.97699     3.95612
 H    -0.63474     3.16076     3.40547
 H    -2.12795     2.74046     3.39164
