  416
 
Sb     0.00000     0.00000     0.00000
Cl    -5.32004     1.64718    -9.97622
 O    -5.28313     4.54478    -9.55963
 O    -5.76596     5.07496    -7.27313
 O    -6.81841     3.26786    -6.00687
 O    -7.29576     1.26014    -7.39276
 O    -9.15800     0.93315    -9.95234
 O    -7.66990     3.62652    -9.26337
 O    -3.93077     3.34078    -7.86240
 C    -4.70002     5.85284    -9.20806
 H    -5.36068     6.65671    -9.59921
 H    -3.69078     5.83232    -9.67589
 C    -4.62550     5.90258    -7.68152
 H    -3.72567     5.37332    -7.26716
 H    -4.73711     6.93359    -7.28964
 C    -6.60773     5.62246    -6.20731
 H    -7.56870     5.86928    -6.71766
 H    -6.12238     6.51193    -5.74466
 C    -6.73574     4.49693    -5.19295
 H    -5.82468     4.40149    -4.55464
 H    -7.69238     4.57487    -4.62047
 C    -6.91158     2.06993    -5.15686
 H    -7.46439     2.33758    -4.23044
 H    -5.85045     1.73863    -4.97470
 C    -7.71678     1.08514    -5.99365
 H    -7.48174     0.04204    -5.68185
 H    -8.80432     1.32138    -5.97567
 C    -7.70893     0.12005    -8.20778
 H    -7.55516    -0.80980    -7.61658
 H    -7.01737     0.15691    -9.08513
 C    -9.15779     0.24608    -8.68558
 H    -9.54487    -0.76605    -8.97095
 H    -9.82324     0.74520    -7.95553
 C    -9.64063     2.28850    -9.98171
 H   -10.74674     2.24228    -9.84319
 H    -9.34726     2.56308   -11.02453
 C    -9.04641     3.24733    -8.95332
 H    -9.64981     4.17921    -8.87743
 H    -8.93358     2.76387    -7.94995
 C    -7.57210     4.62621   -10.33207
 H    -7.86324     5.59941    -9.87401
 H    -8.23587     4.32742   -11.17032
 C    -6.10821     4.60687   -10.76516
 H    -5.81602     3.66987   -11.30244
 H    -5.84912     5.50557   -11.36554
Te    -2.86380     1.96920    -6.87672
Cl    -3.39052     3.32784    -4.85296
 O    -3.51485     0.44463    -5.27413
 C    -4.09141    -0.86267    -5.63836
 H    -3.43576    -1.66877    -5.24340
 H    -5.10597    -0.84691    -5.18130
 C    -4.14937    -0.91040    -7.16531
 O    -2.99753    -0.09402    -7.56418
 O    -1.91369     1.69649    -8.82991
 C    -2.00637     0.46543    -9.63993
 C    -2.15096    -0.65257    -8.62044
 H    -1.19534    -0.90270    -8.10143
 H    -2.63915    -1.53893    -9.08449
 H    -2.91383     0.57124   -10.28168
 H    -1.04850     0.37130   -10.20889
 C    -1.81821     2.88738    -9.68878
 H    -1.24920     2.61189   -10.60351
 H    -2.87891     3.21208    -9.88291
 C    -1.02883     3.88921    -8.85739
 O    -1.44337     3.71533    -7.45696
 O    -1.10382     1.33288    -5.57074
 C     0.28008     1.69516    -5.86925
 C     0.87337     2.64840    -4.83423
 O     0.42641     4.01458    -4.89294
 C     0.44928     4.67754    -6.17198
 C    -0.99975     4.84281    -6.63948
 H    -1.13967     5.78262    -7.21844
 H    -1.68509     4.81027    -5.75689
 H     0.88007     5.67547    -5.90342
 H     1.08851     4.14070    -6.89951
 H     1.98440     2.67138    -4.93983
 H     0.54440     2.39470    -3.79625
 H     0.87330     0.75685    -5.93875
 H     0.18031     2.17803    -6.87482
 C    -1.22261     0.32001    -4.51649
 H    -0.95926    -0.65120    -4.99414
 H    -0.54531     0.58308    -3.67753
 C    -2.68231     0.36988    -4.07361
 H    -2.95181     1.31278    -3.53482
 H    -2.95434    -0.51946    -3.46546
 O    -4.82141     1.64744    -6.98092
 H    -1.28264     4.92642    -9.17392
 H     0.06184     3.67174    -8.87848
 H    -5.03964    -0.37444    -7.59094
 H    -4.04304    -1.94383    -7.55119
Te    -5.88867     3.01455    -7.96842
Te   -16.01362    -0.24710     2.44537
Cl   -15.46606    -1.63565     0.44854
 O   -15.02307    -2.14108     3.28710
 O   -15.63128    -0.18952     4.57996
 O   -17.11745     1.37009     3.42994
 O   -17.72792     0.63211     1.13087
 O   -19.36820    -1.93980     0.19382
 O   -17.52545    -1.93651     2.74534
 O   -14.04841     0.02078     2.57283
 C   -14.32235    -2.13523     4.58586
 H   -14.86116    -2.81274     5.28305
 H   -13.28846    -2.46663     4.34094
 C   -14.35380    -0.69387     5.09498
 H   -13.57710    -0.03837     4.61459
 H   -14.33072    -0.63801     6.20117
 C   -16.49237     0.49567     5.54647
 H   -17.32820    -0.21928     5.73300
 H   -15.91754     0.74386     6.46736
 C   -16.93663     1.76709     4.84012
 H   -16.14363     2.55305     4.85640
 H   -17.93455     2.10851     5.21296
 C   -17.47470     2.52820     2.59440
 H   -18.07973     3.23187     3.20707
 H   -16.49796     2.95621     2.23145
 C   -18.32073     1.93299     1.47729
 H   -18.28082     2.58915     0.57888
 H   -19.35525     1.71028     1.82038
 C   -18.23405     0.15120    -0.15291
 H   -18.26983     1.00648    -0.86330
 H   -17.46935    -0.60101    -0.46785
 C   -19.59801    -0.53304    -0.01925
 H   -20.12340    -0.53833    -1.00895
 H   -20.23265    -0.09732     0.77644
 C   -19.61797    -2.47175     1.50704
 H   -20.72547    -2.49081     1.64324
 H   -19.19565    -3.49782     1.36949
 C   -18.96974    -1.72315     2.67002
 H   -19.41284    -2.02787     3.64400
 H   -19.03128    -0.61233     2.53538
 C   -17.17000    -3.25070     3.29045
 H   -17.39539    -3.20077     4.37922
 H   -17.75536    -4.03352     2.76373
 C   -15.67838    -3.42029     3.01464
 H   -15.44425    -3.60108     1.93564
 H   -15.24165    -4.22702     3.64177
Te   -13.29660     1.54404     1.52555
Cl   -13.81425     2.91933     3.53648
 O   -14.29937     3.42801     0.71112
 C   -15.03969     3.42628    -0.56425
 H   -14.55751     4.14971    -1.25525
 H   -16.07876     3.70025    -0.27556
 C   -14.96114     2.00446    -1.12247
 O   -13.67491     1.51663    -0.61282
 O   -12.19865    -0.06597     0.52555
 C   -12.36640    -0.43928    -0.89199
 C   -12.81801     0.83624    -1.58627
 H   -11.98739     1.55553    -1.77691
 H   -13.39797     0.59016    -2.50474
 H   -13.15302    -1.23124    -0.92359
 H   -11.36355    -0.76771    -1.26295
 C   -11.85433    -1.24082     1.34435
 H   -11.25560    -1.94330     0.72411
 H   -12.83492    -1.66925     1.69644
 C   -11.00898    -0.66686     2.47275
 O   -11.58839     0.63856     2.82769
 O   -11.81070     3.24376     1.22920
 C   -10.36342     3.04176     1.29899
 C    -9.71555     3.76900     2.47506
 O    -9.96720     3.21464     3.77819
 C    -9.71803     1.80797     3.97159
 C   -11.07013     1.10318     4.11281
 H   -11.00577     0.23228     4.80145
 H   -11.84204     1.83310     4.46028
 H    -9.18388     1.80348     4.95720
 H    -9.08689     1.39231     3.16248
 H    -8.60857     3.78879     2.33493
 H   -10.13735     4.79262     2.62848
 H    -9.92717     3.37451     0.33086
 H   -10.28861     1.92939     1.40951
 C   -12.17542     4.57967     0.74579
 H   -11.92534     4.59989    -0.33903
 H   -11.60837     5.33547     1.32937
 C   -13.67540     4.72035     0.99568
 H   -13.93699     4.89639     2.06937
 H   -14.11450     5.51866     0.35933
 O   -15.26352     1.27632     1.39764
 H   -11.06458    -1.33327     3.36406
 H    -9.96943    -0.45184     2.14061
 H   -15.72442     1.31265    -0.67479
 H   -14.96873     1.99098    -2.23105
Cl    -1.29736    -1.76618     0.90171
Cl     0.42782    -1.47977    -1.83908
Cl    -0.46134     1.42938     1.85340
Cl     1.21366     1.67646    -1.16213
Cl    -1.90261     0.81835    -1.14204
Cl     1.93534    -0.75664     1.12117
Sb   -10.92219    -5.64167     1.72714
Cl   -12.63075    -4.40743     0.65017
Cl   -10.60252    -6.96525    -0.25102
Cl   -11.25014    -4.33008     3.69222
Cl    -9.30246    -7.01543     2.77286
Cl   -12.52371    -7.23341     2.45624
Cl    -9.34443    -4.12450     0.83082
Sb    -7.16839     0.14969    -1.12162
Cl    -5.81577     1.85145    -2.06525
Cl    -7.61461     1.67608     0.68184
Cl    -6.70617    -1.34838    -2.92208
Cl    -8.39136    -1.47056     0.10468
Cl    -5.26472    -0.68935     0.00362
Cl    -9.07557     0.92812    -2.26432
Sb     3.79435     5.73404    -2.93760
Cl     5.44232     4.46988    -1.79664
Cl     3.43751     6.89835    -0.87457
Cl     4.22750     4.54315    -4.96060
Cl     2.25208     7.19972    -3.98061
Cl     5.43920     7.35252    -3.49276
Cl     2.11430     4.16842    -2.38942
Sb     0.59481     4.83023     6.74913
Cl    -4.74979     6.58275    -3.25262
 O    -4.58846     9.44334    -2.77756
 O    -5.15524     9.98766    -0.52202
 O    -6.18832     8.16487     0.75801
 O    -6.62861     6.14476    -0.61008
 O    -8.44449     5.91822    -3.18157
 O    -7.01364     8.61162    -2.46075
 O    -3.29542     8.23694    -1.09877
 C    -3.93531    10.70683    -2.39274
 H    -4.48277    11.55526    -2.85385
 H    -2.89599    10.58814    -2.77219
 C    -3.97786    10.79355    -0.86497
 H    -3.11528    10.27314    -0.37064
 H    -4.11114    11.83594    -0.51285
 C    -6.00612    10.51925     0.54408
 H    -6.97271    10.74031     0.03146
 H    -5.54342    11.42158     1.00253
 C    -6.11142     9.39797     1.56474
 H    -5.19255     9.31055     2.19283
 H    -7.06433     9.47089     2.14497
 C    -6.27136     6.97378     1.61916
 H    -6.83684     7.24411     2.53728
 H    -5.20776     6.65690     1.80996
 C    -7.05715     5.97092     0.78672
 H    -6.80855     4.93255     1.10539
 H    -8.14793     6.18971     0.79975
 C    -7.07611     5.02272    -1.43063
 H    -6.97136     4.08552    -0.84040
 H    -6.37230     5.03043    -2.29972
 C    -8.51131     5.22022    -1.92210
 H    -8.94747     4.23301    -2.21596
 H    -9.15877     5.74841    -1.19598
 C    -8.95393     7.26169    -3.23100
 H   -10.06197     7.20212    -3.11732
 H    -8.64670     7.53022    -4.27159
 C    -8.39512     8.22614    -2.18722
 H    -9.00661     9.15332    -2.12633
 H    -8.30456     7.74060    -1.18184
 C    -6.89033     9.65079    -3.48906
 H    -7.11817    10.61387    -2.97704
 H    -7.59004     9.42766    -4.32113
 C    -5.44019     9.57439    -3.95924
 H    -5.20685     8.63396    -4.52039
 H    -5.15390    10.47013    -4.54984
Te    -2.23067     6.85653    -0.12625
Cl    -2.75623     8.20847     1.90154
 O    -2.87457     5.32896     1.47180
 C    -3.45313     4.02257     1.10695
 H    -2.78111     3.21773     1.47598
 H    -4.45728     4.02568     1.58626
 C    -3.54650     3.99371    -0.41838
 O    -2.39553     4.80407    -0.83211
 O    -1.30443     6.59382    -2.08978
 C    -1.41679     5.37150    -2.91087
 C    -1.56792     4.24428    -1.90236
 H    -0.61043     3.97452    -1.39698
 H    -2.07422     3.36921    -2.36869
 H    -2.32609     5.49188    -3.54759
 H    -0.46131     5.27393    -3.48369
 C    -1.20242     7.79143    -2.93913
 H    -0.64242     7.51791    -3.86013
 H    -2.26174     8.12617    -3.12388
 C    -0.39548     8.77744    -2.10566
 O    -0.80719     8.60245    -0.70461
 O    -0.47694     6.22762     1.19464
 C     0.90651     6.58725     0.89106
 C     1.50779     7.54171     1.92018
 O     1.07394     8.91221     1.85735
 C     1.08914     9.56660     0.57373
 C    -0.36284     9.72859     0.11391
 H    -0.50987    10.66920    -0.46182
 H    -1.04222     9.69086     1.00075
 H     1.52145    10.56618     0.83382
 H     1.72394     9.02498    -0.15419
 H     2.61865     7.55379     1.81299
 H     1.18006     7.29517     2.96005
 H     1.49741     5.64722     0.82299
 H     0.80379     7.06727    -0.11564
 C    -0.59235     5.22437     2.25815
 H    -0.30820     4.25140     1.79587
 H     0.07042     5.50831     3.10221
 C    -2.05790     5.25500     2.68339
 H    -2.34595     6.18916     3.22751
 H    -2.32372     4.35624     3.28074
 O    -4.18778     6.54274    -0.22486
 H    -0.63080     9.82021    -2.41750
 H     0.69176     8.54419    -2.13061
 H    -4.44101     4.54528    -0.81541
 H    -3.46226     2.96514    -0.82165
Te    -5.25539     7.91484    -1.20366
Te   -15.38451     4.63782     9.18663
Cl   -14.84665     3.24676     7.19074
 O   -14.37525     2.73988    10.01018
 O   -15.01863     4.65864    11.32632
 O   -16.49733     6.23893    10.18686
 O   -17.08730     5.52835     7.88212
 O   -18.73965     2.96165     6.95626
 O   -16.89666     2.95190     9.50537
 O   -13.42109     4.92039     9.32383
 C   -13.64955     2.75210    11.29473
 H   -14.13718     2.03440    11.98877
 H   -12.60829     2.47274    11.01813
 C   -13.73240     4.17830    11.84201
 H   -12.96924     4.86936    11.39203
 H   -13.72980     4.20078    12.94993
 C   -15.89011     5.33137    12.29257
 H   -16.73095     4.61564    12.45233
 H   -15.32942     5.56062    13.22671
 C   -16.31915     6.61670    11.60305
 H   -15.51837     7.39455    11.62998
 H   -17.31412     6.96368    11.97807
 C   -16.84669     7.41058     9.36701
 H   -17.46738     8.09688     9.98408
 H   -15.86718     7.85177     9.02862
 C   -17.66869     6.83655     8.22126
 H   -17.58980     7.49712     7.32812
 H   -18.71730     6.63040     8.52957
 C   -17.60346     5.04581     6.60293
 H   -17.63820     5.89762     5.88840
 H   -16.84598     4.28689     6.28616
 C   -18.96977     4.36960     6.75232
 H   -19.51012     4.37122     5.77127
 H   -19.59021     4.80442     7.55971
 C   -18.98669     2.41897     8.26560
 H   -20.09472     2.39162     8.39814
 H   -18.55502     1.39753     8.12243
 C   -18.34135     3.16328     9.43280
 H   -18.78350     2.85382    10.40545
 H   -18.40495     4.27454     9.30394
 C   -16.53385     1.65137    10.07760
 H   -16.72611     1.73649    11.17085
 H   -17.13906     0.85485     9.59527
 C   -15.05204     1.46658     9.76198
 H   -14.85102     1.27953     8.67725
 H   -14.60519     0.65783    10.37908
Te   -12.67386     6.43683     8.26178
Cl   -13.23104     7.83396    10.24920
 O   -13.68755     8.31839     7.41209
 C   -14.39471     8.29334     6.11762
 H   -13.88750     8.99291     5.41873
 H   -15.43682     8.58734     6.37379
 C   -14.32031     6.85707     5.59832
 O   -13.03324     6.38389     6.11971
 O   -11.57661     4.80958     7.29218
 C   -11.74401     4.41056     5.88110
 C   -12.17031     5.68344     5.16605
 H   -11.32736     6.39164     4.98567
 H   -12.73649     5.43850     4.23904
 H   -12.54166     3.62972     5.85827
 H   -10.74513     4.05834     5.52175
 C   -11.22204     3.65458     8.13344
 H   -10.61890     2.94510     7.52572
 H   -12.19921     3.22635     8.49476
 C   -10.37729     4.25783     9.24768
 O   -10.96027     5.56948     9.57084
 O   -11.17434     8.12625     7.91681
 C    -9.72833     7.93165     8.00105
 C    -9.09597     8.69433     9.16363
 O    -9.34320     8.16761    10.47958
 C    -9.09507     6.76421    10.69567
 C   -10.44929     6.06633    10.84691
 H   -10.39463     5.21605    11.56065
 H   -11.22141     6.80865    11.16622
 H    -8.56097     6.77205    11.68097
 H    -8.46306     6.33420     9.89478
 H    -7.98803     8.72162     9.03150
 H    -9.53638     9.71457     9.28720
 H    -9.28415     8.24089     7.02883
 H    -9.65279     6.82289     8.13874
 C   -11.54304     9.42880     7.35318
 H   -11.34291     9.35889     6.26007
 H   -10.94548    10.22189     7.84949
 C   -13.02769     9.60025     7.66097
 H   -13.23878     9.78514     8.74415
 H   -13.47902    10.40217     7.03840
 O   -14.63729     6.15610     8.12868
 H   -10.42848     3.61648    10.15652
 H    -9.33858     4.46711     8.90836
 H   -15.08298     6.17830     6.06750
 H   -14.33186     6.81188     4.49104
Cl    -0.73666     3.08938     7.65078
Cl     1.03422     3.33044     4.93116
Cl     0.12704     6.28433     8.58087
Cl     1.79047     6.49831     5.55464
Cl    -1.32322     5.65545     5.63363
Cl     2.53342     4.05136     7.84261
Sb   -10.37029    -0.77322     8.50732
Cl   -12.00954     0.51096     7.38340
Cl    -9.98402    -1.95166     6.45405
Cl   -10.78880     0.39419    10.54590
Cl    -8.80804    -2.25535     9.49024
Cl   -12.03016    -2.35121     9.13557
Cl    -8.73028     0.79630     7.85686
Sb    -6.58324     5.03251     5.61171
Cl    -5.20962     6.73190     4.69269
Cl    -6.98765     6.54056     7.43742
Cl    -6.17863     3.60119     3.75014
Cl    -7.80444     3.39130     6.81768
Cl    -4.68113     4.13662     6.68748
Cl    -8.50138     5.88111     4.54305
Sb     4.38671    10.60411     3.83882
Cl     6.01521     9.34799     5.01013
Cl     3.99943    11.78791     5.88759
Cl     4.83127     9.41094     1.81781
Cl     2.84738    12.07168     2.79513
Cl     6.05081    12.20570     3.28569
Cl     2.72164     9.02957     4.41312
