  116
 
Sb     0.00000     0.00000     0.00000
 S    -1.55833    -2.63483    -1.59980
 F    -0.82560     0.17635    -1.84825
 F    -1.48252     1.30613     0.40541
 F    -1.04315    -1.13498     1.30295
 O    -0.38188    -1.86055    -0.88274
 O    -2.65634    -1.70979    -2.02744
 O    -0.91070    -3.37643    -2.71082
 O    -2.12426    -3.54331    -0.53491
Sb    -3.22495   -10.29886    -2.50659
 S    -0.15390   -10.44311    -4.24078
 F    -2.28586   -11.92010    -1.75471
 F    -3.42339    -9.58686    -0.59816
 F    -1.88711    -8.84097    -2.21259
 O    -1.68363   -10.55813    -3.86125
 O     0.65573   -10.90731    -3.08313
 O    -0.05964   -11.26523    -5.48090
 O     0.16172    -8.98802    -4.50120
Sb     0.65661    -1.26169     3.81776
 S     5.17881    -9.07037    -3.59263
 F    -0.10928     0.58018     3.57769
 F     1.54930    -0.74718     2.07595
 F     2.62378    -1.37384     4.28185
 O     4.62013   -10.29075    -4.46037
 O     5.79206    -8.09403    -4.52997
 O     3.98092    -8.48566    -2.89506
 O     6.13620    -9.66963    -2.63515
Sb    -4.76006    -5.53481    -5.14807
 S     3.48943    -1.15615    -2.21478
 F    -4.22043    -5.11108    -3.26097
 F    -3.82073    -7.26345    -4.73357
 F    -6.38406    -6.70058    -5.33352
 O     4.90105    -1.30278    -2.87804
 O     3.12869    -2.41990    -1.52930
 O     3.61595     0.03864    -1.33467
 O     2.54411    -0.87870    -3.36248
 N    -2.67181    -7.42912     1.51240
 N    -3.14604    -5.95644    -0.30649
 N    -1.47745    -5.36915     1.32869
 C    -2.40926    -6.27696     0.81425
 H    -3.14685    -8.20928     1.02584
 H    -2.03033    -7.71279     2.31907
 H    -2.90102    -5.06556    -0.82339
 H    -3.52809    -6.72213    -0.88062
 H    -1.24725    -5.46422     2.33322
 H    -1.55185    -4.38425     0.96111
 N     1.74577    -6.02046    -7.94187
 N     0.75577    -7.97927    -6.92123
 N    -0.13334    -5.80767    -6.49366
 C     0.77912    -6.63230    -7.14904
 H     2.27476    -6.62505    -8.58612
 H     1.48003    -5.08276    -8.33090
 H     0.29733    -8.36460    -6.03260
 H     1.52422    -8.55954    -7.29479
 H    -0.36713    -4.92897    -7.00133
 H    -0.91569    -6.26328    -6.00697
 N    -3.73119    -9.74301    -7.51883
 N    -4.46679    -8.44512    -9.41525
 N    -6.05790    -9.56557    -8.02438
 C    -4.76984    -9.20103    -8.28748
 H    -2.93181    -9.12762    -7.32291
 H    -4.03358   -10.34687    -6.70766
 H    -5.22419    -7.77354    -9.78189
 H    -3.51818    -8.05599    -9.47278
 H    -6.24330   -10.27591    -7.26269
 H    -6.81379    -9.32577    -8.66851
 N     1.39756    -4.35118    -0.50100
 N     2.02304    -5.49668     1.51168
 N     3.69303    -4.50700     0.11983
 C     2.37816    -4.78180     0.39517
 H     0.41734    -4.41656    -0.19323
 H     1.62609    -3.45533    -1.01721
 H     2.75059    -6.05658     2.05098
 H     1.05939    -5.84670     1.59009
 H     3.91492    -3.77668    -0.60870
 H     4.43553    -4.91090     0.68907
 N     0.80487    -2.63558    -7.20044
 N     2.42853    -1.33991    -6.06256
 N     0.42212    -1.94289    -4.91616
 C     1.22294    -2.00530    -6.05151
 H    -0.18957    -2.85314    -7.36845
 H     1.40101    -2.53428    -8.05542
 H     2.90447    -1.17841    -5.14098
 H     3.01334    -1.39716    -6.93777
 H     0.89610    -1.62439    -4.03253
 H    -0.34114    -2.62302    -4.78263
 N    -5.42012    -1.88968    -1.84338
 N    -7.20445    -0.41526    -2.43954
 N    -5.13877     0.47853    -1.60599
 C    -5.91241    -0.61734    -1.98442
 H    -4.37317    -2.03676    -1.84901
 H    -6.03540    -2.68546    -2.19616
 H    -7.70591     0.43317    -2.14676
 H    -7.78120    -1.27877    -2.61708
 H    -5.43051     1.41734    -1.89248
 H    -4.12631     0.31146    -1.45796
 N     1.70933    -4.67021    -3.46981
 N    -0.01934    -6.31164    -3.31659
 N     2.17834    -6.97406    -3.95435
 C     1.30234    -5.99134    -3.54531
 H     2.68507    -4.44154    -3.22721
 H     0.99291    -3.95942    -3.22206
 H    -0.36150    -7.26812    -3.57446
 H    -0.70566    -5.55336    -3.15809
 H     1.80602    -7.94673    -4.04699
 H     3.19567    -6.90872    -3.74745
 N    -5.73731    -2.91382     3.28982
 N    -3.79041    -2.81165     1.92628
 N    -5.78660    -3.76860     1.04356
 C    -5.13004    -3.09821     2.05805
 H    -6.76867    -2.93453     3.34566
 H    -5.22883    -2.28513     3.99438
 H    -3.30078    -2.93885     1.01394
 H    -3.33966    -2.21200     2.65469
 H    -5.32263    -3.88548     0.13812
 H    -6.80740    -3.92582     1.08934
