  240
 
 V     0.00000     0.00000     0.00000
Cl     4.72536     0.03628    -0.13724
Cl     2.32447     4.27903    -0.03449
Cl    -1.11298    -0.57584    -2.10004
Cl    -1.03831    -0.82109     1.95051
Cl     1.88543     1.13504     1.46302
Cl     1.72082     1.22899    -1.54964
 P     2.53591    -8.19440     2.03242
 P     2.59967    -8.30381    -1.61895
 P    -1.30463     2.15090     0.12499
 P     1.38247    -2.10234    -0.16100
 C     3.80859    -9.46099     2.54779
 C     3.45904    -6.59337     1.72520
 C     1.47322    -7.82595     3.53017
 C     4.35479    -8.95405    -1.47169
 C     1.99423    -8.95328    -3.26918
 C     2.80544    -6.44628    -1.83314
 C    -0.88981     3.13854    -1.41096
 C    -3.17049     1.99887     0.20925
 C    -0.85965     3.26192     1.56714
 C     2.35151    -2.05819    -1.75710
 C     0.36861    -3.67969    -0.26422
 C     2.56141    -2.36371     1.27164
 V     3.52639     2.14702    -0.07180
 V    -5.76931     2.69047     6.39644
 V   -10.38938    -5.06684     6.59900
Cl    -3.72547     3.97536     6.12249
Cl    -7.84654     1.36363     6.65485
Cl   -11.02919    -3.87626     4.56453
Cl   -11.01321    -4.05719     8.61676
Cl    -6.86697     4.33840     7.85167
Cl    -6.82467     4.32330     4.81859
 P    -4.79578     1.38742     8.30558
 P    -4.94989     1.12048     4.60807
 P   -10.06258     4.84027     6.20048
 P    -8.19385    -3.82195     6.58709
 C    -3.42475     2.38548     9.09248
 C    -4.08898    -0.33982     8.11007
 C    -6.14905     1.22217     9.59589
 C    -3.08893     0.91921     4.46188
 C    -5.46517     1.83291     2.94843
 C    -5.64951    -0.61996     4.71308
 C    -9.91788     3.60843     4.79549
 C   -11.63842     5.78911     5.84022
 C   -10.38060     3.81539     7.73313
 C    -7.24862    -4.11449     5.00141
 C    -8.44906    -1.96393     6.72497
 C    -7.09038    -4.25261     8.03383
 V    -9.02050    -1.11880     0.11979
 V    -6.73372    -4.55454     0.18957
Cl   -10.96632    -2.55570     0.08983
Cl    -7.04910     0.31424     0.09764
Cl    -5.94457    -5.54381    -1.89340
Cl    -6.11888    -5.67275     2.16425
Cl    -7.95375    -2.72177     1.65230
Cl    -7.82024    -2.74759    -1.36464
 P   -10.01268     0.32433     1.91542
 P   -10.09222     0.22076    -1.71568
 P    -4.66552    -3.11037     0.24277
 P    -6.39563     5.32801    -0.23050
 C   -11.67993    -0.33086     2.44988
 C   -10.27475     2.16036     1.64099
 C    -8.85521     0.17215     3.37740
 C   -11.96064     0.34978    -1.57299
 C    -9.72987    -0.62397    -3.34519
 C    -9.52354     2.00147    -1.90689
 C    -4.64071    -2.08001    -1.32218
 C    -3.02892    -4.02284     0.30284
 C    -4.56816    -1.87643     1.65207
 C    -7.26219     5.77797    -1.82326
 C    -6.18495     3.46454    -0.35378
 C    -7.57911     5.59551     1.19828
 V    -0.43591    -4.25320     6.51773
 V     2.98209    -1.97559     6.45913
Cl    -1.75667    -2.23564     6.24909
Cl     0.89791    -6.31782     6.76074
Cl     4.01210    -1.27815     4.35695
Cl     3.89018    -1.24573     8.49994
Cl     1.26418    -3.25270     8.00012
Cl     1.23771    -3.23757     4.97032
 P    -1.93023    -5.03042     8.38098
 P    -1.78922    -5.31469     4.68274
 P     4.41786    -4.04827     6.37305
 P     1.47370     0.04552     6.37619
 C    -2.80799    -3.57190     9.16236
 C    -3.27363    -6.32232     8.14836
 C    -0.80201    -5.73446     9.70001
 C    -3.56315    -4.72297     4.52180
 C    -0.99604    -4.87201     3.03976
 C    -1.87735    -7.18802     4.77890
 C     3.77813    -5.10117     4.95937
 C     6.21603    -3.74059     5.93472
 C     4.33607    -5.19029     7.84993
 C     0.54325     0.09959     4.75600
 C     2.41845     1.66627     6.48483
 C     0.24421     0.11355     7.78469
 H     4.20786    -9.96507     1.63513
 H     3.30308   -10.23060     3.18217
 H     4.64727    -8.97809     3.10398
 H     2.72299    -5.78270     1.52671
 H     4.07486    -6.34446     2.61859
 H     4.13652    -6.70987     0.85026
 H     0.78377    -6.99087     3.26583
 H     0.86874    -8.73889     3.75444
 H     2.07002    -7.53035     4.41943
 H     4.88790    -8.82500    -2.44321
 H     4.31985   -10.03193    -1.19164
 H     4.90798    -8.39274    -0.68325
 H     2.22529    -8.23841    -4.08753
 H     0.88497    -9.09905    -3.19497
 H     2.45201    -9.95345    -3.46202
 H     2.34545    -6.11367    -2.79294
 H     2.29215    -5.93866    -0.98521
 H     3.88759    -6.18880    -1.83526
 H    -1.68071     3.89565    -1.61301
 H    -0.76974     2.43670    -2.27173
 H     0.09625     3.63943    -1.24360
 H    -3.61139     3.01352     0.36446
 H    -3.43135     1.32547     1.05643
 H    -3.55095     1.54742    -0.73323
 H    -1.39337     4.23563     1.47678
 H    -1.14083     2.75604     2.51524
 H     0.24964     3.41930     1.53158
 H     1.64497    -1.84783    -2.60504
 H     2.87085    -3.01687    -1.95336
 H     3.08832    -1.21204    -1.72553
 H    -0.40128    -3.54079    -1.06071
 H    -0.12862    -3.86096     0.71504
 H     1.00309    -4.55441    -0.50860
 H     3.12186    -1.40234     1.45135
 H     1.98049    -2.57561     2.20458
 H     3.27565    -3.18025     1.06062
 H    -2.68579     2.67363     8.30610
 H    -3.85399     3.32521     9.52605
 H    -2.92232     1.77779     9.87769
 H    -3.20319    -0.30825     7.43267
 H    -4.86245    -1.01315     7.68508
 H    -3.74773    -0.72187     9.10184
 H    -6.72631     2.18243     9.61559
 H    -6.84492     0.40241     9.30214
 H    -5.73440     1.01717    10.60593
 H    -2.81466     0.55616     3.44416
 H    -2.71482     0.18576     5.21306
 H    -2.61348     1.91179     4.64864
 H    -4.77825     2.68409     2.71026
 H    -6.49652     2.25668     3.04560
 H    -5.44545     1.06772     2.14493
 H    -6.03836    -0.95769     3.72634
 H    -6.50119    -0.60601     5.43746
 H    -4.86304    -1.31764     5.07264
 H    -9.58239     4.14322     3.87726
 H   -10.89260     3.09641     4.64523
 H    -9.12397     2.86464     5.06407
 H   -11.40079     6.53081     5.04207
 H   -12.43759     5.08551     5.50474
 H   -11.96409     6.34303     6.74643
 H   -11.26493     3.15425     7.57224
 H   -10.54918     4.48392     8.60381
 H    -9.46507     3.19202     7.91180
 H    -7.89284    -3.82229     4.12990
 H    -7.04641    -5.21696     4.89722
 H    -6.29701    -3.55142     4.97577
 H    -8.61196    -1.53352     5.71363
 H    -9.36921    -1.80437     7.34059
 H    -7.58893    -1.46691     7.21907
 H    -6.07456    -3.83095     7.91928
 H    -7.56348    -3.87432     8.97804
 H    -7.02498    -5.37319     8.12166
 H   -12.25641    -0.62604     1.53974
 H   -12.24757     0.44537     3.01258
 H   -11.51317    -1.24294     3.07712
 H    -9.29015     2.66223     1.52126
 H   -10.89259     2.31997     0.72747
 H   -10.82866     2.60053     2.50203
 H    -7.85020     0.53060     3.05102
 H    -9.18811     0.75271     4.26223
 H    -8.77322    -0.91560     3.63091
 H   -12.40400     0.59865    -2.56566
 H   -12.36536    -0.61753    -1.19844
 H   -12.22988     1.16214    -0.85560
 H    -9.86372     0.07317    -4.19416
 H   -10.37445    -1.53194    -3.44825
 H    -8.66666    -0.98089    -3.31439
 H    -8.82918     2.08561    -2.77374
 H   -10.40454     2.66479    -2.06341
 H    -8.98545     2.29819    -0.97766
 H    -3.64686    -1.59486    -1.45206
 H    -5.44641    -1.30448    -1.23541
 H    -4.89260    -2.73459    -2.19036
 H    -2.20312    -3.28186     0.41562
 H    -2.89871    -4.61617    -0.62939
 H    -3.04810    -4.72538     1.16506
 H    -3.69440    -1.20057     1.51032
 H    -5.52341    -1.28955     1.63735
 H    -4.47543    -2.42447     2.61409
 H    -6.53313     5.66314    -2.67195
 H    -7.56814     6.85692    -1.78998
 H    -8.14241     5.13224    -2.00960
 H    -5.42995     3.25663    -1.14921
 H    -7.14234     2.97277    -0.62274
 H    -5.83488     3.05867     0.61989
 H    -7.64610     6.70209     1.40369
 H    -8.58386     5.20027     0.96123
 H    -7.17138     5.11694     2.12277
 H    -3.37976    -3.03111     8.37070
 H    -3.49833    -3.91870     9.96022
 H    -2.04581    -2.86417     9.58088
 H    -4.03079    -5.95400     7.41743
 H    -3.79218    -6.51064     9.11809
 H    -2.82496    -7.26637     7.77260
 H    -0.01518    -4.97099     9.92382
 H    -1.35537    -5.98655    10.63015
 H    -0.30822    -6.65249     9.30113
 H    -3.94117    -4.90633     3.48955
 H    -4.22081    -5.26377     5.24093
 H    -3.59047    -3.62960     4.74465
 H    -1.27936    -3.81913     2.78733
 H    -1.29775    -5.57286     2.23347
 H     0.11656    -4.89630     3.15934
 H    -1.43330    -7.65371     3.86958
 H    -2.93235    -7.51345     4.89867
 H    -1.27959    -7.51246     5.66504
 H     3.64362    -4.45886     4.05907
 H     2.77011    -5.49588     5.24872
 H     4.47827    -5.94571     4.77422
 H     6.22289    -3.05417     5.05386
 H     6.75063    -3.22498     6.76125
 H     6.71835    -4.70191     5.68512
 H     4.89478    -6.13401     7.63248
 H     3.25332    -5.42846     8.02161
 H     4.74731    -4.69423     8.75029
 H     1.27934     0.05481     3.90880
 H    -0.08056     1.00887     4.66599
 H    -0.10189    -0.81820     4.67457
 H     2.74369     1.98420     5.47037
 H     1.80952     2.46213     6.96053
 H     3.32685     1.47646     7.10619
 H    -0.58555     0.81334     7.56792
 H    -0.17660    -0.91857     7.94737
 H     0.76445     0.40979     8.73041
