  168
 
Os     0.00000     0.00000     0.00000
 I    10.87429     0.00000     0.00000
 I     7.09485     0.51431     0.00000
 I    10.38043    -3.84699    -0.10132
 I     6.52383    -3.28596    -0.00138
 F     8.68106    -1.60100    -1.82273
 N     8.72098    -1.68782     1.76073
 O     8.83139    -1.75770     2.88810
Os     8.72371    -1.69505     0.05684
Os     2.92629    -5.38781     5.80876
 I     1.36041    -4.13820     3.94117
 I     5.07591    -4.97455     4.15164
 I     0.80392    -5.58104     7.49955
 I     4.58739    -6.51036     7.64030
 F     3.32474    -3.68996     6.51727
 N     2.62930    -6.90454     5.09137
 O     2.30639    -7.90485     4.66339
Os    -2.07057    -8.68730    -0.75816
 I    -3.64389    -7.42771    -2.61274
 I    -1.45685    -6.21571     0.26764
 I    -2.54538   -11.08850    -1.94533
 I    -0.39789    -9.82537     1.05316
 F    -0.60682    -8.41710    -1.91050
 N    -3.38984    -8.83402     0.31017
 O    -4.31652    -9.02518     0.93687
 I     2.15802     1.68508    -0.06984
 I    -0.09296     0.15102    -2.73975
 I     0.00915     0.05603     2.71981
 I    -2.21147    -1.57539    -0.03799
 F    -1.10794     1.52170    -0.01872
 N     1.01954    -1.36278    -0.08183
 O     1.73373    -2.24180    -0.00913
 N     4.38685    -0.84798    -3.63366
 C     5.86848    -1.29312    -3.65523
 C     3.68362    -1.15818    -4.79635
 C     3.65336    -1.43780    -2.46869
 C     4.34999     0.67911    -3.46695
 N     7.91245    -2.96487     7.36221
 C     6.39377    -2.70635     7.50574
 C     8.69964    -2.23188     8.24859
 C     8.24063    -4.41634     7.53128
 C     8.33135    -2.56793     5.93809
 N     3.24891    -6.71105     0.21305
 C     2.45393    -7.42241    -0.90758
 C     4.63243    -6.77723     0.05776
 C     2.90053    -7.25583     1.56394
 C     2.85561    -5.22565     0.20769
 N     9.05039     2.89820     3.51549
 C     9.80832     3.42294     4.75809
 C     7.75083     3.38718     3.39448
 C     8.99346     1.40170     3.49865
 C     9.82573     3.33682     2.26345
 N     6.75811    -9.15441     4.09652
 C     5.20391    -9.03913     4.06383
 C     7.36694    -8.50278     3.06610
 C     7.32018    -8.46681     5.42320
 C     6.98310   -10.65782     4.10103
 N     4.38098    -0.50153     3.45066
 C     5.88861    -0.85132     3.63661
 C     4.16369     0.81876     3.19238
 C     3.80055    -1.28162     2.18442
 C     3.76018    -0.99151     4.74889
 N    -0.28256    -4.24772    -3.69850
 C     0.66017    -3.84046    -2.52577
 C     0.02535    -3.63128    -4.87420
 C    -1.77858    -3.80078    -3.36539
 C    -0.13996    -5.76077    -3.73378
 N    -2.29892    -7.01266     4.62193
 C    -3.28822    -7.65444     3.60246
 C    -2.21529    -5.65718     4.50892
 C    -0.82127    -7.55208     4.34925
 C    -2.83733    -7.49300     5.95994
 H     6.51113    -0.42311    -3.52035
 H     6.09217    -1.76525    -4.61187
 H     6.04597    -2.00448    -2.84866
 H     2.71898    -0.65082    -4.78381
 H     4.25508    -0.83079    -5.66488
 H     3.52683    -2.23553    -4.84964
 H     2.68171    -0.95410    -2.36849
 H     4.23227    -1.28224    -1.55833
 H     3.51225    -2.50631    -2.63141
 H     3.31399     1.01702    -3.44227
 H     4.84442     0.95494    -2.53552
 H     4.86544     1.14860    -4.30479
 H     6.19469    -1.64026     7.39661
 H     6.05979    -3.03962     8.48834
 H     5.85690    -3.25715     6.73341
 H     8.11058    -1.41672     8.66887
 H     9.55948    -1.82284     7.71808
 H     9.04442    -2.88280     9.05204
 H     7.32576    -4.97498     7.72884
 H     8.92863    -4.53828     8.36787
 H     8.70624    -4.79213     6.62019
 H     7.56210    -1.93448     5.49640
 H     9.27414    -2.02217     5.97546
 H     8.45492    -3.46555     5.33219
 H     1.45532    -6.99071    -0.97481
 H     2.97075    -7.29236    -1.85841
 H     2.37565    -8.48529    -0.67899
 H     5.02649    -5.77629    -0.11811
 H     5.08019    -7.19036     0.96160
 H     4.87257    -7.41669    -0.79166
 H     1.92905    -6.86931     1.87206
 H     3.65846    -6.95055     2.28535
 H     2.86049    -8.34411     1.51756
 H     1.77099    -5.13671     0.26924
 H     3.31024    -4.72634     1.06332
 H     3.20664    -4.76019    -0.71331
 H     9.18040     4.13597     5.29232
 H    10.72825     3.91464     4.44177
 H    10.05022     2.58791     5.41560
 H     7.62244     4.24517     4.05437
 H     7.57187     3.69187     2.36335
 H     7.04183     2.60682     3.67101
 H     7.95356     1.07729     3.53703
 H     9.52902     1.00795     4.36250
 H     9.45627     1.03073     2.58417
 H     9.23830     4.06993     1.71067
 H    10.77508     3.78192     2.56133
 H    10.01377     2.46979     1.63020
 H     4.91363    -7.99824     4.20660
 H     4.83371    -9.39076     3.10081
 H     4.77761    -9.64786     4.86121
 H     6.70163    -7.72985     2.68134
 H     8.28987    -8.04410     3.42093
 H     7.59626    -9.21315     2.27181
 H     6.56940    -7.78706     5.82615
 H     8.22631    -7.90878     5.18734
 H     7.54854    -9.23510     6.16190
 H     6.02200   -11.16878     4.15854
 H     7.59222   -10.93151     4.96252
 H     7.49633   -10.95118     3.18525
 H     6.38040    -0.05408     4.19397
 H     6.36051    -0.95617     2.65967
 H     5.97916    -1.78822     4.18628
 H     3.10530     1.04493     3.32178
 H     4.75171     1.42528     3.88119
 H     4.46031     1.04210     2.16756
 H     2.78541    -0.94042     1.98149
 H     4.43019    -1.08514     1.31664
 H     3.78972    -2.35188     2.39062
 H     2.78724    -0.51991     4.88706
 H     4.41143    -0.73225     5.58361
 H     3.63672    -2.07368     4.70688
 H     0.15872    -3.10680    -1.89459
 H     1.57565    -3.40759    -2.92904
 H     0.90530    -4.72216    -1.93364
 H    -0.78969    -2.96642    -5.16016
 H     0.94072    -3.05225    -4.75203
 H     0.17128    -4.38208    -5.65080
 H    -2.01420    -2.88600    -3.90922
 H    -1.87431    -3.62171    -2.29447
 H    -2.46863    -4.58956    -3.66499
 H    -1.12834    -6.21952    -3.70622
 H     0.43828    -6.09147    -2.87100
 H     0.37234    -6.05622    -4.64940
 H    -4.24461    -7.13344     3.64702
 H    -2.87671    -7.57315     2.59640
 H    -3.43511    -8.70548     3.85111
 H    -3.21456    -5.22551     4.56567
 H    -1.60232    -5.26219     5.31907
 H    -1.76209    -5.39968     3.55163
 H    -0.32403    -6.90139     3.62991
 H    -0.25872    -7.55850     5.28285
 H    -0.87217    -8.56456     3.94877
 H    -3.81214    -7.04088     6.14277
 H    -2.14830    -7.20429     6.75365
 H    -2.93762    -8.57824     5.94279
