  104
 
Ni     0.00000     0.00000     0.00000
Ni     2.50356    -0.26617    -0.00968
 O     1.60871     2.14303    -1.32331
 O     0.95254    -2.40947     1.33598
 C     1.35784     1.18518    -0.73919
 C     1.14878    -1.44538     0.74066
 C    -1.79364    -0.12768    -1.15586
 C    -1.70605     1.16712    -0.51537
 C    -1.68039     0.95555     0.91664
 C    -1.72833    -0.45853     1.16104
 C    -1.79793    -1.13348    -0.13010
 C     4.19242    -0.88194    -1.16408
 C     4.18156    -1.57703     0.09742
 C     4.26800    -0.58544     1.15724
 C     4.31536     0.71205     0.54959
 C     4.26017     0.53445    -0.89460
 H    -1.94546    -0.29827    -2.20891
 H    -1.79788     2.12316    -1.00724
 H    -1.73077     1.72982     1.66353
 H    -1.84191    -0.93527     2.11883
 H    -1.97171    -2.18560    -0.27339
 H     4.25156    -1.34092    -2.13681
 H     4.24573    -2.64278     0.23139
 H     4.39282    -0.80063     2.20439
 H     4.48835     1.64572     1.05628
 H     4.40815     1.31061    -1.62667
Ni     0.17741    -5.92252    -3.65433
Ni    -2.31132    -5.54119    -3.64976
 O    -1.43112    -7.94782    -2.22580
 O    -0.54336    -3.55001    -5.05712
 C    -1.21785    -7.00371    -2.84781
 C    -0.90868    -4.46036    -4.45883
 C     1.97111    -5.83761    -2.49396
 C     1.81870    -7.15512    -3.08010
 C     1.80438    -7.00602    -4.51729
 C     1.92069    -5.60434    -4.82178
 C     2.03127    -4.87945    -3.56134
 C    -3.92517    -4.85984    -2.41886
 C    -3.95292    -4.17362    -3.68304
 C    -4.11933    -5.16682    -4.73049
 C    -4.18150    -6.45868    -4.11317
 C    -4.05360    -6.27540    -2.67445
 H     2.12194    -5.63320    -1.44832
 H     1.85808    -8.08697    -2.54341
 H     1.81559    -7.81063    -5.23349
 H     2.05105    -5.17690    -5.80046
 H     2.25668    -3.83186    -3.46370
 H    -3.91656    -4.39458    -1.44770
 H    -3.98501    -3.10417    -3.82878
 H    -4.28812    -4.95026    -5.77141
 H    -4.40690    -7.38793    -4.60742
 H    -4.19786    -7.04055    -1.93100
Ni     3.92722    -1.77810    -9.56139
Ni     4.71336    -4.10858    -9.05852
 O     6.79319    -2.18470    -9.93179
 O     1.82220    -3.66727    -8.72809
 C     5.73590    -2.54560    -9.66339
 C     2.89534    -3.34497    -8.98815
 C     3.27097    -0.42859   -11.08011
 C     4.45138     0.08937   -10.42782
 C     4.13669     0.27877    -9.02084
 C     2.78188    -0.13948    -8.80833
 C     2.24295    -0.58697   -10.08455
 C     5.05229    -6.08022    -9.80416
 C     4.09017    -6.11485    -8.72845
 C     4.74136    -5.60516    -7.53130
 C     6.08413    -5.24403    -7.87524
 C     6.28021    -5.52941    -9.28901
 H     3.14823    -0.57333   -12.14026
 H     5.34947     0.42097   -10.91720
 H     4.77550     0.75556    -8.29831
 H     2.21914    -0.03192    -7.89769
 H     1.21592    -0.85444   -10.27450
 H     4.91177    -6.49065   -10.78855
 H     3.12020    -6.57817    -8.76230
 H     4.31988    -5.61438    -6.53811
 H     6.85121    -4.92871    -7.18691
 H     7.22052    -5.47994    -9.81557
Ni     1.41274     2.85178     5.41411
Ni     0.64804     4.88479     4.14940
 O    -1.46376     3.03724     5.16892
 O     3.55041     4.69718     4.56131
 C    -0.41540     3.45913     4.96092
 C     2.47159     4.31520     4.67235
 C     1.90017     1.97792     7.29843
 C     0.78358     1.28694     6.70305
 C     1.23037     0.72418     5.43614
 C     2.60582     1.08169     5.25297
 C     3.02398     1.87074     6.39972
 C     0.20864     6.97231     4.18307
 C     1.33696     6.71547     3.31763
 C     0.88811     5.83703     2.24754
 C    -0.49586     5.54330     2.46672
 C    -0.92060     6.23981     3.67241
 H     1.92188     2.40497     8.28796
 H    -0.16226     1.08539     7.17536
 H     0.65763     0.05890     4.81382
 H     3.25042     0.74031     4.46114
 H     4.03088     2.18998     6.60449
 H     0.18951     7.67650     4.99784
 H     2.29173     7.20912     3.36065
 H     1.46848     5.55939     1.38473
 H    -1.14840     5.00841     1.79480
 H    -1.93700     6.30722     4.02538
