  472
 
Os     0.00000     0.00000     0.00000
Cl     1.06763    -1.89683    -1.23946
Cl    -2.08222    -0.17208    -1.41058
Cl    -1.63522     1.79284     0.79071
Cl    -1.35402    -1.61767     1.34980
Cl     0.28000     1.84897    -1.67169
Cl     1.14831     0.85018     2.17347
Os     2.31936    -1.05565     0.95389
Cl     4.34917    -0.85937     2.46001
Cl     4.06344    -2.77521     0.21105
Cl     3.50540     0.63299    -0.48742
Cl     1.93584    -2.94434     2.60913
Os    -4.16214    -8.50353    -4.09890
Cl    -2.83091   -10.26429    -5.31929
Cl    -5.05599    -7.46459    -6.21590
Cl    -5.62302    -6.48878    -3.46144
Cl    -2.31503    -6.83203    -4.43795
Cl    -6.47524    -9.53389    -4.20486
Cl    -3.81494    -8.43284    -1.49819
Os    -2.49296   -10.17662    -2.73388
Cl    -1.53366   -11.22344    -0.65701
Cl    -1.04811   -12.17545    -3.43249
Cl    -4.21026   -11.97520    -2.40206
Cl    -0.19772    -9.16179    -2.49619
Os    -7.41631     1.47926   -11.01981
Cl    -6.25129     2.43779    -9.09651
Cl    -9.73252     2.19763   -10.40473
Cl    -8.85735     0.97746   -13.03310
Cl    -7.52406    -0.74363   -10.00026
Cl    -7.45178     3.71164   -12.19995
Cl    -5.45921     0.67898   -12.36771
Os    -5.00104     0.16077    -9.82567
Cl    -2.62187    -0.68556    -9.97068
Cl    -4.32624     0.72172    -7.44279
Cl    -3.43576     2.14619   -10.02346
Cl    -5.33830    -2.07701    -8.56009
Os   -12.17380     0.30478    -1.86348
Cl   -11.31236     0.90740     0.43492
Cl   -13.27776     2.53068    -2.25811
Cl   -13.31483     0.18179    -4.16757
Cl   -10.45205     1.51643    -3.24411
Cl   -14.54877    -0.28903    -1.24922
Cl   -11.50532    -2.03237    -2.71156
Os   -10.63973    -1.43956    -0.42052
Cl    -9.59727    -3.70960    -0.08141
Cl    -9.41654    -1.37771     1.83191
Cl   -12.41932    -2.64885     0.87364
Cl    -8.26290    -0.87217    -1.05215
 N    -5.55270     1.22768     2.36348
 C    -5.21457     0.28424     1.19367
 C    -5.65635    -1.16540     1.42607
 C    -5.21098    -2.04202     0.24407
 C    -5.78115    -3.45534     0.36585
 C    -4.96014     2.61728     2.06460
 C    -5.58726     3.31803     0.85640
 C    -4.91086     4.68031     0.61259
 C    -5.46598     5.31626    -0.66322
 C    -7.08716     1.27712     2.50059
 C    -7.62826     2.35066     3.45070
 C    -9.16369     2.41754     3.32904
 C    -9.72824     3.55543     4.18147
 C    -4.94486     0.71348     3.68350
 C    -3.46812     0.31513     3.57863
 C    -2.90444    -0.09675     4.94975
 C    -1.40252    -0.36482     4.84474
 H    -4.10120     0.32365     1.00989
 H    -5.73584     0.66396     0.27335
 H    -6.77350    -1.22578     1.49041
 H    -5.20452    -1.58577     2.35257
 H    -4.09302    -2.08186     0.22592
 H    -5.58828    -1.57714    -0.69744
 H    -6.89670    -3.41149     0.42930
 H    -5.38281    -3.95548     1.27456
 H    -5.50192    -4.05929    -0.52438
 H    -3.85909     2.49089     1.88038
 H    -5.08659     3.27502     2.97261
 H    -6.67332     3.50284     1.03292
 H    -5.46147     2.69651    -0.06048
 H    -3.81205     4.52777     0.51596
 H    -5.10603     5.37198     1.48861
 H    -5.49341     4.58239    -1.49577
 H    -4.83013     6.17300    -0.97333
 H    -6.49861     5.69386    -0.47432
 H    -7.43785     0.27287     2.86662
 H    -7.52063     1.43282     1.47322
 H    -7.21919     3.36582     3.20729
 H    -7.35315     2.11017     4.50482
 H    -9.60862     1.44601     3.65232
 H    -9.44895     2.58537     2.25983
 H    -1.20218    -1.23854     4.17983
 H    -1.00135    -0.56216     5.86232
 H    -0.88070     0.51482     4.40287
 H    -5.53819    -0.17196     4.03239
 H    -5.06266     1.52086     4.45501
 H    -2.85669     1.16199     3.18117
 H    -3.32995    -0.55171     2.88450
 H    -3.42430    -1.01215     5.32702
 H    -3.07823     0.71076     5.70032
 H    -9.33348     3.49939     5.21972
 H   -10.83792     3.50084     4.20669
 H    -9.42571     4.53805     3.75087
 N    -4.95851    -2.36037    -4.18720
 C    -4.60368    -3.25656    -5.38410
 C    -3.27806    -2.91387    -6.07730
 C    -2.93777    -4.05913    -7.04640
 C    -1.68784    -3.76845    -7.87339
 C    -6.23158    -2.92141    -3.52886
 C    -7.47599    -2.91024    -4.42357
 C    -8.63350    -3.63949    -3.71513
 C    -9.83333    -3.78543    -4.65268
 C    -5.16750    -0.92234    -4.70004
 C    -5.72702     0.04694    -3.65431
 C    -6.11288     1.38611    -4.31185
 C    -6.78843     2.30166    -3.28864
 C    -3.83062    -2.35892    -3.13780
 C    -3.34649    -3.75194    -2.71809
 C    -2.28317    -3.64735    -1.60939
 C    -2.09678    -4.99861    -0.91685
 H    -4.58368    -4.32528    -5.02439
 H    -5.42252    -3.15409    -6.14949
 H    -3.38035    -1.96340    -6.66555
 H    -2.44236    -2.81671    -5.35133
 H    -2.78211    -4.99173    -6.44742
 H    -3.80068    -4.19739    -7.74035
 H    -1.80616    -2.80226    -8.41970
 H    -0.79054    -3.71738    -7.22188
 H    -1.53851    -4.58277    -8.61751
 H    -6.01767    -3.98204    -3.22445
 H    -6.45269    -2.33211    -2.59666
 H    -7.79426    -1.85999    -4.62985
 H    -7.27841    -3.42934    -5.39046
 H    -8.28646    -4.64970    -3.39390
 H    -8.93965    -3.05493    -2.80481
 H    -9.55207    -4.36088    -5.56040
 H   -10.66306    -4.31594    -4.13432
 H   -10.20391    -2.77912    -4.95746
 H    -4.17501    -0.53625    -5.05994
 H    -5.85379    -0.96335    -5.59348
 H    -6.65161    -0.36210    -3.17440
 H    -4.96532     0.24189    -2.86130
 H    -5.20148     1.87781    -4.72815
 H    -6.81860     1.19934    -5.15917
 H    -1.82837    -5.78705    -1.66223
 H    -1.29086    -4.91156    -0.15538
 H    -3.04055    -5.30027    -0.41121
 H    -2.96078    -1.77974    -3.54584
 H    -4.20361    -1.80796    -2.23454
 H    -4.19459    -4.37117    -2.33791
 H    -2.89218    -4.30032    -3.58210
 H    -1.31136    -3.30998    -2.04390
 H    -2.58081    -2.88734    -0.84587
 H    -6.12390     2.46318    -2.41436
 H    -7.02948     3.28145    -3.75340
 H    -7.74165     1.83524    -2.92957
 N   -13.24855     6.73973    -0.85381
 C   -13.16328     7.34481     0.55616
 C   -13.52743     6.37341     1.68558
 C   -13.24073     7.04774     3.03745
 C   -13.70843     6.18497     4.20933
 C   -12.64592     7.75303    -1.84073
 C   -13.43006     9.06565    -1.95933
 C   -12.86621     9.89541    -3.12710
 C   -13.47129    11.29895    -3.15534
 C   -14.72465     6.43297    -1.18264
 C   -14.96756     6.02529    -2.64008
 C   -16.47640     5.94819    -2.94050
 C   -16.70237     5.54420    -4.39915
 C   -12.45902     5.42384    -0.95505
 C   -10.98579     5.49929    -0.54140
 C   -10.37389     4.08661    -0.58828
 C    -8.84819     4.13700    -0.54198
 H   -12.11400     7.72731     0.71209
 H   -13.87525     8.21685     0.60143
 H   -14.61940     6.11687     1.64286
 H   -12.92823     5.43812     1.62800
 H   -12.14172     7.23469     3.12144
 H   -13.78975     8.02065     3.05654
 H   -14.80330     5.98069     4.11639
 H   -13.15684     5.21988     4.22788
 H   -13.52076     6.70783     5.17153
 H   -11.60164     7.98908    -1.49841
 H   -12.58290     7.27351    -2.85607
 H   -14.51144     8.87755    -2.15984
 H   -13.33370     9.65406    -1.01628
 H   -11.76056     9.95867    -3.01519
 H   -13.09265     9.38347    -4.10388
 H   -13.49870    11.74824    -2.13979
 H   -12.87234    11.95511    -3.82789
 H   -14.51011    11.25522    -3.55728
 H   -15.05558     5.58986    -0.51506
 H   -15.34823     7.33246    -0.91921
 H   -14.52623     6.76225    -3.35728
 H   -14.52063     5.01896    -2.83421
 H   -16.95876     5.20928    -2.25569
 H   -16.94754     6.94677    -2.75962
 H    -8.51215     4.65904     0.38344
 H    -8.45238     3.09466    -0.55956
 H    -8.45152     4.67700    -1.43069
 H   -12.98061     4.64717    -0.33187
 H   -12.51002     5.08194    -2.02444
 H   -10.41540     6.15618    -1.24021
 H   -10.86298     5.90989     0.48945
 H   -10.74342     3.49352     0.28071
 H   -10.69081     3.55482    -1.52239
 H   -16.12588     4.62601    -4.63918
 H   -17.78191     5.35175    -4.57707
 H   -16.36395     6.36185    -5.08681
 N   -12.79638     2.98446    -7.28549
 C   -12.60804     3.59053    -5.88489
 C   -11.38427     4.50247    -5.77790
 C   -11.27766     5.08623    -4.35952
 C   -10.15218     6.11790    -4.28878
 C   -13.95881     1.98308    -7.21423
 C   -15.31618     2.61842    -6.88510
 C   -16.45054     1.62984    -7.20648
 C   -17.82149     2.25484    -6.93715
 C   -13.08803     4.11141    -8.30209
 C   -13.55260     3.60425    -9.67188
 C   -13.97202     4.77566   -10.57992
 C   -14.48457     4.23952   -11.91777
 C   -11.52905     2.25399    -7.76581
 C   -10.92041     1.22955    -6.80346
 C    -9.69427     0.57381    -7.47068
 C    -9.10908    -0.52650    -6.58553
 H   -12.51773     2.74857    -5.13547
 H   -13.52558     4.19450    -5.64299
 H   -11.47823     5.36075    -6.49306
 H   -10.45074     3.93295    -5.98286
 H   -11.07754     4.25463    -3.63782
 H   -12.24761     5.57859    -4.11368
 H   -10.30477     6.90035    -5.07180
 H    -9.17052     5.62361    -4.45598
 H   -10.13991     6.61221    -3.29599
 H   -13.71501     1.22627    -6.42004
 H   -14.03197     1.44568    -8.19705
 H   -15.49092     3.54676    -7.47869
 H   -15.35684     2.86772    -5.79689
 H   -16.30925     0.71901    -6.58295
 H   -16.40152     1.32501    -8.28692
 H   -17.78152     2.96513    -6.08386
 H   -18.56978     1.46371    -6.70652
 H   -18.16550     2.80257    -7.84672
 H   -12.14308     4.70641    -8.44463
 H   -13.85323     4.80891    -7.85994
 H   -14.44030     2.92839    -9.58194
 H   -12.72317     3.05152   -10.17642
 H   -13.10345     5.45673   -10.74316
 H   -14.78231     5.36703   -10.08440
 H    -9.00702    -0.16047    -5.53673
 H    -8.10885    -0.82217    -6.98375
 H    -9.77631    -1.41566    -6.59229
 H   -10.74966     3.03274    -7.99152
 H   -11.78794     1.73457    -8.72487
 H   -11.65558     0.43892    -6.52179
 H   -10.58654     1.71940    -5.85497
 H    -8.90760     1.34702    -7.66696
 H    -9.97905     0.12788    -8.45444
 H   -13.73414     3.56896   -12.38517
 H   -14.70491     5.08007   -12.61002
 H   -15.42577     3.64920   -11.76566
 N    -7.55932     7.76417    -9.90929
 C    -7.88663     8.73235    -8.75706
 C    -7.46732    10.18257    -9.01970
 C    -7.90659    11.06564    -7.83954
 C    -7.37245    12.49011    -7.98818
 C    -8.14449     6.38480    -9.55736
 C    -7.45656     5.68930    -8.37367
 C    -8.37608     4.60936    -7.77544
 C    -7.73933     3.93226    -6.55976
 C    -6.02920     7.69479   -10.07396
 C    -5.53446     6.66132   -11.09320
 C    -3.99734     6.56344   -11.02688
 C    -3.48519     5.42325   -11.90773
 C    -8.18306     8.24946   -11.23283
 C    -9.67468     8.59788   -11.15219
 C   -10.19213     9.07133   -12.52327
 C   -11.71625     9.19505   -12.51294
 H    -8.99752     8.68500    -8.56145
 H    -7.35042     8.37966    -7.83481
 H    -6.35281    10.25652    -9.10651
 H    -7.94436    10.58286    -9.94334
 H    -9.02327    11.08343    -7.80233
 H    -7.50553    10.62319    -6.89740
 H    -6.27186    12.46820    -8.18025
 H    -7.88307    13.00862    -8.82788
 H    -7.54874    13.06350    -7.05233
 H    -9.23409     6.52860    -9.32175
 H    -8.07546     5.71938   -10.46226
 H    -6.51444     5.19824    -8.72479
 H    -7.20675     6.41033    -7.56193
 H    -9.33271     5.09656    -7.46750
 H    -8.58725     3.83871    -8.55896
 H    -7.46918     4.68394    -5.78791
 H    -8.44218     3.19250    -6.11349
 H    -6.81255     3.38214    -6.84636
 H    -5.66138     8.71072   -10.38848
 H    -5.58195     7.46806    -9.06675
 H    -5.95184     5.64401   -10.88488
 H    -5.83232     6.95755   -12.12723
 H    -3.54902     7.52997   -11.35905
 H    -3.67843     6.37244    -9.97121
 H   -12.04152     9.98777   -11.79663
 H   -12.06780     9.44766   -13.53830
 H   -12.17929     8.23500   -12.19310
 H    -7.61520     9.15238   -11.58188
 H    -8.03228     7.44256   -11.99859
 H   -10.26720     7.70625   -10.83385
 H    -9.87272     9.41513   -10.41320
 H    -9.74008    10.05865   -12.79135
 H    -9.88861     8.35037   -13.31944
 H    -3.88972     5.50781   -12.93858
 H    -2.37424     5.44122   -11.94474
 H    -3.80490     4.43642   -11.48313
 N    -8.34262    11.53287    -3.39063
 C    -8.80394    12.48099    -2.27060
 C   -10.10794    12.04875    -1.58803
 C   -10.50151    13.09592    -0.53257
 C   -11.51632    12.54705     0.46799
 C    -7.06783    12.10397    -4.03331
 C    -5.85840    12.20265    -3.09590
 C    -4.67724    12.84129    -3.85198
 C    -3.50778    13.11108    -2.90500
 C    -8.08439    10.14326    -2.77674
 C    -7.43151     9.13667    -3.72886
 C    -7.10207     7.83076    -2.98073
 C    -6.47174     6.82163    -3.94239
 C    -9.42175    11.40860    -4.48402
 C    -9.94762    12.74374    -5.02727
 C   -10.98463    12.49165    -6.13703
 C   -11.31674    13.78354    -6.88361
 H    -8.92251    13.51797    -2.70338
 H    -7.99230    12.51866    -1.49454
 H    -9.97687    11.06333    -1.07331
 H   -10.93962    11.97283    -2.32441
 H   -10.93972    13.98197    -1.05763
 H    -9.58782    13.40681     0.02573
 H   -11.10202    11.64722     0.98208
 H   -12.45975    12.27092    -0.04853
 H   -11.73964    13.32427     1.23297
 H    -7.31211    13.13301    -4.41286
 H    -6.78943    11.46277    -4.91493
 H    -5.54657    11.18948    -2.74492
 H    -6.09458    12.84203    -2.21287
 H    -5.01724    13.79986    -4.31016
 H    -4.33689    12.14956    -4.67065
 H    -3.82557    13.78079    -2.07857
 H    -2.66626    13.57950    -3.46049
 H    -3.13625    12.15335    -2.47398
 H    -9.06947     9.72222    -2.43581
 H    -7.43762    10.27877    -1.86450
 H    -6.46981     9.53052    -4.14759
 H    -8.12157     8.90234    -4.57401
 H    -8.03070     7.40438    -2.53213
 H    -6.38162     8.04534    -2.15167
 H   -11.66507    14.57075    -6.17543
 H   -12.11107    13.56250    -7.63368
 H   -10.41409    14.15691    -7.41547
 H   -10.28388    10.82534    -4.06629
 H    -8.98886    10.81163    -5.32995
 H    -9.11759    13.36370    -5.44323
 H   -10.44331    13.34280    -4.22194
 H   -11.91752    12.05909    -5.69844
 H   -10.59892    11.74833    -6.87704
 H    -7.11549     6.68392    -4.83662
 H    -6.33068     5.84472    -3.43258
 H    -5.47220     7.19260    -4.28422
 N    -0.02773     2.36676    -6.83815
 C    -0.12470     1.84971    -8.28492
 C     0.33734     2.86395    -9.33863
 C     0.26008     2.23455   -10.74054
 C     0.85694     3.16689   -11.79711
 C    -0.66795     1.32029    -5.91146
 C     0.11562     0.00752    -5.79301
 C    -0.44025    -0.81793    -4.61859
 C     0.21161    -2.19880    -4.55594
 C     1.45456     2.61456    -6.49459
 C     1.71489     2.96327    -5.02495
 C     3.22959     2.97605    -4.74329
 C     3.50190     3.39049    -3.29597
 C    -0.77723     3.69697    -6.65238
 C    -2.25228     3.66889    -7.05433
 C    -2.86198     5.06822    -6.86648
 C    -4.38256     5.01771    -6.99874
 H    -1.19505     1.55642    -8.49661
 H     0.52090     0.93106    -8.36090
 H     1.40389     3.15552    -9.15808
 H    -0.31308     3.76815    -9.32832
 H    -0.81182     2.02459   -10.98709
 H     0.84111     1.28192   -10.72409
 H     1.84482     3.55659   -11.45034
 H     0.16813     4.01848   -11.98584
 H     1.02238     2.61761   -12.74839
 H    -1.69702     1.08827    -6.31216
 H    -0.77826     1.77433    -4.88884
 H     1.20100     0.18602    -5.60462
 H     0.00433    -0.57974    -6.73579
 H    -1.54117    -0.92007    -4.75039
 H    -0.24860    -0.28457    -3.64735
 H     0.22007    -2.68423    -5.55500
 H    -0.34555    -2.84669    -3.84165
 H     1.26071    -2.10556    -4.19101
 H     1.81320     3.47477    -7.12604
 H     2.05271     1.70903    -6.79720
 H     1.24720     2.22220    -4.33052
 H     1.30616     3.97882    -4.79636
 H     3.73644     3.68257    -5.44629
 H     3.64924     1.95302    -4.91450
 H    -4.65429     4.51131    -7.95545
 H    -4.78450     6.05468    -6.97690
 H    -4.82168     4.44233    -6.15407
 H    -0.24858     4.49015    -7.24665
 H    -0.70665     3.98175    -5.56801
 H    -2.83066     2.93389    -6.44601
 H    -2.37126     3.37914    -8.12807
 H    -2.45133     5.75148    -7.64631
 H    -2.59333     5.48772    -5.86507
 H     2.96179     4.33014    -3.05454
 H     4.59206     3.54839    -3.14757
 H     3.15460     2.59048    -2.59293
 N    -0.24028     6.07760    -0.17343
 C    -0.42797     5.42576    -1.55490
 C    -1.74670     4.65998    -1.70955
 C    -1.85089     4.09576    -3.13768
 C    -2.96356     3.05186    -3.23104
 C     0.97992     7.00755    -0.24371
 C     2.31997     6.30534    -0.48972
 C     3.46054     7.32290    -0.29899
 C     4.82554     6.70407    -0.60224
 C    -0.05598     4.97011     0.88371
 C     0.40365     5.48209     2.25393
 C     0.73911     4.30401     3.18812
 C     1.23935     4.83089     4.53460
 C    -1.46501     6.92222     0.22170
 C    -1.79169     8.05378    -0.75719
 C    -3.19895     8.60344    -0.47262
 C    -3.40696     9.96939    -1.12529
 H    -0.37285     6.23017    -2.34556
 H     0.42205     4.70635    -1.71498
 H    -1.78038     3.80245    -0.99016
 H    -2.62478     5.32741    -1.54515
 H    -2.05862     4.94034    -3.84227
 H    -0.88003     3.61581    -3.40703
 H    -2.74748     2.20760    -2.53094
 H    -3.94162     3.50530    -2.96107
 H    -3.02833     2.65270    -4.26465
 H     0.80770     7.73721    -1.08261
 H     1.03971     7.58607     0.71767
 H     2.47897     5.46118     0.22054
 H     2.35561     5.91259    -1.53373
 H     3.27616     8.18648    -0.97698
 H     3.46208     7.69779     0.76049
 H     4.76513     5.99324    -1.45323
 H     5.56048     7.50229    -0.85605
 H     5.19911     6.16429     0.29981
 H    -1.04413     4.44439     1.01031
 H     0.67767     4.21556     0.48677
 H     1.32287     6.11481     2.17388
 H    -0.40847     6.08617     2.72969
 H    -0.17163     3.67636     3.33792
 H     1.52706     3.66062     2.72408
 H    -3.28420     9.87646    -2.23307
 H    -4.43259    10.32903    -0.88372
 H    -2.66858    10.70035    -0.72918
 H    -2.35286     6.24082     0.32337
 H    -1.27177     7.36085     1.23762
 H    -1.05421     8.88398    -0.65814
 H    -1.76934     7.70092    -1.81831
 H    -3.94657     7.89467    -0.89888
 H    -3.35965     8.69163     0.63207
 H     0.47047     5.48239     4.99991
 H     1.46090     3.98625     5.22051
 H     2.17547     5.43276     4.39912
