  120
 
Be     0.00000     0.00000     0.00000
Br     2.09074    -0.31093    -0.11989
Br    -0.78665     2.00117    -0.12986
 N    -0.58264    -0.45069     1.46567
 C    -0.72532    -0.46691     2.61839
 C    -0.93433    -0.51593     4.03448
 H    -2.02114    -0.43545     4.30874
 H    -0.40708     0.32553     4.56872
 H    -0.54894    -1.47283     4.48095
 N    -0.76284    -0.70942    -1.26905
 C    -1.01896    -0.91562    -2.38392
 C    -1.37589    -1.18951    -3.74466
 H    -2.48636    -1.14453    -3.91230
 H    -0.91019    -0.44391    -4.44941
 H    -1.02406    -2.20492    -4.07697
Be     5.55400     3.49144     6.08705
Br     3.55806     2.82644     6.29204
Br     5.99124     5.57816     5.83695
 N     6.23806     2.84679     4.74132
 C     6.37121     2.65938     3.60165
 C     6.56478     2.39175     2.20798
 H     7.59515     2.66793     1.85277
 H     5.84181     2.97529     1.56926
 H     6.40852     1.30588     1.96654
 N     6.38286     3.20615     7.47154
 C     6.64352     3.25351     8.60218
 C     7.00557     3.32408     9.98622
 H     8.11109     3.45147    10.14044
 H     6.50668     4.19956    10.48977
 H     6.69747     2.40585    10.55492
Be     0.79996     2.11174     6.51639
Br    -1.29790     2.37558     6.62731
Br     1.61830     0.11520     6.66907
 N     1.54460     2.81434     7.79843
 C     1.81031     3.03164     8.90857
 C     2.18849     3.30738    10.26242
 H     1.75206     2.55478    10.97868
 H     1.83105     4.31650    10.60656
 H     3.30421     3.27668    10.39943
 N     1.41197     2.55053     5.05647
 C     1.55192     2.52387     3.90264
 C     1.78024     2.49136     2.48828
 H     1.32095     1.57563     2.02087
 H     1.32917     3.37533     1.95869
 H     2.87572     2.47203     2.23856
Be     4.93332    -0.55256    -0.26225
Br     6.93520     0.09339    -0.43105
Br     4.48772    -2.65906    -0.07544
 N     4.09107    -0.25013    -1.63576
 C     3.82779    -0.32303    -2.76547
 C     3.46122    -0.42975    -4.14591
 H     3.89589    -1.35854    -4.61061
 H     3.82908     0.43791    -4.75835
 H     2.34865    -0.48649    -4.28950
 N     4.24119     0.00136     1.11705
 C     4.10069     0.15569     2.26017
 C     3.87210     0.31877     3.66521
 H     4.36192    -0.50970     4.25044
 H     4.28767     1.28257     4.06579
 H     2.77988     0.29863     3.92792
Be     0.39091    -4.71987     0.42743
Br     2.48655    -4.97872     0.30131
Br    -0.44145    -2.73998     0.28289
 N    -0.16672    -5.20292     1.89138
 C    -0.29950    -5.21668     3.04546
 C    -0.49903    -5.26146     4.46347
 H    -1.58510    -5.19124     4.74487
 H     0.02043    -4.40972     4.98917
 H    -0.09918    -6.21104     4.91205
 N    -0.32542    -5.45622    -0.84990
 C    -0.55551    -5.68571    -1.96536
 C    -0.86851    -5.99544    -3.32935
 H    -1.95790    -5.85090    -3.56809
 H    -0.29565    -5.33698    -4.04245
 H    -0.60689    -7.05796    -3.58496
Be     5.98175    -1.24793     6.50482
Br     3.96988    -1.89756     6.70281
Br     6.41611     0.83686     6.26364
 N     6.64800    -1.90450     5.15592
 C     6.79494    -2.09563     4.01871
 C     7.00359    -2.35719     2.62612
 H     6.30393    -1.75378     1.98009
 H     6.82903    -3.43722     2.36923
 H     8.04499    -2.09697     2.29296
 N     6.81960    -1.56686     7.87739
 C     7.09216    -1.53093     9.00594
 C     7.48698    -1.48664    10.38230
 H     8.59097    -1.31460    10.50275
 H     6.96742    -0.65062    10.93249
 H     7.23204    -2.43609    10.92580
Be     1.23005    -2.64146     6.93440
Br    -0.86585    -2.38997     7.04880
Br     2.06406    -4.62709     7.05570
 N     1.95125    -1.90218     8.20915
 C     2.19127    -1.68756     9.32575
 C     2.51707    -1.40335    10.69109
 H     3.62017    -1.47698    10.89726
 H     2.01158    -2.12629    11.39184
 H     2.18865    -0.37270    10.99510
 N     1.82083    -2.18845     5.47257
 C     1.93914    -2.19144     4.31652
 C     2.11774    -2.18051     2.89518
 H     3.19091    -2.31338     2.58886
 H     1.53908    -3.01222     2.40409
 H     1.75709    -1.22026     2.43648
Be     5.32265    -5.31199     0.16098
Br     7.34951    -4.71037    -0.00204
Br     4.85361    -7.40446     0.36531
 N     4.49115    -4.95973    -1.21038
 C     4.22374    -5.00477    -2.34081
 C     3.85203    -5.04578    -3.72395
 H     2.76217    -5.27942    -3.86835
 H     4.42363    -5.83866    -4.28502
 H     4.06044    -4.07161    -4.24230
 N     4.63810    -4.72336     1.52994
 C     4.49109    -4.54525     2.66868
 C     4.25241    -4.32618     4.06460
 H     3.17367    -4.48270     4.33898
 H     4.85421    -5.03492     4.70141
 H     4.53507    -3.28810     4.38721
