  316
 
Mg     0.00000     0.00000     0.00000
 P    -0.55827    -3.99715     1.18888
 P     1.38775     1.30729     0.08977
 C     1.51171    -1.55562    -0.22248
 C     1.36436    -2.87709    -0.60614
 C     2.50141    -3.58926    -1.02914
 C     3.76815    -3.01996    -0.95834
 C     3.92767    -1.74649    -0.41328
 C     2.79442    -1.02348    -0.05152
 C     0.06030    -3.63251    -0.59649
 C     2.95473     0.35696     0.54559
 C     0.90335    -4.82744     2.02835
 C    -1.82425    -5.39639     0.94962
 C     1.29784     2.79539     1.17851
 C     1.81602     2.04596    -1.57862
 H     2.38716    -4.59291    -1.42718
 H     4.63795    -3.55754    -1.32291
 H     4.92025    -1.33109    -0.28550
 H     0.16223    -4.58579    -1.18082
 H    -0.74033    -3.06264    -1.13251
 H     3.87796     0.87590     0.18712
 H     3.06706     0.26549     1.65937
 H     1.21231    -5.79538     1.56687
 H     1.78965    -4.14334     1.99716
 H     0.68584    -5.04123     3.10132
 H    -2.66249    -5.07198     0.29583
 H    -1.38853    -6.32768     0.53300
 H    -2.27770    -5.66492     1.93681
 H     1.22770     2.53407     2.26310
 H     2.16992     3.48028     1.06308
 H     0.37852     3.39970     0.94798
 H     1.94252     1.23631    -2.33598
 H     0.99883     2.71434    -1.94196
 H     2.75320     2.64202    -1.55584
 P     1.19970    -1.24297     3.82820
 P    -1.50442    -0.17460    -1.16745
 C    -1.34517    -0.04104     1.71629
 C     0.27131     0.42993     3.64282
 C     0.04576    -2.31777     4.85086
 C     2.61344    -0.79780     5.01606
 C    -2.89880    -0.85320    -0.08891
 C    -1.45784    -1.18017    -2.71184
 C    -2.17860     1.47171    -1.75166
 C    -1.09988     0.27403     3.04074
 C    -2.65159    -0.33051     1.30795
 H     0.20159     0.94850     4.63643
 H     0.90311     1.11222     3.01851
 H    -0.15454    -1.93485     5.88007
 H    -0.94354    -2.41224     4.33611
 H     0.45529    -3.34853     4.97238
 H     3.29548    -0.04837     4.55860
 H     2.26782    -0.41089     5.99520
 H     3.23392    -1.70856     5.22032
 H    -3.90765    -0.57550    -0.48135
 H    -2.87401    -1.97722    -0.06276
 H    -1.17036    -2.24558    -2.52471
 H    -2.42905    -1.20024    -3.25808
 H    -0.69213    -0.77919    -3.43022
 H    -2.30686     2.16473    -0.88615
 H    -1.47580     1.96251    -2.46689
 H    -3.16233     1.37425    -2.25931
 C    -2.18995     0.47827     3.90623
 C    -3.73159    -0.15893     2.16907
 C    -3.49537     0.29328     3.46681
 H    -2.00942     0.79895     4.92785
 H    -4.74390    -0.36400     1.84285
 H    -4.33474     0.49584     4.12384
Mg    -3.25421     8.41581     0.23929
 P    -3.78959     4.38734     1.41739
 P    -1.86727     9.72853     0.30439
 C    -1.73605     6.86054     0.00734
 C    -1.87466     5.53578    -0.36864
 C    -0.73525     4.82492    -0.78654
 C     0.52735     5.40541    -0.73587
 C     0.68070     6.68619    -0.20718
 C    -0.45492     7.40064     0.16509
 C    -3.17568     4.77606    -0.36283
 C    -0.29890     8.78210     0.76188
 C    -2.32730     3.55632     2.25300
 C    -5.03594     2.97587     1.15517
 C    -1.96025    11.22388     1.38145
 C    -1.44537    10.44139    -1.37548
 H    -0.84500     3.81358    -1.16603
 H     1.39709     4.87097    -1.10423
 H     1.67073     7.11389    -0.10159
 H    -3.07489     3.82981    -0.95951
 H    -3.97748     5.35354    -0.88996
 H     0.62394     9.30196     0.40489
 H    -0.19138     8.68755     1.87620
 H    -2.02002     2.58907     1.78785
 H    -1.43994     4.23800     2.22457
 H    -2.54462     3.34046     3.32567
 H    -5.86145     3.29070     0.48174
 H    -4.57873     2.04961     0.74850
 H    -5.50637     2.70263     2.13229
 H    -2.05453    10.96818     2.46570
 H    -1.07949    11.89924     1.28130
 H    -2.86821    11.83796     1.13307
 H    -1.35127     9.61936    -2.12529
 H    -2.24890    11.12690    -1.73635
 H    -0.49155    11.01033    -1.37290
 P    -2.07963     7.17008     4.08844
 P    -4.77623     8.24225    -0.91012
 C    -4.58427     8.42135     1.97045
 C    -2.94808     8.87605     3.88585
 C    -3.31759     6.11717     5.02942
 C    -0.71315     7.54786     5.35191
 C    -6.16107     7.58852     0.19572
 C    -4.74717     7.22756    -2.44934
 C    -5.45422     9.88608    -1.49974
 C    -4.32422     8.76436     3.28526
 C    -5.89866     8.14982     1.57593
 H    -3.00132     9.40539     4.87514
 H    -2.28991     9.52554     3.25456
 H    -3.55514     6.48848     6.05480
 H    -4.28171     6.06928     4.46230
 H    -2.94944     5.07052     5.14799
 H     0.00194     8.29990     4.95323
 H    -1.09391     7.90414     6.33030
 H    -0.11790     6.61909     5.55109
 H    -7.17421     7.85366    -0.19480
 H    -6.13312     6.46574     0.25290
 H    -4.49768     6.15370    -2.25674
 H    -5.71162     7.23902    -3.00761
 H    -3.95819     7.59938    -3.15904
 H    -5.56014    10.59000    -0.64041
 H    -4.76871    10.36582    -2.23828
 H    -6.45096     9.78643    -1.98119
 C    -5.40491     9.03510     4.14393
 C    -6.97011     8.37428     2.43611
 C    -6.71647     8.86982     3.71445
 H    -5.21332     9.39094     5.15185
 H    -7.98839     8.18147     2.12212
 H    -7.54625     9.12278     4.36633
Mg    -9.62599    -0.10366    -1.11165
 P    -9.02450     3.85530    -2.23125
 P   -11.01089    -1.42070    -1.20114
 C   -11.16826     1.43429    -0.90884
 C   -11.04127     2.75634    -0.52002
 C   -12.19349     3.46083    -0.12608
 C   -13.45406     2.88123    -0.22277
 C   -13.59090     1.60426    -0.76509
 C   -12.44359     0.89191    -1.10280
 C    -9.74059     3.51634    -0.47895
 C   -12.57898    -0.49299    -1.69345
 C   -10.39883     4.76294    -3.13489
 C    -7.70978     5.19611    -1.91897
 C   -10.90627    -2.92119    -2.26934
 C   -11.45794    -2.13023     0.47422
 H   -12.09429     4.46548     0.27400
 H   -14.33587     3.41188     0.12229
 H   -14.57667     1.17814    -0.90785
 H    -9.87239     4.48016     0.08234
 H    -8.97338     2.95589     0.11572
 H   -13.50360    -1.01862    -1.34925
 H   -12.67215    -0.41170    -2.80955
 H   -10.69162     5.73742    -2.67543
 H   -11.31540     4.12113    -3.16571
 H   -10.11230     4.98259    -4.19036
 H    -6.92927     4.83522    -1.21538
 H    -8.12776     6.14614    -1.52772
 H    -7.18789     5.44051    -2.87807
 H   -10.83427    -2.66968    -3.35636
 H   -11.77483    -3.60985    -2.15213
 H    -9.98569    -3.51897    -2.03001
 H   -11.55860    -1.30852     1.22323
 H   -10.66152    -2.81950     0.84393
 H   -12.41494    -2.69446     0.45717
 P   -10.80982     1.10393    -4.93109
 P    -8.11447     0.07441     0.05725
 C    -8.26480    -0.08034    -2.82154
 C    -9.87171    -0.56698    -4.75522
 C    -9.65089     2.19480    -5.92909
 C   -12.20997     0.66826    -6.14045
 C    -6.71495     0.74451    -1.01762
 C    -8.14622     1.07873     1.60294
 C    -7.44396    -1.57594     0.63797
 C    -8.50413    -0.41385    -4.14273
 C    -6.95914     0.21087    -2.41075
 H    -9.79179    -1.07327    -5.75491
 H   -10.50337    -1.26003    -4.14302
 H    -9.42714     1.81685    -6.95542
 H    -8.67307     2.29766    -5.39411
 H   -10.07215     3.22048    -6.05497
 H   -12.90083    -0.08195    -5.69855
 H   -11.85323     0.28841    -7.11839
 H   -12.82574     1.58198    -6.34772
 H    -5.70816     0.46722    -0.61834
 H    -6.73249     1.86794    -1.04954
 H    -8.39162     2.15472     1.41446
 H    -7.18143     1.06414     2.16102
 H    -8.93414     0.70467     2.31144
 H    -7.31550    -2.26620    -0.22992
 H    -8.14617    -2.06891     1.35165
 H    -6.45981    -1.47911     1.14553
 C    -7.40921    -0.64255    -4.99638
 C    -5.87510     0.02748    -3.26450
 C    -6.10537    -0.44898    -4.55437
 H    -7.58514    -0.98944    -6.01042
 H    -4.86501     0.23893    -2.93628
 H    -5.26320    -0.66513    -5.20352
Mg   -11.88292    -0.72392     7.62553
 P   -11.30849     3.23705     6.52368
 P   -13.27350    -2.03833     7.53556
 C   -13.42147     0.81736     7.86310
 C   -13.29112     2.13599     8.26322
 C   -14.43880     2.83677     8.67623
 C   -15.70032     2.25824     8.58680
 C   -15.84256     0.98617     8.03476
 C   -14.69892     0.27732     7.67683
 C   -11.99229     2.90056     8.28938
 C   -14.84142    -1.09904     7.06605
 C   -12.71854     4.10340     5.63644
 C   -10.01645     4.60684     6.79217
 C   -13.16765    -3.52549     6.44845
 C   -13.71927    -2.77026     9.20220
 H   -14.33623     3.83881     9.08209
 H   -16.57809     2.78839     8.94317
 H   -16.82974     0.56084     7.89962
 H   -12.12049     3.86490     8.85092
 H   -11.21554     2.34185     8.87270
 H   -15.76554    -1.62807     7.40651
 H   -14.93865    -0.99834     5.95176
 H   -13.02541     5.07391     6.09440
 H   -13.61934     3.43874     5.62752
 H   -12.45586     4.31971     4.57425
 H    -9.21051     4.26863     7.47795
 H   -10.44357     5.55260     7.18380
 H    -9.52296     4.85253     5.81800
 H   -13.11954    -3.26380     5.36242
 H   -14.02274    -4.22912     6.57360
 H   -12.23209    -4.10937     6.66518
 H   -13.82105    -1.96019     9.96291
 H   -12.92547    -3.46607     9.56421
 H   -14.67680    -3.33379     9.17766
 P   -13.06127     0.49950     3.78972
 P   -10.36536    -0.56365     8.79110
 C   -10.52254    -0.70717     5.90778
 C   -12.13031    -1.17369     3.96849
 C   -11.89939     1.59143     2.79656
 C   -14.45367     0.06478     2.57230
 C    -8.96218     0.09456     7.71424
 C   -10.39165     0.43388    10.34037
 C    -9.70434    -2.21982     9.36418
 C   -10.76292    -1.02972     4.58364
 C    -9.21353    -0.43279     6.31943
 H   -12.05202    -1.68149     2.96921
 H   -12.76654    -1.86320     4.58083
 H   -11.69346     1.22963     1.76064
 H   -10.91324     1.67123     3.31953
 H   -12.30757     2.62514     2.69541
 H   -15.12874    -0.70868     2.99725
 H   -14.08904    -0.28662     1.58626
 H   -15.08690     0.97077     2.38551
 H    -7.95733    -0.19485     8.10984
 H    -8.96896     1.21825     7.68453
 H   -10.61288     1.51579    10.15593
 H    -9.43317     0.39774    10.90766
 H   -11.19424     0.07148    11.03877
 H    -9.60511    -2.91500     8.49628
 H   -10.39481    -2.70083    10.09686
 H    -8.70651    -2.13502     9.84635
 C    -9.67065    -1.26043     3.72735
 C    -8.13060    -0.62484     5.46546
 C    -8.36477    -1.08731     4.17125
 H    -9.85021    -1.59285     2.70910
 H    -7.11786    -0.43136     5.79651
 H    -7.52534    -1.30887     3.52047
 C     0.65312     4.47462     4.06615
 C     0.99374     5.39139     3.07300
 C     1.33781     4.47645     5.28000
 H    -0.15919     3.76902     3.90428
 H     0.44972     5.41373     2.12498
 H     1.07640     3.76388     6.05819
 C     2.01688     6.31118     3.29560
 C     2.36086     5.39608     5.50248
 C     2.70137     6.31367     4.50988
 H     2.27863     7.02309     2.51720
 H     2.90510     5.37284     6.45082
 H     3.51174     7.02118     4.67412
 C     2.95866     5.14701    -4.68944
 C     3.29578     6.05438    -5.69196
 C     3.65345     5.15570    -3.48122
 H     2.14142     4.44501    -4.84064
 H     2.74765     6.06644    -6.63766
 H     3.39845     4.44826    -2.69627
 C     4.32004     6.97626    -5.48214
 C     4.68009     6.07523    -3.27303
 C     5.01370     6.98675    -4.27362
 H     4.57478     7.68483    -6.26612
 H     5.23180     6.05581    -2.32879
 H     5.82453     7.69603    -4.11922
 C    -6.34067     4.03664     4.33998
 C    -6.97157     5.01758     3.57707
 C    -7.02189     2.86668     4.67302
 H    -5.31485     4.18007     4.67376
 H    -6.43940     5.93282     3.30432
 H    -6.53219     2.09870     5.26541
 C    -8.28544     4.83076     3.15272
 C    -8.33404     2.67699     4.24283
 C    -8.96636     3.66068     3.48392
 H    -8.77930     5.60043     2.56540
 H    -8.86179     1.75703     4.51007
 H    -9.99347     3.52002     3.15302
 C    -4.02742     4.66689    -4.37687
 C    -4.65054     5.64285    -5.15296
 C    -4.71027     3.49658    -4.05016
 H    -3.00651     4.81531    -4.03030
 H    -4.11642     6.55898    -5.42024
 H    -4.22596     2.73142    -3.44947
 C    -5.95679     5.44981    -5.59791
 C    -6.01621     3.30276    -4.49663
 C    -6.64073     4.28047    -5.26887
 H    -6.44091     6.21406    -6.20002
 H    -6.54628     2.38313    -4.23269
 H    -7.66341     4.13536    -5.61180
