  104
 
 C     0.00000     0.00000     0.00000
 C     1.36840     0.08160     0.26362
 C     2.12879     1.34324     0.19105
 C     3.59649     1.34176     0.41713
 C     4.37963     2.48689     0.34126
Ni     0.50617     1.28232     1.61915
Ni     2.87462     2.60722     1.80363
 C     1.24175     2.57209     3.21984
 C    -0.22336     2.57608     2.97610
 C    -1.01198     1.43603     3.06274
 C     3.37402     3.91050     3.40517
 C     2.00630     3.83009     3.13742
 C     7.63911    -4.52955    -4.52566
 C     6.62577    -3.75517    -3.97090
 C     6.48605    -3.52306    -2.51583
 C     5.35805    -2.70921    -2.00261
 C     5.14866    -2.47157    -0.64955
Ni     8.35547    -2.89019    -3.41642
Ni     7.01645    -1.78654    -1.33337
 C     8.87418    -1.13894    -2.24770
 C    10.00650    -1.96036    -2.73867
 C    10.23164    -2.21351    -4.08681
 C     7.70043    -0.10590    -0.26329
 C     8.72709    -0.87664    -0.79812
 H    -0.55466    -0.92909     0.15317
 H    -0.59922     0.80811    -0.45333
 H     1.92731    -0.82592     0.57906
 H     1.68899     2.20097    -0.39819
 H     4.05620     0.36761     0.68693
 H     5.44942     2.45901     0.56567
 H     4.04032     3.45343    -0.07831
 H     1.67311     1.71980     3.82341
 H    -0.67424     3.54656     2.67997
 H    -0.68069     0.47477     3.50063
 H    -2.07865     1.46253     2.82352
 H     3.93284     4.83550     3.24148
 H     3.96977     3.10481     3.86820
 H     1.45251     4.73532     2.80568
 H     8.31253    -5.19176    -3.95046
 H     7.74573    -4.62915    -5.60940
 H     5.88925    -3.24635    -4.63007
 H     6.97374    -4.25864    -1.81142
 H     4.68798    -2.25101    -2.76170
 H     5.66078    -3.00706     0.17197
 H     4.33531    -1.82756    -0.30558
 H     8.38437    -0.42070    -2.96877
 H    10.66636    -2.41267    -1.96762
 H    11.04489    -2.86536    -4.41462
 H     9.73214    -1.68530    -4.92039
 H     7.59168     0.01697     0.81794
 H     7.01575     0.53012    -0.85547
 H     9.46988    -1.35901    -0.12676
 C    -2.09454     4.57283    -3.58301
 C    -0.72420     4.70309    -3.35417
 C    -0.01136     5.99107    -3.44455
 C     1.46078     6.04078    -3.25075
 C     2.20033     7.21181    -3.35448
Ni    -1.59744     5.87159    -1.97540
Ni     0.72277     7.29484    -1.86176
 C    -0.84948     7.16364    -0.38577
 C    -2.32199     7.12202    -0.57389
 C    -3.07035     5.95557    -0.47882
 C     1.23789     8.57831    -0.24760
 C    -0.13447     8.45217    -0.46602
 C     5.17199    -0.81847    -8.60500
 C     4.16536     0.02033    -8.13799
 C     3.98667     0.34669    -6.70483
 C     2.87229     1.22583    -6.27472
 C     2.62964     1.54842    -4.94404
Ni     5.90059     0.87183    -7.58418
Ni     4.53776     2.13317    -5.61308
 C     6.46692     2.64015    -6.46249
 C     7.57348     1.76289    -6.91741
 C     7.80571     1.46503    -8.25498
 C     5.29631     3.76462    -4.52635
 C     6.28937     2.92460    -5.02088
 H    -2.61120     3.62389    -3.41946
 H    -2.73574     5.36006    -4.01485
 H    -0.12541     3.81535    -3.05550
 H    -0.49337     6.83064    -4.02699
 H     1.95845     5.08580    -2.97980
 H     3.27471     7.22791    -3.15237
 H     1.81724     8.16173    -3.77398
 H    -0.36565     6.31706     0.18518
 H    -2.81483     8.08238    -0.83400
 H    -2.69396     4.99759    -0.07148
 H    -4.14513     5.95212    -0.67775
 H     1.75318     9.52983    -0.40243
 H     1.88236     7.78573     0.16966
 H    -0.73404     9.34302    -0.75294
 H     5.80430    -1.46148    -7.96366
 H     5.31096    -0.99297    -9.67552
 H     3.46571     0.50583    -8.85232
 H     4.42537    -0.36186    -5.94270
 H     2.24391     1.66354    -7.07945
 H     3.09149     1.03755    -4.07850
 H     1.83231     2.24314    -4.66645
 H     6.03571     3.37274    -7.20581
 H     8.20288     1.30468    -6.12464
 H     8.59783     0.77171    -8.55185
 H     7.33492     1.99027    -9.10738
 H     5.15179     3.89676    -3.45015
 H     4.68145     4.44462    -5.14502
 H     6.97167     2.39587    -4.31992
