  180
 
Cu     0.00000     0.00000     0.00000
 N     1.96447    -0.01354     0.10568
 N    -0.11458     1.95596    -0.02213
 C     2.74628     1.05376     0.05493
 C     2.25209     2.36387    -0.09480
 C     0.91048     2.78869    -0.11097
 C     4.24067     0.92005     0.16522
 C     0.68387     4.27378    -0.23452
 C     2.57016    -1.33132     0.26036
 C    -1.46244     2.50877     0.04706
 N    -0.52420    -1.33952    -1.34456
 N    -1.33558    -0.60560     1.29920
 C    -1.40630    -2.31045    -1.16616
 C    -2.11502    -2.49378     0.03668
 C    -2.09722    -1.68068     1.18625
 C    -1.71251    -3.28863    -2.26900
 C    -3.01459    -2.09548     2.30735
 C     0.15310    -1.22319    -2.63062
 C    -1.44543     0.21034     2.50204
Cu     0.16318    -7.74829     3.07078
 N    -1.00197    -8.35065     4.54576
 N    -0.29945    -9.27887     1.93192
 C    -1.79501    -9.41091     4.52761
 C    -1.91578   -10.26224     3.41329
 C    -1.20233   -10.20793     2.20039
 C    -2.62691    -9.77707     5.72748
 C    -1.52270   -11.28560     1.19808
 C    -0.93878    -7.53681     5.75440
 C     0.43567    -9.36164     0.67542
 N    -0.14030    -5.81060     2.83705
 N     2.11209    -7.57509     2.96764
 C     0.80248    -4.88644     2.73334
 C     2.17759    -5.17941     2.79306
 C     2.79189    -6.44244     2.88610
 C     0.44837    -3.43674     2.53422
 C     4.29869    -6.44730     2.88069
 C    -1.53920    -5.40155     2.77641
 C     2.85292    -8.83107     2.99463
Cu     0.23884     0.13060     5.85358
 N    -1.73180     0.11694     5.75904
 N     0.37660    -1.82111     5.89751
 C    -2.49787    -0.96395     5.78161
 C    -1.98490    -2.26688     5.92781
 C    -0.63647    -2.66880     5.97705
 C    -3.99324    -0.85526     5.64827
 C    -0.39064    -4.14898     6.12143
 C    -2.36528     1.42541     5.63515
 C     1.73367    -2.35397     5.86719
 N     0.75708     1.46830     7.20062
 N     1.57665     0.74880     4.55788
 C     1.64560     2.43523     7.03344
 C     2.35129     2.63166     5.83145
 C     2.33169     1.82929     4.67438
 C     1.95838     3.39537     8.14963
 C     3.23745     2.26187     3.55004
 C     0.07015     1.34487     8.48078
 C     1.70103    -0.06542     3.35515
Cu    -7.54637    -1.14251     3.45982
 N    -6.36684    -0.52796     1.99489
 N    -7.09293     0.37799     4.61338
 C    -5.59257     0.54625     2.02164
 C    -5.48164     1.38697     3.14428
 C    -6.19196     1.31225     4.35803
 C    -4.76882     0.93713     0.82324
 C    -5.87233     2.37375     5.37866
 C    -6.40567    -1.33858     0.78294
 C    -7.83035     0.44260     5.86940
 N    -7.24615    -3.07838     3.69698
 N    -9.49620    -1.31457     3.55412
 C    -8.18937    -3.99963     3.82921
 C    -9.56362    -3.70696     3.76826
 C   -10.17756    -2.44524     3.64546
 C    -7.83342    -5.44450     4.05822
 C   -11.68445    -2.43833     3.62937
 C    -5.84736    -3.48860     3.75663
 C   -10.23463    -0.05785     3.51178
 H     2.99897     3.14359    -0.18838
 H     4.75995     1.88448     0.11860
 H     4.65381     0.28909    -0.63879
 H     4.52600     0.44492     1.12073
 H     1.61617     4.83398    -0.37550
 H     0.02715     4.51416    -1.08706
 H     0.19200     4.67699     0.66580
 H     3.24185    -1.40369     1.13546
 H     3.15972    -1.62382    -0.62734
 H     1.76273    -2.07547     0.39447
 H    -1.60567     3.17326     0.91780
 H    -2.18691     1.67800     0.14217
 H    -1.72671     3.09326    -0.85337
 H    -2.77366    -3.35314     0.07329
 H    -0.80891    -3.82302    -2.60242
 H    -2.44447    -4.04920    -1.97189
 H    -2.11812    -2.77017    -3.15450
 H    -2.47053    -2.20530     3.26095
 H    -3.51644    -3.04968     2.11148
 H    -3.79938    -1.33852     2.47520
 H     0.75260    -0.29400    -2.62984
 H     0.83734    -2.06987    -2.81704
 H    -0.54424    -1.17081    -3.48757
 H    -0.73601     1.05664     2.43036
 H    -1.20725    -0.35807     3.41996
 H    -2.45716     0.63354     2.63501
 H    -2.63254   -11.06936     3.50793
 H    -1.98806   -10.00157     6.59959
 H    -3.25770   -10.65779     5.55540
 H    -3.29718    -8.95526     6.02659
 H    -0.64981   -11.93502     1.02214
 H    -2.34864   -11.93044     1.51878
 H    -1.80251   -10.86119     0.21860
 H    -0.18521    -6.74274     5.60438
 H    -0.64453    -8.11549     6.64890
 H    -1.90274    -7.04767     5.98257
 H     1.15458    -8.52236     0.62416
 H     1.01233   -10.29935     0.58295
 H    -0.22757    -9.30057    -0.20744
 H     2.84642    -4.32832     2.74264
 H     1.33102    -2.78781     2.47551
 H    -0.12419    -3.29034     1.60143
 H    -0.17968    -3.05395     3.35376
 H     4.68694    -6.93584     1.97109
 H     4.70937    -7.00488     3.73901
 H     4.72615    -5.43847     2.91582
 H    -1.78235    -4.81186     1.87437
 H    -2.17099    -6.30847     2.76360
 H    -1.83279    -4.79416     3.65220
 H     3.51629    -8.90990     3.87654
 H     3.48482    -8.97222     2.09881
 H     2.13364    -9.67066     3.02865
 H    -2.71937    -3.06112     5.99594
 H    -4.27364    -0.34220     4.70995
 H    -4.49318    -1.83066     5.63946
 H    -4.43393    -0.27001     6.47078
 H     0.26969    -4.37059     6.97677
 H     0.10592    -4.55770     5.22564
 H    -1.31487    -4.71859     6.27123
 H    -1.57285     2.19087     5.54910
 H    -3.01908     1.51386     4.74929
 H    -2.98204     1.67366     6.51837
 H     2.44691    -1.51237     5.78625
 H     1.98364    -2.92876     6.77821
 H     1.90894    -3.02211     5.00495
 H     3.00877     3.49200     5.80175
 H     2.69976     4.15195     7.86778
 H     2.35676     2.86114     9.02987
 H     1.05855     3.93449     8.48873
 H     4.04524     1.52826     3.39052
 H     2.69247     2.34544     2.59385
 H     3.70903     3.23328     3.73531
 H     0.76127     1.25791     9.33906
 H    -0.55490     0.43287     8.45705
 H    -0.59468     2.20465     8.68219
 H     2.72006    -0.46980     3.21880
 H     1.00884    -0.92522     3.43154
 H     1.44995     0.49744     2.43719
 H    -4.77543     2.20470     3.05728
 H    -4.06962     0.13727     0.53026
 H    -5.41068     1.13378    -0.05332
 H    -4.17060     1.84006     0.99339
 H    -5.05285     3.03010     5.06306
 H    -5.57988     1.93173     6.34682
 H    -6.74769     3.01407     5.57383
 H    -5.42710    -1.79662     0.55069
 H    -7.13356    -2.15634     0.93039
 H    -6.71823    -0.76568    -0.10892
 H    -7.16885     0.38097     6.75322
 H    -8.53980    -0.40515     5.91118
 H    -8.41751     1.37299     5.96756
 H   -10.23424    -4.55530     3.84139
 H    -7.23156    -5.56639     4.97604
 H    -7.23156    -5.85151     3.22971
 H    -8.71485    -6.08881     4.16300
 H   -12.08101    -1.89477     2.75536
 H   -12.11131    -3.44784     3.60423
 H   -12.08639    -1.93444     4.52389
 H    -5.21333    -2.58889     3.64971
 H    -5.57590    -4.18654     2.94426
 H    -5.58284    -3.98100     4.71005
 H    -9.51412     0.78090     3.48294
 H   -10.88723     0.01625     2.62164
 H   -10.87743     0.08971     4.39883
