  116
 
Hf     0.00000     0.00000     0.00000
 F    -6.63895     1.78869    -3.39862
 F    -5.09068     3.94528    -3.36715
 N    -7.85422     4.84175    -1.09104
 N    -9.13287     3.97041    -3.51424
 O    -6.97606     5.60268    -3.52098
 O    -7.26124     7.71760    -3.04973
 O    -5.71740     3.32054    -1.20408
 O    -5.48955     3.16833     0.98152
 O    -8.13623     2.36227    -1.64523
 O    -9.67271     0.79824    -1.86497
 O    -6.97340     3.52923    -4.99897
 O    -8.00426     3.93369    -6.90995
 C    -9.34851     4.89008    -1.20105
 C    -9.78629     5.01978    -2.66244
 C    -7.24894     6.20292    -1.19237
 C    -7.15468     6.55076    -2.67378
 C    -7.46920     4.22241     0.20678
 C    -6.13522     3.51852     0.00486
 C    -9.81023     2.64670    -3.36131
 C    -9.16021     1.85736    -2.23093
 C    -9.21741     4.41622    -4.93504
 C    -7.98166     3.92193    -5.67742
 H    -9.78591     3.96051    -0.76595
 H    -9.77808     5.72591    -0.59624
 H    -9.53288     6.03083    -3.06050
 H   -10.90082     4.95523    -2.73187
 H    -7.82115     6.96639    -0.62354
 H    -6.20979     6.20402    -0.76909
 H    -7.42122     4.96171     1.04403
 H    -8.21280     3.44904     0.52310
 H    -9.72014     2.04038    -4.30207
 H   -10.90436     2.75390    -3.17922
 H    -9.21923     5.53387    -5.00510
 H   -10.15887     4.08640    -5.42732
Hf    -6.89681     3.59763    -2.88393
 F    -0.25633     1.80630     0.52441
 F    -1.80802    -0.34199     0.48025
 N     0.95814    -1.24487    -1.79353
 N     2.23667    -0.37502     0.63114
 O     0.07546    -2.00499     0.63566
 O     0.35332    -4.12064     0.16305
 O    -1.17379     0.28557    -1.68360
 O    -1.38511     0.45720    -3.86913
 O     1.23950     1.23447    -1.23561
 O     2.78574     2.78985    -1.02357
 O     0.07547     0.06285     2.11706
 O     1.10546    -0.34533     4.02723
 C     2.45166    -1.29778    -1.68073
 C     2.88705    -1.42863    -0.21869
 C     0.34567    -2.60282    -1.69284
 C     0.25107    -2.95335    -0.21181
 C     0.57822    -0.62444    -3.09236
 C    -0.74872     0.09341    -2.89112
 C     2.91532     0.94659     0.47893
 C     2.26797     1.73525    -0.65357
 C     2.32209    -0.82208     2.05285
 C     1.08360    -0.33192     2.79454
 H     2.89100    -0.36899    -2.11569
 H     2.87918    -2.13479    -2.28484
 H     2.62656    -2.43843     0.17989
 H     4.00168    -1.36752    -0.14794
 H     0.91095    -3.37012    -2.26342
 H    -0.69504    -2.59660    -2.11328
 H     0.52235    -1.36368    -3.92846
 H     1.32817     0.14121    -3.41086
 H     2.82493     1.55398     1.41888
 H     4.00927     0.83959     0.29953
 H     2.32846    -1.94016     2.12216
 H     3.26259    -0.48692     2.54488
 N    -2.16744     2.77340    -6.27608
 N    -4.48459     3.27536    -6.40937
 N    -3.69873     1.69311    -4.83582
 C    -3.46372     2.55342    -5.85201
 H    -2.03961     3.42694    -7.04190
 H    -1.51098     2.00407    -6.24605
 H    -5.38261     3.33079    -5.92280
 H    -4.25801     4.05183    -7.02621
 H    -2.96589     1.09865    -4.46513
 H    -4.64022     1.46533    -4.56479
 N    -4.72398     0.84475     3.42410
 N    -2.40810     0.32566     3.54129
 N    -3.19142     1.91295     1.97258
 C    -3.42745     1.05573     2.99082
 H    -4.84935     0.17929     4.17742
 H    -5.36434     1.63097     3.42916
 H    -1.51290     0.26549     3.04964
 H    -2.63626    -0.45326     4.15732
 H    -3.92058     2.51238     1.60493
 H    -2.24987     2.13311     1.69522
 N    -0.50563     3.37308    -2.38338
 N    -2.63270     3.26184    -1.33114
 N    -2.18500     4.88441    -3.00541
 C    -1.79021     3.81604    -2.24577
 H     0.02866     3.66678    -3.19677
 H    -0.19490     2.51031    -1.95458
 H    -2.40717     2.36070    -0.93565
 H    -3.60419     3.55845    -1.26757
 H    -1.48044     5.37986    -3.53976
 H    -3.01498     5.40263    -2.77025
 N    -6.39756     0.24858    -0.48318
 N    -4.26714     0.35618    -1.52777
 N    -4.72719    -1.26945     0.14819
 C    -5.11344    -0.19887    -0.61582
 H    -6.93737    -0.04410     0.32708
 H    -6.70535     1.11049    -0.91453
 H    -4.49224     1.25620    -1.92332
 H    -3.29763     0.05345    -1.59215
 H    -5.43829    -1.75868     0.67803
 H    -3.90347    -1.79571    -0.08752
 O     2.91377     3.06117    -3.68965
 H     2.06613     3.23900    -4.10156
 H     2.73222     3.00340    -2.73740
 O    -9.82180     0.52382     0.79929
 H    -8.97603     0.35296     1.21840
 H    -9.63347     0.57678    -0.15281
