  240
 
 V     0.00000     0.00000     0.00000
Cl     4.59265     0.00000     0.00000
Cl     2.30077     3.94903     0.00000
Cl    -1.25913    -0.66245    -1.75357
Cl    -1.30486    -0.74182     1.75419
Cl     1.61000     0.91550     1.60749
Cl     1.64297     0.92506    -1.58648
 P     2.35759    -8.58726     1.92794
 P     2.38933    -8.60389    -1.94111
 P    -1.33312     2.13081     0.02789
 P     1.17992    -2.24029     0.03271
 C     3.52527    -9.82540     2.73170
 C     3.38068    -7.13909     1.78179
 C     1.32751    -8.21004     3.32365
 C     4.15484    -8.91872    -1.76530
 C     1.93124    -9.13925    -3.50394
 C     2.69869    -6.68836    -1.97816
 C    -0.96495     3.19233    -1.55273
 C    -3.14661     1.80754    -0.06688
 C    -1.19929     3.33455     1.40162
 C     2.15229    -2.64106    -1.58309
 C    -0.05631    -3.62173    -0.15103
 C     2.39749    -2.52257     1.38539
 V     3.20553     1.83269     0.00396
 V    -5.99389     2.82033     6.84099
 V   -10.48720    -5.51402     6.81671
Cl    -4.01256     3.98530     6.84739
Cl    -7.63655     1.20902     6.82638
Cl   -11.39731    -4.41064     5.06966
Cl   -11.41251    -4.34111     8.57788
Cl    -7.12082     4.26713     8.45290
Cl    -7.08920     4.26473     5.25889
 P    -5.03547     1.51303     8.79344
 P    -4.99518     1.53956     4.92452
 P   -10.30212     4.27573     6.86853
 P    -8.54294    -3.89326     6.86248
 C    -3.48475     2.20728     9.60323
 C    -4.64101    -0.21518     8.63836
 C    -6.13322     1.54889    10.18808
 C    -3.24230     1.15587     5.10112
 C    -5.21255     2.21857     3.36649
 C    -5.43888    -0.34907     4.87659
 C   -10.36483     3.16355     5.28112
 C   -11.85506     5.26688     6.77787
 C   -10.63922     3.10371     8.23583
 C    -7.48929    -3.88401     5.24796
 C    -9.15852    -2.14363     6.68853
 C    -7.31039    -4.10511     8.21538
 V    -9.62759    -1.47003    -0.01166
 V    -7.36452    -4.38673    -0.01654
Cl   -11.60892    -2.63501    -0.01506
Cl    -7.98492     0.14134    -0.01605
Cl    -6.45288    -5.47948    -1.77047
Cl    -6.44074    -5.57032     1.73728
Cl    -8.50206    -2.92660     1.59141
Cl    -8.53089    -2.90479    -1.60255
 P   -10.58771    -0.17462     1.94787
 P   -10.62463    -0.17764    -1.92118
 P    -5.31938    -2.92558     0.01079
 P    -7.07858     5.24330     0.05185
 C   -12.13913    -0.87377     2.75207
 C   -10.98205     1.55451     1.80195
 C    -9.49117    -0.21896     3.34322
 C   -12.37767     0.20498    -1.74478
 C   -10.40590    -0.84716    -3.48412
 C   -10.18089     1.71125    -1.95824
 C    -5.25529    -1.80378    -1.56978
 C    -3.76636    -3.91617    -0.08454
 C    -4.98347    -1.76189     1.38448
 C    -8.13082     5.24386    -1.56362
 C    -6.46284     3.49476    -0.13220
 C    -8.31231     5.44693     1.40493
 V    -0.74582    -4.06652     6.82235
 V     2.45971    -2.23385     6.83231
Cl    -2.13294    -2.23385     6.82931
Cl     0.15895    -6.18280     6.80731
Cl     3.72036    -1.56077     5.08490
Cl     3.76304    -1.50271     8.59311
Cl     0.84831    -3.15910     8.43381
Cl     0.81812    -3.14926     5.23981
 P    -2.12982    -4.90950     8.77520
 P    -2.15819    -4.86936     4.90629
 P     3.79281    -4.36479     6.84842
 P     1.27976     0.00620     6.87861
 C    -3.29820    -3.67626     9.58544
 C    -3.15278    -6.35675     8.62035
 C    -1.10095    -5.29519    10.16948
 C    -3.92385    -4.55559     5.08347
 C    -1.69874    -4.32452     3.34813
 C    -2.46751    -6.78463     4.85833
 C     3.42602    -5.41669     5.26106
 C     5.60638    -4.04096     6.75719
 C     3.65778    -5.57687     8.21569
 C     0.30879     0.41678     5.26442
 C     2.51614     1.38872     6.70435
 C     0.06100     0.28026     8.23192
 H     4.49039    -9.79567     2.22598
 H     3.10375   -10.82739     2.65147
 H     3.65795    -9.57015     3.78305
 H     3.25384    -6.70308     0.79088
 H     3.09000    -6.41097     2.53905
 H     4.42502    -7.41600     1.92593
 H     0.88786    -7.22111     3.19392
 H     0.53388    -8.95319     3.40094
 H     1.92828    -8.22413     4.23303
 H     4.70269    -8.34200    -2.51052
 H     4.35087    -9.98090    -1.91177
 H     4.47892    -8.62369    -0.76729
 H     2.12413    -8.34919    -4.22969
 H     0.86914    -9.38424    -3.50724
 H     2.50919   -10.02471    -3.76857
 H     2.78426    -6.35402    -3.01208
 H     1.86451    -6.17627    -1.49856
 H     3.62106    -6.45891    -1.44459
 H    -1.44579     4.16583    -1.45683
 H    -1.35368     2.68022    -2.43292
 H     0.11161     3.32752    -1.65690
 H    -3.57316     2.37095    -0.89677
 H    -3.62019     2.11796     0.86450
 H    -3.31814     0.74271    -0.22441
 H    -1.03129     4.33203     0.99551
 H    -2.12256     3.32888     1.98095
 H    -0.36434     3.05922     2.04595
 H     2.13091    -1.77482    -2.24436
 H     1.69007    -3.49183    -2.08374
 H     3.18563    -2.88313    -1.33470
 H    -0.52092    -3.56489    -1.13541
 H    -0.82270    -3.52825     0.61840
 H     0.45133    -4.58031    -0.04365
 H     3.27313    -1.89411     1.22294
 H     1.94183    -2.27036     2.34291
 H     2.69818    -3.57027     1.39084
 H    -3.06325     2.98851     8.97069
 H    -3.73962     2.62609    10.57675
 H    -2.75333     1.40932     9.73120
 H    -4.27103    -0.41451     7.63264
 H    -5.53601    -0.80998     8.82078
 H    -3.87431    -0.47967     9.36660
 H    -6.75145     2.44536    10.14078
 H    -6.77188     0.66577    10.17062
 H    -5.55041     1.55765    11.10914
 H    -2.67193     1.71197     4.35713
 H    -3.08759     0.08709     4.95318
 H    -2.90770     1.43661     6.09979
 H    -4.57975     3.09998     3.26267
 H    -6.25662     2.50356     3.23683
 H    -4.93963     1.48406     2.60878
 H    -5.54528    -0.67103     3.84068
 H    -6.37646    -0.51564     5.40696
 H    -4.64412    -0.92132     5.35512
 H   -10.23440     3.78609     4.39595
 H   -11.32862     2.65698     5.23024
 H    -9.56672     2.42248     5.32493
 H   -11.78256     5.98162     5.95812
 H   -12.70121     4.60158     6.60608
 H   -11.99910     5.80316     7.71583
 H   -11.67697     2.77427     8.18432
 H   -10.46212     3.59867     9.19069
 H    -9.97923     2.24091     8.14590
 H    -7.67617    -2.96204     4.69737
 H    -7.76436    -4.73853     4.62971
 H    -6.43162    -3.94627     5.50401
 H    -8.84255    -1.74127     5.72605
 H   -10.24692    -2.13394     6.74674
 H    -8.74628    -1.53197     7.49104
 H    -6.46027    -3.44617     8.03875
 H    -7.77226    -3.85428     9.17029
 H    -6.96937    -5.14016     8.23747
 H   -13.02010    -0.47810     2.24666
 H   -12.16408    -0.58728     3.80345
 H   -12.13173    -1.96079     2.67177
 H   -10.69864     1.90949     0.81110
 H   -12.05313     1.69631     1.94608
 H   -10.43593     2.11687     2.55931
 H    -8.70758     0.52750     3.21328
 H   -10.05160    -0.00287     4.25279
 H    -9.04101    -1.20866     3.42030
 H   -12.66430     0.94712    -2.48988
 H   -12.96408    -0.70210    -1.89114
 H   -12.56444     0.60128    -0.74670
 H   -10.28306    -0.04322    -4.20986
 H   -11.27800    -1.44519    -3.74851
 H    -9.51756    -1.47878    -3.48775
 H   -10.13252     2.05293    -2.99218
 H   -10.94634     2.27482    -1.42478
 H    -9.21458     1.86693    -1.47855
 H    -4.43943    -1.08732    -1.47409
 H    -6.19891    -1.26815    -1.67361
 H    -5.09158    -2.42540    -2.45006
 H    -3.15741    -3.55802    -0.91460
 H    -4.01405    -4.96590    -0.24206
 H    -3.20988    -3.80993     0.84666
 H    -4.75839    -0.77573     0.97837
 H    -5.86010    -1.69794     2.02910
 H    -4.13199    -2.11936     1.96352
 H    -7.78083     6.03649    -2.22495
 H    -9.17829     5.41426    -1.31488
 H    -8.02825     4.28114    -2.06435
 H    -6.01201     3.37014    -1.11674
 H    -7.29772     2.80231    -0.02460
 H    -5.71850     3.28878     0.63697
 H    -8.88212     6.36179     1.24231
 H    -8.98979     4.59306     1.41049
 H    -7.79495     5.50648     2.36248
 H    -3.39003    -2.79327     8.95298
 H    -4.27867    -4.13488     9.71369
 H    -2.90253    -3.38640    10.55885
 H    -3.57081    -6.40019     7.61464
 H    -3.96239    -6.30908     9.34860
 H    -2.55190    -7.24766     8.80286
 H    -0.18752    -4.70233    10.12192
 H    -1.63606    -5.06483    11.09072
 H    -0.84747    -6.35516    10.15187
 H    -4.23925    -3.82391     4.33965
 H    -4.47461    -5.48453     4.93566
 H    -4.12569    -4.16852     6.08224
 H    -1.94750    -3.26836     3.24447
 H    -2.23145    -4.89932     2.59056
 H    -0.62495    -4.45934     3.21813
 H    -2.49170    -7.12285     3.82242
 H    -3.42040    -7.01091     5.33677
 H    -1.66416    -7.29585     5.38879
 H     3.54264    -4.79141     4.37589
 H     2.40558    -5.79729     5.30517
 H     4.12368    -6.25261     5.20990
 H     5.81174    -3.35256     5.93742
 H     5.94440    -3.60024     7.69507
 H     6.13470    -4.97872     6.58518
 H     4.49137    -6.27725     8.16386
 H     2.71854    -6.12266     8.12602
 H     3.68318    -5.05184     9.17057
 H     0.83306     1.19778     4.71371
 H    -0.69257     0.76267     5.52081
 H     0.23690    -0.47802     4.64614
 H     2.37724     1.88126     5.74194
 H     2.36866     2.11134     7.50695
 H     3.52596     0.98249     6.76221
 H    -0.47344     1.21380     8.05591
 H    -0.64918    -0.54633     8.25426
 H     0.58429     0.33558     9.18649
