  260
 
Zr     0.00000     0.00000     0.00000
Cl    10.64727    -0.15052     0.22919
Cl    12.02081     3.09918    -0.04868
Cl     8.58394     2.75958     0.81060
Cl     9.59406     3.95478    -2.48150
Cl     8.00830     0.71019    -2.05481
Cl    11.42092     1.01909    -3.02115
Zr    10.01614     1.88961    -1.08771
Cl     0.12400    -2.10089     1.38405
Cl     2.01313     1.02151     1.12405
Cl    -1.44973     1.01669     1.83409
Cl    -0.24773     2.10783    -1.35341
Cl    -2.05419    -0.96088    -1.16656
Cl     1.43475    -1.04197    -1.81868
Zr     3.70207     2.96820    -8.35903
Cl     3.24731     5.12204    -9.56389
Cl     2.43452     1.65471   -10.09207
Cl     1.56845     3.32292    -6.99871
Cl     4.09245     0.84100    -7.08831
Cl     5.02044     4.27686    -6.60582
Cl     5.87527     2.66806    -9.63601
Zr     3.24680     8.93047    -0.58783
Cl     2.77510    11.06001    -1.82365
Cl     1.85378     7.60299    -2.27241
Cl     1.13122     9.20405     0.78730
Cl     3.77166     6.79499     0.64040
Cl     4.62697    10.27829     1.02402
Cl     5.31501     8.57825    -2.02687
 N     1.24758    -5.49532    -2.00623
 C    -0.24873    -5.79983    -2.22409
 C    -1.16007    -4.58676    -2.11582
 C     2.00789    -6.83544    -1.98287
 C     2.08651    -7.54706    -3.32452
 C     1.50725    -4.76745    -0.67156
 C     1.71307    -4.57862    -3.15508
 C     0.97953    -5.48738     0.56281
 C     3.20878    -4.30730    -3.19273
 N     0.61452     0.35854     5.77340
 C    -0.88130     0.12536     5.49515
 C    -1.72512     1.39368     5.49368
 C     1.33242    -1.00644     5.74714
 C     1.31172    -1.72074     4.40481
 C     0.86211     0.97971     7.16418
 C     1.14743     1.32617     4.69931
 C     0.06747     0.33740     8.29298
 C     2.65811     1.48535     4.69750
 N    -0.57591    -0.66810    -5.81750
 C     0.91863    -0.34373    -5.61583
 C     1.84102    -1.55158    -5.54021
 C    -1.34899     0.66662    -5.77491
 C    -1.43590     1.30220    -4.39670
 C    -0.83758    -1.34352    -7.17727
 C    -1.01942    -1.64638    -4.71054
 C    -0.53676    -0.47635    -8.39136
 C    -2.51931    -1.89898    -4.63525
 N    -0.98655     5.69111     2.23378
 C     0.52755     5.91151     2.41636
 C     1.34393     4.63403     2.54070
 C    -1.65120     7.07479     2.09294
 C    -1.62034     7.93431     3.34904
 C    -1.31002     4.86800     0.96908
 C    -1.51113     4.90981     3.45611
 C    -0.78596     5.45778    -0.33280
 C    -3.02595     4.80543     3.54400
 N     6.07891    -1.69453     1.33706
 H    -0.57475    -6.57728    -1.47372
 C     5.63273    -1.56987    -1.20280
 C     4.85736    -2.60570     1.60375
 C     3.49200    -2.05823     1.23050
 C     7.15650    -2.19664     2.32823
 C     5.78466    -0.19595     1.52171
 C     8.52688    -1.56388     2.15720
 C     5.65390     0.24102     2.97032
 N    -4.00031    -3.25892     2.10611
 C    -4.59614    -2.82564     0.74099
 C    -4.54311    -3.84674    -0.38360
 H    -0.35720    -6.23742    -3.25683
 C    -5.65341    -5.24201     2.35785
 H    -1.08785    -4.09009    -1.11982
 C    -3.61508    -1.92241     2.79440
 C    -1.92561    -4.43330     3.10061
 C    -3.56807    -1.91628     4.31322
 N     3.49825     3.75557    -2.62451
 H    -2.21196    -4.94902    -2.25497
 C     3.83163     3.70906    -0.07085
 C     4.91792     4.34320    -2.81341
 C     6.08512     3.46083    -2.40348
 C     2.63663     4.46193    -3.69739
 C     3.44368     2.22716    -2.77044
 C     1.14250     4.19908    -3.60719
 C     3.69253     1.72961    -4.18436
 N    -5.57698     1.46028    -0.77724
 C    -4.82401     0.98918     0.48772
 C    -4.74767     2.01555     1.60353
 C    -4.86785     2.64336    -1.45692
 C    -3.36365     2.47945    -1.59919
 H    -0.95100    -3.83493    -2.90728
 C    -5.67576     0.19523    -1.66389
 C    -7.92788     2.22221    -1.50521
 C    -5.75169     0.41439    -3.16379
 H     1.47913    -7.49361    -1.24215
 H     3.05640    -6.64307    -1.61146
 C    -2.76163    -4.13356     1.86424
 C    -5.06038    -3.97817     2.95941
 C     6.61860    -1.90259    -0.09083
 H     1.08267    -7.76584    -3.74830
 H     2.62950    -8.51478    -3.17527
 H     2.65929    -6.96226    -4.08401
 H     1.04313    -3.74153    -0.73700
 H     2.62359    -4.65103    -0.56681
 C    -6.98299     1.92984    -0.34960
 H     1.17289    -3.59991    -3.03281
 C     2.94287     4.12348    -1.23397
 H     1.40222    -5.05586    -4.13120
 H     0.97227    -4.75653     1.41197
 H    -0.06504    -5.86031     0.44076
 H     1.64052    -6.33838     0.84294
 H     3.51470    -3.58871    -2.40029
 H     3.81090    -5.23970    -3.08149
 H     3.46194    -3.86864    -4.19155
 H    -1.27673    -0.59297     6.27002
 H    -0.95982    -0.35703     4.47896
 H    -1.42622     2.11802     6.28811
 H    -2.78921     1.10477     5.68419
 H    -1.67755     1.90136     4.50239
 H     0.82353    -1.65627     6.50951
 H     2.40491    -0.84664     6.06542
 H     0.31730    -2.17521     4.19426
 H     2.07566    -2.53911     4.43292
 H     1.57690    -1.04671     3.55523
 H     0.61136     2.07844     7.12219
 H     1.96334     0.87678     7.38698
 H     0.67711     2.33018     4.89215
 H     0.80670     0.95558     3.68804
 H     0.48906     0.71237     9.25926
 H    -1.01096     0.61860     8.24789
 H     0.12586    -0.77479     8.29336
 H     3.01753     1.97321     5.63047
 H     3.18818     0.50999     4.58247
 H     2.94290     2.12485     3.82402
 H     1.00933     0.21898    -4.64299
 H     1.25136     0.32887    -6.45713
 H     1.73374    -2.07673    -4.56336
 H     1.68563    -2.28050    -6.36919
 H     2.89409    -1.17529    -5.60639
 H    -2.39155     0.48512    -6.17019
 H    -0.81935     1.37888    -6.46591
 H    -1.88586     0.61815    -3.63710
 H    -0.44018     1.62318    -4.01938
 H    -2.09488     2.20464    -4.47215
 H    -1.92852    -1.62414    -7.20597
 H    -0.22349    -2.28667    -7.22914
 H    -0.66091    -1.23145    -3.72288
 H    -0.50361    -2.62738    -4.91183
 H    -1.21735     0.40427    -8.44183
 H    -0.73424    -1.09702    -9.30288
 H     0.52201    -0.12717    -8.41953
 H    -2.75613    -2.30937    -3.62041
 H    -2.85228    -2.63610    -5.40096
 H    -3.12501    -0.96948    -4.75790
 H     0.66654     6.51640     3.35866
 H     0.90942     6.51727     1.54438
 H     1.12937     4.10093     3.49479
 H     1.18081     3.93496     1.68582
 H     2.42473     4.93072     2.55772
 H    -2.72353     6.91444     1.77874
 H    -1.10615     7.62003     1.27185
 H    -1.92956     7.37747     4.26558
 H    -0.60997     8.36834     3.52333
 H    -2.34989     8.77263     3.21351
 H    -2.43250     4.79806     0.89566
 H    -0.89018     3.82970     1.10283
 H    -1.11305     5.40580     4.39002
 H    -1.08082     3.87306     3.39714
 H    -1.36170     6.36334    -0.62665
 H    -0.93526     4.68872    -1.13461
 H     0.29914     5.70800    -0.29329
 H    -3.53943     5.78472     3.38881
 H    -3.29135     4.44152     4.56895
 H    -3.43305     4.08304     2.80216
 H     5.15901    -0.57258    -1.06786
 H     4.84925    -2.35602    -1.28654
 H     6.19866    -1.53555    -2.16751
 H     4.82569    -2.81255     2.71115
 H     5.03673    -3.56964     1.04506
 H     3.19896    -1.21227     1.89859
 H     2.73521    -2.87112     1.37331
 H     3.41619    -1.71423     0.17399
 H     6.78822    -1.99381     3.37739
 H     7.25419    -3.30704     2.18107
 H     4.82811     0.04188     0.98039
 H     6.62318     0.38609     1.03815
 H     9.10767    -1.72720     3.10032
 H     9.08878    -2.03317     1.31665
 H     8.46573    -0.46526     1.97245
 H     4.93329    -0.40038     3.53046
 H     6.63718     0.21946     3.50140
 H     5.27798     1.29237     3.00278
 H    -5.67454    -2.54838     0.92270
 H    -4.01392    -1.92750     0.39278
 H    -4.88278    -4.85147    -0.04844
 H    -3.51809    -3.93588    -0.80681
 H    -5.23403    -3.50677    -1.19638
 H    -6.32696    -5.70637     3.12165
 H    -6.28555    -5.00152     1.46951
 H    -4.87963    -5.99840     2.08562
 H    -4.39144    -1.16075     2.50091
 H    -2.60974    -1.61331     2.38619
 H    -2.53846    -4.83371     3.93836
 H    -1.17430    -5.21788     2.82666
 H    -1.36566    -3.53073     3.43467
 H    -4.56039    -2.14060     4.77368
 H    -2.82265    -2.62476     4.74184
 H    -3.28796    -0.88348     4.63839
 H     3.31142     3.99367     0.87662
 H     3.99203     2.60777    -0.04076
 H     4.80562     4.24791    -0.08259
 H     4.95176     5.30777    -2.22995
 H     5.05365     4.57553    -3.90773
 H     6.00031     3.03465    -1.37972
 H     6.24138     2.61823    -3.11825
 H     7.01304     4.08928    -2.41920
 H     2.81758     5.56459    -3.58423
 H     3.00044     4.12511    -4.71254
 H     2.42528     1.87798    -2.42894
 H     4.20764     1.78721    -2.07671
 H     0.67995     4.76931    -2.76814
 H     0.92770     3.11466    -3.48249
 H     0.66678     4.52907    -4.56541
 H     2.80774     1.91214    -4.84314
 H     3.87849     0.62923    -4.15745
 H     4.57792     2.21893    -4.65477
 H    -5.36570     0.08037     0.86843
 H    -3.77266     0.70620     0.18746
 H    -5.73695     2.15640     2.09622
 H    -4.02579     1.64712     2.37521
 H    -4.37817     2.99448     1.21989
 H    -5.07829     3.57094    -0.84828
 H    -5.32359     2.78038    -2.47415
 H    -2.84054     2.59774    -0.61909
 H    -3.08951     1.48399    -2.02148
 H    -2.97522     3.26898    -2.28638
 H    -6.58421    -0.37856    -1.31854
 H    -4.75681    -0.43108    -1.47613
 H    -8.90800     2.54314    -1.07408
 H    -8.12166     1.31112    -2.11505
 H    -7.55422     3.05108    -2.14876
 H    -6.06891    -0.54762    -3.64294
 H    -4.75216     0.68378    -3.58268
 H    -6.48266     1.19325    -3.48036
 H    -2.11557    -3.59397     1.11535
 H    -3.10069    -5.11311     1.41686
 H    -4.58437    -4.24200     3.94428
 H    -5.90149    -3.24379     3.13221
 H     6.93348    -2.98065    -0.17832
 H     7.52681    -1.24399    -0.21358
 H    -6.86604     2.87198     0.26017
 H    -7.42713     1.12259     0.30170
 H     1.94181     3.61965    -1.11526
 H     2.79239     5.24088    -1.21328
