  828
 
Ca     0.00000     0.00000     0.00000
 N    -7.82472     2.10248     4.54696
 N    -9.38881     3.70514     4.51544
 C    -5.11079     5.01722     6.17208
 C    -4.46330     4.06063     6.98875
 C    -4.59775     4.47986     8.34137
 C    -5.30647     5.70656     8.35049
 C    -5.62996     6.05107     7.01168
 C    -5.21744     4.98378     4.68473
 H    -6.21976     4.60716     4.38960
 H    -4.42485     4.33877     4.25231
 H    -5.08695     6.01594     4.29769
 C    -3.68111     2.86761     6.56043
 H    -2.63346     2.98475     6.92419
 H    -3.67892     2.78335     5.45577
 H    -4.11135     1.94729     7.01004
 C    -4.06069     3.74923     9.52400
 H    -4.25176     2.66138     9.40575
 H    -4.54310     4.11023    10.45610
 H    -2.96537     3.91678     9.59336
 C    -5.55113     6.48605     9.59665
 H    -5.93057     5.81364    10.39372
 H    -6.27270     7.31063     9.43604
 H    -4.57221     6.90854     9.91947
 C    -6.29545     7.29430     6.50872
 H    -6.36625     7.23951     5.39094
 C    -5.46329     8.54994     6.84128
 H    -5.39174     8.64962     7.94670
 H    -5.93219     9.45755     6.41338
 H    -4.43751     8.41662     6.43928
 C    -7.74197     7.47484     7.02532
 H    -8.33175     6.58500     6.74196
 H    -8.18277     8.39109     6.58203
 H    -7.74102     7.56479     8.13055
 C    -8.11729     2.99701    10.33981
 C    -8.97499     4.17193    10.07683
 C    -9.71075     3.94842     8.94674
 C    -9.24918     2.64417     8.25237
 C    -8.28504     2.08027     9.34088
 C    -7.29100     2.93700    11.57401
 H    -6.68314     3.87123    11.65295
 H    -6.59155     2.07584    11.55530
 H    -7.95924     2.85738    12.46188
 C    -8.96305     5.38961    10.92752
 H    -9.60728     6.18675    10.49542
 H    -7.91525     5.78430    10.96537
 H    -9.28981     5.14788    11.96082
 C   -10.85363     4.80896     8.52042
 H   -11.53038     4.96784     9.39463
 H   -11.45051     4.35555     7.69912
 H   -10.46157     5.80003     8.19291
 C   -10.46770     1.66836     8.16895
 H   -10.21294     0.70358     7.66844
 H   -11.33863     2.11993     7.64039
 H   -10.77890     1.43021     9.21253
 C    -7.78276     0.65681     9.30481
 H    -8.15789     0.15647     8.37138
 C    -6.24890     0.55050     9.26552
 H    -5.85289     1.18708     8.44050
 H    -5.94899    -0.50510     9.09051
 H    -5.79420     0.90031    10.21414
 C    -8.37058    -0.14116    10.48761
 H    -8.02784     0.28234    11.45351
 H    -8.05120    -1.20230    10.41321
 H    -9.48080    -0.09277    10.44996
 C    -8.46387     3.05281     5.37564
 C    -9.41577     3.06810     3.24891
 C    -8.45675     2.05486     3.27859
 C    -6.64384     1.22932     4.92921
 H    -6.16766     1.66795     5.85636
 C    -5.56113     1.28563     3.84887
 H    -5.79561     0.62695     2.98585
 H    -4.60666     0.91698     4.30349
 H    -5.41744     2.33475     3.50482
 C    -7.12157    -0.18852     5.22500
 H    -7.98210    -0.18673     5.92904
 H    -6.28541    -0.77929     5.67461
 H    -7.43695    -0.73099     4.30433
 C   -10.01330     5.06801     4.71412
 H    -9.85999     5.39551     5.77983
 C    -9.26234     6.07579     3.83550
 H    -8.17848     6.09640     4.11042
 H    -9.67822     7.09356     4.01049
 H    -9.34725     5.85385     2.75249
 C   -11.51660     4.99482     4.47320
 H   -11.81066     5.18624     3.41505
 H   -12.02374     5.74761     5.10827
 H   -11.92821     3.98755     4.73952
 C    -8.19705     1.08928     2.18869
 H    -9.12201     0.96918     1.56375
 H    -7.95624     0.07141     2.58103
 H    -7.36786     1.45095     1.53615
 C   -10.34819     3.37992     2.14934
 H   -10.07982     2.82298     1.22275
 H   -10.38813     4.46219     1.90580
 H   -11.40741     3.06057     2.43299
Ca    -8.51800     3.07064     6.94071
Ca   -12.25678    -5.48427     8.46298
 N   -10.99669    -4.36902    10.52663
 N   -12.56859    -3.10201     9.53931
 C    -8.88771    -3.91943     6.65726
 C    -8.31445    -5.20390     6.79204
 C    -8.74378    -5.97730     5.67745
 C    -9.56240    -5.17453     4.85247
 C    -9.66202    -3.89268     5.45617
 C    -8.68458    -2.78482     7.60423
 H    -9.60980    -2.62165     8.19627
 H    -7.83866    -3.00370     8.29043
 H    -8.43444    -1.87099     7.02661
 C    -7.37377    -5.70549     7.83534
 H    -6.46104    -6.09590     7.32775
 H    -7.08026    -4.90074     8.53779
 H    -7.84732    -6.53604     8.40255
 C    -8.40345    -7.40658     5.47818
 H    -8.44630    -7.86972     6.49088
 H    -9.12702    -7.89510     4.79293
 H    -7.38071    -7.50930     5.05957
 C   -10.12556    -5.64795     3.55385
 H   -10.48394    -6.69419     3.66054
 H   -10.96731    -5.00912     3.22175
 H    -9.31684    -5.61746     2.78665
 C   -10.36575    -2.68982     4.91520
 H   -10.18798    -1.83256     5.61540
 C    -9.79368    -2.28238     3.53975
 H   -10.04689    -3.05352     2.78126
 H   -10.20093    -1.30417     3.22158
 H    -8.68743    -2.24244     3.62478
 C   -11.89796    -2.87493     4.81828
 H   -12.28710    -3.14788     5.81556
 H   -12.36881    -1.93795     4.45823
 H   -12.13648    -3.69880     4.11475
 C   -12.48084    -8.11277     6.39490
 C   -13.40632    -7.12180     5.80567
 C   -13.90157    -6.32459     6.79967
 C   -13.21403    -6.66101     8.14663
 C   -12.38740    -7.91679     7.74455
 C   -11.83549    -9.13084     5.53223
 H   -11.53317    -8.67714     4.55869
 H   -10.92082    -9.52597     6.01470
 H   -12.55559    -9.95684     5.34139
 C   -13.67697    -7.03814     4.34657
 H   -14.37410    -6.20345     4.11318
 H   -12.71061    -6.83523     3.81804
 H   -14.09421    -7.99753     3.97011
 C   -15.00680    -5.34021     6.60634
 H   -15.85792    -5.85077     6.09440
 H   -15.38525    -4.92423     7.56679
 H   -14.65805    -4.50093     5.95614
 C   -14.31023    -7.13618     9.15284
 H   -13.88522    -7.42745    10.14244
 H   -15.09243    -6.36031     9.31590
 H   -14.79954    -8.04118     8.72215
 C   -11.73839    -8.79692     8.78840
 H   -11.90045    -8.35430     9.80852
 C   -10.21597    -8.92046     8.61169
 H    -9.75781    -7.90829     8.53808
 H    -9.77550    -9.45141     9.48165
 H    -9.96582    -9.46408     7.68162
 C   -12.41893   -10.17847     8.82862
 H   -12.25808   -10.70497     7.86902
 H   -11.99811   -10.78888     9.65501
 H   -13.51211   -10.04973     8.99053
 C   -11.83310    -4.30706     9.38359
 C   -12.32235    -2.55375    10.82049
 C   -11.34482    -3.34101    11.43500
 C    -9.82456    -5.31442    10.72845
 H    -9.58362    -5.78107     9.72745
 C    -8.56224    -4.55122    11.13904
 H    -8.55941    -4.29480    12.22104
 H    -7.68207    -5.21527    10.95143
 H    -8.45031    -3.62966    10.52551
 C   -10.19839    -6.41406    11.71734
 H   -11.14645    -6.90742    11.40994
 H    -9.39011    -7.18305    11.75018
 H   -10.32335    -6.03431    12.75986
 C   -13.35522    -2.37071     8.46311
 H   -13.40347    -3.01457     7.54080
 C   -12.59298    -1.10461     8.05602
 H   -11.58887    -1.38071     7.64975
 H   -13.16874    -0.58696     7.25171
 H   -12.45583    -0.40267     8.90179
 C   -14.79206    -2.11848     8.89369
 H   -14.92950    -1.19918     9.51092
 H   -15.44325    -2.02366     7.99655
 H   -15.18258    -2.96312     9.52058
 C   -10.80565    -3.15308    12.79915
 H   -11.58486    -2.68221    13.45388
 H   -10.53974    -4.12605    13.28156
 H    -9.90707    -2.49207    12.77412
 C   -13.05868    -1.42343    11.41206
 H   -12.59859    -1.10014    12.37264
 H   -13.11782    -0.55739    10.72363
 H   -14.13080    -1.75028    11.63559
Ca   -10.46959   -10.50439    -3.64989
 N   -11.13592    -9.50019    -1.27888
 N    -9.68029   -11.19641    -1.21506
 C   -13.89102   -12.44150    -2.93006
 C   -14.51374   -11.46099    -3.73790
 C   -14.41581   -11.88699    -5.09333
 C   -13.72834   -13.12359    -5.11303
 C   -13.40956   -13.48354    -3.77638
 C   -13.76025   -12.41535    -1.44326
 H   -12.75483   -12.03559    -1.16279
 H   -14.55061   -11.77810    -0.99628
 H   -13.87755   -13.44953    -1.05636
 C   -15.24792   -10.24108    -3.29779
 H   -16.29096   -10.29126    -3.68957
 H   -15.27630   -10.18723    -2.19124
 H   -14.76293    -9.33305    -3.71350
 C   -15.00587   -11.17764    -6.26445
 H   -14.81678   -10.08734    -6.17377
 H   -14.56084   -11.55209    -7.20992
 H   -16.10362   -11.36237    -6.28281
 C   -13.46309   -13.89538    -6.35972
 H   -13.15871   -13.20861    -7.17647
 H   -12.66564   -14.64589    -6.19977
 H   -14.40725   -14.40683    -6.65118
 C   -12.79154   -14.75173    -3.28065
 H   -12.73975   -14.72012    -2.16048
 C   -13.65396   -15.97500    -3.65212
 H   -13.67989   -16.07236    -4.75916
 H   -13.23593   -16.89770    -3.20514
 H   -14.69300   -15.80347    -3.30070
 C   -11.34074   -14.95833    -3.76757
 H   -10.74043   -14.08005    -3.46659
 H   -10.93413   -15.88373    -3.31244
 H   -11.31151   -15.04909    -4.87133
 C   -10.83591   -10.41024    -7.02436
 C    -9.97658   -11.57671    -6.74514
 C    -9.24408   -11.34676    -5.61355
 C    -9.71794   -10.04458    -4.93054
 C   -10.67116    -9.48825    -6.02945
 C   -11.66008   -10.36834    -8.26075
 H   -12.27484   -11.29997    -8.32000
 H   -12.35423    -9.50282    -8.26516
 H   -10.98978   -10.31335    -9.14860
 C    -9.99557   -12.80811    -7.56933
 H    -9.39979   -13.61071    -7.07809
 H   -11.06216   -13.14585    -7.64598
 H    -9.60919   -12.61655    -8.59123
 C    -8.09829   -12.20195    -5.19077
 H    -7.42075   -12.34156    -6.06956
 H    -7.50326   -11.75717    -4.36263
 H    -8.47937   -13.20109    -4.87045
 C    -8.50943    -9.06399    -4.80684
 H    -8.76182    -8.12685    -4.25603
 H    -7.63079    -9.53890    -4.31032
 H    -8.21000    -8.76791    -5.83816
 C   -11.17779    -8.06839    -6.00978
 H   -10.80749    -7.55721    -5.08089
 C   -12.71275    -7.97928    -5.97979
 H   -13.10816    -8.65047    -5.18158
 H   -13.02534    -6.93416    -5.77135
 H   -13.15492    -8.30376    -6.94289
 C   -10.58690    -7.28873    -7.20310
 H   -10.92935    -7.72664    -8.16286
 H   -10.90428    -6.22681    -7.14431
 H    -9.47672    -7.34109    -7.16407
 C   -10.54749   -10.49730    -2.09265
 C    -9.61172   -10.53915     0.03562
 C   -10.52196    -9.48267    -0.00282
 C   -12.32007    -8.63300    -1.65454
 H   -12.79398    -9.06529    -2.58581
 C   -13.40084    -8.71018    -0.57314
 H   -13.17000    -8.06398     0.29857
 H   -14.35435    -8.34252    -1.02868
 H   -13.53652    -9.76580    -0.24297
 C   -11.85221    -7.21124    -1.94014
 H   -11.02282    -7.20707    -2.68131
 H   -12.70424    -6.60788    -2.34228
 H   -11.49144    -6.69312    -1.02380
 C    -9.04188   -12.54855    -1.43272
 H    -9.22250   -12.87905    -2.49360
 C    -9.75518   -13.56582    -0.53616
 H   -10.83621   -13.63328    -0.81411
 H    -9.29485   -14.56692    -0.69553
 H    -9.68309   -13.32638     0.54299
 C    -7.53370   -12.45159    -1.23620
 H    -7.20533   -12.65673    -0.19123
 H    -7.02819   -13.17564    -1.90615
 H    -7.14838   -11.42740    -1.48692
 C   -10.75627    -8.51809     1.09293
 H    -9.82715    -8.42682     1.71704
 H   -10.97546    -7.49408     0.70754
 H   -11.59138    -8.86859     1.74402
 C    -8.66691   -10.86206     1.11553
 H    -8.93725   -10.33889     2.05821
 H    -8.58346   -11.94994     1.30245
 H    -7.61868   -10.49889     0.82159
Ca    -6.75349    -1.98587    -5.20039
 N    -7.98278    -3.08478    -7.28732
 N    -6.40603    -4.35056    -6.29927
 C   -10.04907    -3.48879    -3.36188
 C   -10.59845    -2.19094    -3.49214
 C   -10.17842    -1.43431    -2.36116
 C    -9.38530    -2.26298    -1.53523
 C    -9.29667    -3.54106    -2.14957
 C   -10.25748    -4.62015    -4.31294
 H    -9.33524    -4.78605    -4.90902
 H   -11.10725    -4.40226    -4.99388
 H   -10.50480    -5.53696    -3.73726
 C   -11.52424    -1.67806    -4.54376
 H   -12.45414    -1.30927    -4.05161
 H   -11.79218    -2.47690    -5.26424
 H   -11.05262    -0.83049    -5.08517
 C   -10.52130    -0.00631    -2.12817
 H   -10.40432     0.51593    -3.10084
 H    -9.84623     0.45114    -1.37652
 H   -11.56954     0.07686    -1.77025
 C    -8.82309    -1.82290    -0.22456
 H    -8.45261    -0.77930    -0.30742
 H    -7.98978    -2.47943     0.09583
 H    -9.63504    -1.86190     0.53845
 C    -8.61984    -4.76243    -1.61489
 H    -8.81419    -5.61338    -2.31921
 C    -9.19576    -5.17078    -0.24062
 H    -8.91334    -4.42084     0.52793
 H    -8.81378    -6.16573     0.05867
 H   -10.30309    -5.17548    -0.31626
 C    -7.08400    -4.61360    -1.52016
 H    -6.68559    -4.35558    -2.51834
 H    -6.64378    -5.56487    -1.15771
 H    -6.82370    -3.79635    -0.81713
 C    -6.49522     0.64859    -3.15105
 C    -5.58479    -0.36079    -2.57029
 C    -5.08627    -1.14779    -3.57166
 C    -5.78782    -0.81009    -4.90971
 C    -6.59202     0.45643    -4.50053
 C    -7.10490     1.68410    -2.28223
 H    -7.51645     1.20931    -1.35949
 H    -7.93197     2.21344    -2.79252
 H    -6.31893     2.41717    -1.99773
 C    -5.33455    -0.47565    -1.11069
 H    -4.68452    -1.34981    -0.88550
 H    -6.31555    -0.63931    -0.59574
 H    -4.87833     0.45732    -0.71662
 C    -3.97216    -2.12362    -3.38240
 H    -3.12646    -1.60533    -2.86748
 H    -3.58858    -2.53178    -4.34350
 H    -4.31242    -2.96944    -2.73582
 C    -4.72252    -0.36699    -5.96053
 H    -5.15845    -0.16608    -6.96852
 H    -3.90941    -1.12044    -6.07152
 H    -4.27700     0.59194    -5.60711
 C    -7.23597     1.35208    -5.53223
 H    -7.07548     0.92200    -6.55737
 C    -8.75652     1.47058    -5.33909
 H    -9.22028     0.45873    -5.35369
 H    -9.19742     2.08524    -6.14992
 H    -8.99296     1.91784    -4.35345
 C    -6.55511     2.73470    -5.55115
 H    -6.71539     3.25088    -4.58437
 H    -6.97434     3.35426    -6.37212
 H    -5.46181     2.60703    -5.71336
 C    -7.15255    -3.15128    -6.13982
 C    -6.65266    -4.89886    -7.57964
 C    -7.63291    -4.11381    -8.19365
 C    -9.15010    -2.13470    -7.50336
 H    -9.38624    -1.64691    -6.51212
 C   -10.41814    -2.89913    -7.89657
 H   -10.42080    -3.17737    -8.97170
 H   -11.29525    -2.22616    -7.72203
 H   -10.53212    -3.80738    -7.26320
 C    -8.78316    -1.05291    -8.51486
 H    -7.91655    -0.45921    -8.14909
 H    -9.65169    -0.36454    -8.66683
 H    -8.52284    -1.46516    -9.51785
 C    -5.58658    -5.07136    -5.24023
 H    -5.52327    -4.42960    -4.31756
 C    -6.32760    -6.34457    -4.81474
 H    -7.33448    -6.07946    -4.40651
 H    -5.74500    -6.85008    -4.00738
 H    -6.46206    -7.05738    -5.65195
 C    -4.15543    -5.30544    -5.71031
 H    -4.02873    -6.23669    -6.31234
 H    -3.47908    -5.37459    -4.83065
 H    -3.79801    -4.46903    -6.36759
 C    -8.17206    -4.31602    -9.55552
 H    -7.39924    -4.81439   -10.19857
 H    -8.41735    -3.34813   -10.05659
 H    -9.08054    -4.96237    -9.52024
 C    -5.92039    -6.02581    -8.17474
 H    -6.42044    -6.39492    -9.09722
 H    -5.78109    -6.86234    -7.46364
 H    -4.87130    -5.67366    -8.47959
Ca     0.60962    -5.31092   -11.81846
 N     0.86370    -7.79693   -12.64635
 N    -0.72321    -6.59812   -13.70525
 C    -2.62927    -6.56151    -9.67891
 C    -3.16450    -5.26215    -9.82991
 C    -2.65559    -4.45972    -8.76670
 C    -1.79292    -5.25784    -7.98020
 C    -1.78034    -6.56848    -8.53417
 C    -2.89919    -7.73247   -10.56156
 H    -2.00679    -7.93777   -11.19257
 H    -3.77010    -7.52587   -11.21906
 H    -3.11802    -8.62616    -9.93526
 C    -4.09679    -4.76558   -10.88053
 H    -4.91517    -4.18104   -10.39879
 H    -4.54161    -5.60120   -11.45858
 H    -3.54866    -4.09190   -11.57484
 C    -3.02133    -3.02978    -8.57408
 H    -2.90706    -2.52159    -9.55976
 H    -2.37019    -2.54714    -7.81782
 H    -4.08601    -2.94989    -8.25740
 C    -1.00546    -4.77928    -6.80447
 H    -1.31143    -3.75323    -6.51341
 H     0.07212    -4.76931    -7.08551
 H    -1.16235    -5.45926    -5.94039
 C    -1.08501    -7.79269    -8.02958
 H    -1.21327    -8.61147    -8.78454
 C    -1.73263    -8.28782    -6.71628
 H    -1.68137    -7.46964    -5.96940
 H    -1.19853    -9.18048    -6.33673
 H    -2.79894    -8.52313    -6.91525
 C     0.43477    -7.60194    -7.83798
 H     0.86413    -7.17951    -8.76688
 H     0.91528    -8.57202    -7.59627
 H     0.61636    -6.88570    -7.01141
 C     1.65921    -4.19932   -11.78781
 C     2.54085    -4.44611   -10.54007
 C     2.17035    -3.61113    -9.52160
 C     1.11354    -2.70007   -10.00921
 C     0.89338    -2.92749   -11.34139
 C     2.56092    -3.84370   -13.00736
 H     3.10855    -2.90024   -12.76406
 H     1.98019    -3.65281   -13.93910
 H     3.31549    -4.63391   -13.21144
 C     3.69139    -5.39156   -10.46469
 H     3.94275    -5.82033   -11.45741
 H     3.46765    -6.21378    -9.74493
 H     4.58323    -4.83162   -10.08886
 C     2.75574    -3.53338    -8.15902
 H     3.44494    -2.65545    -8.10681
 H     3.32582    -4.45741    -7.91193
 H     1.95310    -3.40287    -7.39675
 C     0.46110    -1.72820    -9.10618
 H     0.25415    -2.20178    -8.11766
 H    -0.50387    -1.37755    -9.52017
 H     1.13532    -0.85512    -8.97514
 C     0.24240    -2.00395   -12.34187
 H     0.27025    -2.46836   -13.36364
 C     1.08612    -0.71655   -12.43481
 H     0.67549    -0.04131   -13.20929
 H     2.13557    -0.97775   -12.69566
 H     1.11689    -0.19931   -11.45430
 C    -1.23697    -1.73137   -12.04610
 H    -1.75141    -2.69021   -11.80272
 H    -1.72772    -1.27599   -12.93238
 H    -1.35687    -1.05214   -11.18176
 C     0.13958    -6.57753   -12.57854
 C     0.57016    -8.45244   -13.86788
 C    -0.39402    -7.69779   -14.53546
 C     1.75234    -8.39836   -11.56903
 H     1.86904    -7.65480   -10.73070
 C     1.07499    -9.61935   -10.94565
 H     0.08956    -9.32702   -10.50246
 H     1.72067   -10.01551   -10.12320
 H     0.89565   -10.43989   -11.67164
 C     3.15535    -8.68688   -12.11324
 H     3.23681    -9.71456   -12.52993
 H     3.89330    -8.59942   -11.28050
 H     3.43364    -7.95807   -12.91140
 C    -1.95371    -5.72393   -13.91724
 H    -2.15901    -5.19011   -12.94199
 C    -3.18678    -6.58402   -14.19476
 H    -3.27928    -6.87097   -15.26482
 H    -4.09608    -5.97265   -13.94822
 H    -3.19392    -7.50020   -13.56085
 C    -1.71936    -4.69018   -15.01865
 H    -0.81464    -4.07943   -14.82066
 H    -2.61370    -4.01032   -15.05797
 H    -1.63524    -5.15953   -16.02244
 C     1.23646    -9.67405   -14.35977
 H     0.66104   -10.12070   -15.20786
 H     1.29502   -10.44686   -13.55774
 H     2.26641    -9.41293   -14.71380
 C    -0.91377    -7.93420   -15.89878
 H    -0.96175    -6.98539   -16.48326
 H    -1.93472    -8.39176   -15.85442
 H    -0.24440    -8.63724   -16.45374
Ca    -1.67482    -8.20676     1.47656
 N    -0.97626    -9.18239     3.84824
 N    -2.44590    -7.49608     3.91737
 C    -5.13820   -10.28189     1.89544
 C    -5.76180    -9.30645     1.08292
 C    -5.53323    -9.66318    -0.27850
 C    -4.75280   -10.84212    -0.29411
 C    -4.49243   -11.23099     1.05008
 C    -5.15659   -10.35196     3.38501
 H    -4.13733   -10.14530     3.78063
 H    -5.86877    -9.60899     3.79767
 H    -5.47348   -11.37210     3.70266
 C    -6.53198    -8.10468     1.50762
 H    -7.49413    -8.06456     0.94683
 H    -6.74720    -8.12649     2.59526
 H    -5.95360    -7.18664     1.26116
 C    -6.05696    -8.90410    -1.45052
 H    -5.77313    -7.83414    -1.34068
 H    -5.63518    -9.28699    -2.40225
 H    -7.16759    -8.98056    -1.47771
 C    -4.28938   -11.52459    -1.53498
 H    -4.75206   -11.07983    -2.44075
 H    -3.18500   -11.40150    -1.60913
 H    -4.57356   -12.59746    -1.48255
 C    -3.73277   -12.40783     1.57929
 H    -3.68239   -12.33338     2.69566
 C    -4.45102   -13.73100     1.25100
 H    -4.37013   -13.87793     0.15247
 H    -3.96980   -14.58594     1.76455
 H    -5.51549   -13.63372     1.55069
 C    -2.28156   -12.49639     1.06250
 H    -1.70783   -11.62637     1.41751
 H    -1.80777   -13.43885     1.40710
 H    -2.30118   -12.45784    -0.04441
 C    -0.82707    -7.62521     0.32532
 C    -0.16034    -8.83254    -0.38371
 C    -0.73755    -9.04202    -1.60462
 C    -1.71836    -7.97058    -1.87503
 C    -1.72928    -7.09324    -0.82778
 C     0.26833    -6.54805     0.61113
 H     0.68098    -6.20941    -0.37025
 H    -0.13373    -5.64391     1.12357
 H     1.11515    -6.95388     1.20908
 C     1.01198    -9.61072     0.11509
 H     1.50817    -9.12569     0.98226
 H     0.69734   -10.64566     0.38382
 H     1.75970    -9.68615    -0.71182
 C    -0.43982   -10.11877    -2.58011
 H     0.12363    -9.69091    -3.44444
 H     0.16774   -10.92735    -2.11334
 H    -1.39234   -10.55934    -2.95853
 C    -2.47877    -7.96557    -3.14904
 H    -3.03179    -8.93227    -3.24460
 H    -3.21777    -7.14058    -3.19483
 H    -1.75936    -7.86798    -3.99559
 C    -2.33573    -5.71145    -0.80767
 H    -2.07035    -5.20536     0.15843
 C    -1.71060    -4.86509    -1.93693
 H    -2.00910    -3.80299    -1.82594
 H    -0.60240    -4.95445    -1.88950
 H    -2.04111    -5.23656    -2.92944
 C    -3.86871    -5.71525    -0.89466
 H    -4.28845    -6.39057    -0.11358
 H    -4.25991    -4.68694    -0.73802
 H    -4.21367    -6.08270    -1.88288
 C    -1.81672    -8.39610     3.02262
 C    -0.97128    -8.67573     5.17093
 C    -1.86103    -7.60363     5.20331
 C    -0.24706   -10.45250     3.47663
 H    -0.33824   -10.62836     2.36863
 C    -0.93614   -11.63594     4.15195
 H    -2.03366   -11.62536     3.93456
 H    -0.52026   -12.57944     3.72567
 H    -0.80573   -11.66290     5.25350
 C     1.24409   -10.29327     3.78113
 H     1.51322   -10.73717     4.76391
 H     1.83597   -10.79689     2.98111
 H     1.53772    -9.21640     3.78886
 C    -3.68549    -6.66692     3.62369
 H    -4.14808    -7.06698     2.67181
 C    -4.73939    -6.86711     4.71203
 H    -4.55712    -6.23810     5.60843
 H    -5.73270    -6.54960     4.29553
 H    -4.80523    -7.93818     5.01349
 C    -3.30249    -5.20235     3.43305
 H    -2.52475    -5.08041     2.65018
 H    -4.21838    -4.63665     3.11589
 H    -2.94394    -4.74214     4.37909
 C    -0.12618    -9.16108     6.28273
 H    -0.50429    -8.76166     7.25625
 H    -0.14577   -10.27381     6.36838
 H     0.92752    -8.81576     6.12789
 C    -2.07670    -6.68439     6.33917
 H    -2.10516    -5.62255     5.99926
 H    -3.03148    -6.93617     6.86517
 H    -1.23947    -6.77775     7.07567
Ca    -5.51161   -13.83789   -10.12358
 N    -5.66980   -11.39148    -9.10147
 N    -4.13156   -12.69034    -8.10075
 C     0.81151    -1.71266    11.05885
 C     1.31532    -3.02155    11.23632
 C     0.85334    -3.81140    10.14536
 C     0.07275    -2.99068     9.29377
 C     0.02749    -1.68916     9.86955
 C     1.05410    -0.54501    11.95580
 H     0.14140    -0.35013    12.56175
 H     1.90428    -0.75129    12.63906
 H     1.28764     0.35465    11.34323
 C     2.16475    -3.53464    12.34977
 H     2.99950    -4.14774    11.93670
 H     2.58987    -2.70132    12.94706
 H     1.55006    -4.18185    13.01196
 C     1.16417    -5.26209    10.00248
 H     0.96158    -5.73491    10.99042
 H     0.53626    -5.73740     9.22332
 H     2.24164    -5.39868     9.75751
 C    -0.51254    -3.42985     7.98970
 H    -0.08314    -4.40818     7.68366
 H    -1.61374    -3.53554     8.06577
 H    -0.28026    -2.67905     7.20302
 C    -0.66881    -0.45846     9.37961
 H    -0.58038     0.34075    10.16210
 C     0.00923     0.08276     8.10196
 H     0.01684    -0.72497     7.34305
 H    -0.54279     0.96049     7.71375
 H     1.05906     0.34600     8.34509
 C    -2.17981    -0.66635     9.14547
 H    -2.63355    -1.05173    10.08218
 H    -2.65928     0.29336     8.86095
 H    -2.32588    -1.40811     8.33683
 C    -3.33980    -4.22998    13.75033
 C    -3.85296    -3.37883    12.53933
 C    -3.46471    -4.19373    11.35673
 C    -2.74729    -5.34549    11.73916
 C    -2.70264    -5.39419    13.15984
 C    -4.10947    -4.46950    15.04966
 H    -4.61020    -5.46845    14.99347
 H    -3.42967    -4.47505    15.93554
 H    -4.90987    -3.71294    15.22995
 C    -5.31337    -2.92392    12.41757
 H    -5.74533    -2.56888    13.37788
 H    -5.39939    -2.10585    11.66321
 H    -5.93009    -3.78488    12.05769
 C    -3.78858    -3.85481     9.95495
 H    -4.19020    -4.75093     9.41976
 H    -4.52193    -3.02396     9.86313
 H    -2.83118    -3.53222     9.45732
 C    -2.16776    -6.29752    10.76134
 H    -1.89700    -5.76610     9.81524
 H    -1.24668    -6.78252    11.13840
 H    -2.91742    -7.08665    10.54164
 C    -2.10266    -6.47840    14.02005
 H    -2.17483    -6.17111    15.09912
 C    -2.94218    -7.75403    13.86052
 H    -2.48742    -8.58810    14.43570
 H    -3.97614    -7.57577    14.23286
 H    -3.02230    -8.03384    12.78450
 C    -0.60862    -6.64714    13.72508
 H    -0.12961    -5.64304    13.63395
 H    -0.11196    -7.20205    14.54739
 H    -0.44118    -7.18902    12.77444
 C    -4.99878   -12.63579    -9.22765
 C    -5.32481   -10.78192    -7.86625
 C    -4.38380   -11.59028    -7.23779
 C    -6.55225   -10.70817   -10.13121
 H    -6.73426   -11.41225   -10.99144
 C    -5.82529    -9.50452   -10.73482
 H    -4.86127    -9.83540   -11.19494
 H    -6.46111    -9.05925   -11.53856
 H    -5.59982    -8.71018    -9.99209
 C    -7.92179   -10.36203    -9.53676
 H    -7.95278    -9.32774    -9.13015
 H    -8.69514   -10.44246   -10.33474
 H    -8.18805   -11.06856    -8.71410
 C    -2.93661   -13.61129    -7.91445
 H    -2.78543   -14.16935    -8.88217
 C    -1.66082   -12.79403    -7.68072
 H    -1.53500   -12.50533    -6.61316
 H    -0.77677   -13.42502    -7.95266
 H    -1.64866   -11.88044    -8.31781
 C    -3.17789   -14.62629    -6.79494
 H    -4.04879   -15.27460    -7.02312
 H    -2.26129   -15.26422    -6.69063
 H    -3.33942   -14.13765    -5.81008
 C    -5.92542    -9.54699    -7.32687
 H    -5.33161    -9.16695    -6.46002
 H    -5.94521    -8.74732    -8.10225
 H    -6.96898    -9.77176    -6.98650
 C    -3.80114   -11.35915    -5.89626
 H    -3.64871   -12.30964    -5.33469
 H    -2.82109   -10.82539    -5.98782
 H    -4.48806   -10.72334    -5.28260
 N    -0.71912     0.95072    -2.35300
 N     0.74937    -0.73157    -2.44492
 C     3.36681     2.22884    -0.32823
 C     3.99542     1.25252     0.47825
 C     3.76567     1.59910     1.84283
 C     2.98404     2.77833     1.86865
 C     2.72155     3.17065     0.52634
 C     3.36562     2.28792    -1.81956
 H     2.34341     2.06826    -2.20013
 H     4.07585     1.54558    -2.23776
 H     3.67200     3.30593    -2.15159
 C     4.73454     0.03666     0.03552
 H     5.70359    -0.04096     0.57834
 H     4.93378     0.06279    -1.05542
 H     4.13361    -0.86759     0.27963
 C     4.25907     0.79974     3.00143
 H     3.93150    -0.25647     2.86875
 H     3.84928     1.18202     3.95801
 H     5.37135     0.82463     3.03267
 C     2.49821     3.46686     3.10122
 H     2.96555     3.03331     4.00928
 H     1.39443     3.34011     3.16647
 H     2.75219     4.54536     3.04364
 C     1.96210     4.35676     0.02130
 H     1.87379     4.27954    -1.09253
 C     2.72745     5.66069     0.32849
 H     2.71380     5.78320     1.43196
 H     2.23893     6.53498    -0.14148
 H     3.77350     5.54289    -0.02476
 C     0.52792     4.47730     0.58298
 H    -0.00062     3.51736     0.44265
 H    -0.00842     5.29701     0.06239
 H     0.57142     4.69766     1.66893
 C    -0.88720    -0.56048     1.13417
 C    -1.55527     0.64398     1.84613
 C    -0.98330     0.85361     3.06904
 C    -0.00946    -0.22537     3.33782
 C     0.00462    -1.10156     2.28935
 C    -1.98815    -1.62650     0.83129
 H    -2.40843    -1.97465     1.80585
 H    -1.59647    -2.52792     0.30696
 H    -2.82661    -1.20087     0.23617
 C    -2.72590     1.42033     1.34581
 H    -3.20537     0.94200     0.46700
 H    -2.40908     2.45632     1.08561
 H    -3.48366     1.48346     2.16436
 C    -1.28315     1.93246     4.04419
 H    -1.81946     1.49799     4.92199
 H    -1.91152     2.73153     3.59004
 H    -0.33371     2.39604     4.40170
 C     0.73747    -0.24284     4.61791
 H     1.29814     0.71824     4.72282
 H     1.46494    -1.07765     4.67335
 H     0.00036    -0.33494     5.44951
 C     0.60001    -2.48873     2.26957
 H     0.33126    -2.99171     1.30229
 C    -0.03615    -3.33228     3.39470
 H     0.25042    -4.39741     3.28010
 H    -1.14351    -3.22991     3.34562
 H     0.29879    -2.96961     4.38963
 C     2.13382    -2.49889     2.36024
 H     2.56311    -1.84808     1.56512
 H     2.51561    -3.53416     2.23100
 H     2.47919    -2.11018     3.34028
 C     0.13403     0.16846    -1.54084
 C    -0.73680     0.44727    -3.67447
 C     0.14997    -0.62507    -3.72348
 C    -1.45982     2.20755    -1.97370
 H    -1.35016     2.40151    -0.86972
 C    -0.79847     3.39398    -2.66371
 H     0.28191     3.46490    -2.38459
 H    -1.31100     4.30901    -2.29218
 H    -0.86685     3.38445    -3.77005
 C    -2.95170     2.03312    -2.26680
 H    -3.23281     2.47947    -3.24665
 H    -3.54470     2.52672    -1.46275
 H    -3.24224     0.95508    -2.27869
 C     1.98456    -1.56677    -2.16693
 H     2.45093    -1.18734    -1.20991
 C     3.03064    -1.34451    -3.25932
 H     2.83030    -1.94984    -4.16792
 H     4.02809    -1.67109    -2.86343
 H     3.09588    -0.26558    -3.53431
 C     1.58391    -3.02841    -1.99475
 H     0.80520    -3.14596    -1.21093
 H     2.49099    -3.61151    -1.68704
 H     1.21382    -3.47148    -2.94436
 C    -1.59565     0.93772    -4.76793
 H    -1.26497     0.50021    -5.74089
 H    -1.53889     2.04771    -4.86734
 H    -2.65362     0.63417    -4.56638
 C     0.33939    -1.53710    -4.86976
 H     0.37021    -2.60161    -4.54021
 H     1.28099    -1.28448    -5.41756
 H    -0.51500    -1.43497    -5.58602
 C     6.40966     0.20462   -12.35603
 H     6.48095     1.22302   -11.98520
 C     7.20427    -0.20260   -13.42488
 H     7.93763     0.48577   -13.87323
 C     7.11478    -1.51292   -13.91127
 H     7.74822    -1.80873   -14.74778
 C     6.25355    -2.42420   -13.30014
 H     6.18536    -3.44291   -13.67158
 C     5.48001    -2.03351   -12.20198
 H     4.83944    -2.74920   -11.69228
 C     5.54075    -0.71378   -11.74292
 C     4.67684    -0.26501   -10.61428
 H     3.99298     0.52678   -11.00068
 H     5.31937     0.15544    -9.80664
 H     4.05662    -1.08602   -10.18916
 C     3.55424    -5.05574    -3.84712
 H     3.52252    -4.71060    -4.87828
 C     4.56728    -4.60457    -3.00008
 H     5.35149    -3.92418    -3.37954
 C     4.61623    -5.03266    -1.66709
 H     5.39924    -4.64772    -1.01229
 C     3.67256    -5.94830    -1.19845
 H     3.71516    -6.29232    -0.16710
 C     2.66898    -6.42316    -2.05092
 H     1.94892    -7.15626    -1.69007
 C     2.58913    -5.96173    -3.37239
 C     1.48514    -6.41834    -4.27336
 H     0.84963    -5.54809    -4.56041
 H     1.91568    -6.87109    -5.19730
 H     0.83549    -7.17669    -3.77615
 C    -1.32264     6.21354     5.62023
 H    -1.47065     5.21897     5.20618
 C    -2.13424     6.64132     6.67158
 H    -2.93789     5.98907     7.06045
 C    -1.95484     7.91416     7.22584
 H    -2.58811     8.23642     8.05386
 C    -0.97829     8.75954     6.70401
 H    -0.83913     9.74469     7.13372
 C    -0.17999     8.34671     5.63351
 H     0.56644     9.02041     5.22555
 C    -0.33975     7.06713     5.08905
 C     0.52126     6.61548     3.95071
 H     1.10163     5.71372     4.25556
 H    -0.11572     6.34387     3.07685
 H     1.23980     7.40754     3.63278
 C    -5.28190    -3.15983     5.25753
 H    -5.25148    -3.50179     6.29032
 C    -6.29122    -3.62439     4.41301
 H    -7.06487    -4.31112     4.80338
 C    -6.34355    -3.19961     3.07878
 H    -7.11887    -3.59218     2.41955
 C    -5.41172    -2.27286     2.60800
 H    -5.46136    -1.92850     1.57692
 C    -4.41202    -1.78637     3.45813
 H    -3.69983    -1.04638     3.09499
 C    -4.32820    -2.24275     4.78039
 C    -3.23757    -1.75831     5.68342
 H    -2.58637    -2.61421     5.97829
 H    -3.68153    -1.30583     6.60104
 H    -2.59802    -0.99288     5.18369
