  140
 
Te     0.00000     0.00000     0.00000
Cl    -2.45368    -0.64581     0.06093
Cl     2.44483     0.63620    -0.04951
Cl     0.38821    -1.67860     1.85084
Cl    -0.37103     1.66238    -1.88029
Cl    -0.50041     1.72303     1.79454
Cl     0.51612    -1.72225    -1.77818
Te    -6.02906     4.33178    -3.64734
Cl    -3.53229     3.95198    -3.63706
Cl    -8.54021     4.70802    -3.69899
Cl    -6.15745     2.69921    -1.70469
Cl    -5.90560     5.94980    -5.58934
Cl    -5.63654     6.15393    -1.92613
Cl    -6.39930     2.50244    -5.35233
Te    -0.07852     1.00568    -8.17217
Cl    -2.53262     1.02312    -8.75223
Cl     2.40048     0.92370    -7.61840
Cl     0.08653     3.23682    -9.37807
Cl    -0.29162    -1.21291    -6.98474
Cl    -0.67727     2.33958    -6.09310
Cl     0.48947    -0.32813   -10.24517
Te    -5.64548    -3.85332    -4.65897
Cl    -3.17910    -3.48633    -5.12336
Cl    -8.10509    -4.22820    -4.19550
Cl    -6.07955    -1.66419    -5.85297
Cl    -5.22835    -6.04826    -3.46464
Cl    -5.29856    -2.48918    -2.54650
Cl    -5.99269    -5.21279    -6.76578
 N    -2.43993    -0.53226     3.44876
 C    -3.87773    -0.32745     3.07349
 H    -1.85226    -0.39285     2.59675
 H    -4.16767    -0.98831     2.23166
 H    -4.03340     0.71044     2.73434
 H    -4.54854    -0.54100     3.92415
 C    -2.22261    -1.92504     3.95476
 C    -2.02942     0.47609     4.47982
 H    -1.14590    -2.11901     4.13463
 H    -2.55732    -2.65743     3.20107
 H    -2.76206    -2.09752     4.90219
 H    -2.06628     1.50430     4.06434
 H    -0.98779     0.29784     4.79469
 H    -2.69358     0.44162     5.36028
 N    -3.49965     4.00093    -0.13455
 C    -2.12512     4.45058    -0.53150
 H    -4.11349     4.01322    -0.98059
 H    -1.76804     3.89397    -1.42311
 H    -2.13835     5.51961    -0.80076
 H    -1.39915     4.28379     0.28319
 C    -3.45137     2.59972     0.39986
 C    -4.07398     4.92787     0.89379
 H    -4.47451     2.18796     0.52253
 H    -2.92473     1.94233    -0.30975
 H    -2.94594     2.56513     1.38172
 H    -4.24207     5.93913     0.46825
 H    -5.05204     4.55244     1.23529
 H    -3.39486     5.03466     1.75833
 N    -2.25860    -4.78514    -0.64644
 C    -3.62519    -5.35577    -0.41563
 H    -1.57407    -5.57178    -0.72692
 H    -3.86718    -6.12357    -1.18016
 H    -3.67054    -5.85150     0.56734
 H    -4.39935    -4.57022    -0.47047
 C    -2.23469    -3.99810    -1.92363
 C    -1.85064    -3.91405     0.50342
 H    -1.19283    -3.74905    -2.21499
 H    -2.66521    -4.59271    -2.74542
 H    -2.79222    -3.05073    -1.81944
 H    -1.64317    -4.52222     1.40824
 H    -0.92145    -3.37661     0.25778
 H    -2.64257    -3.18523     0.75146
 N    -3.34910    -0.21933    -4.17464
 C    -1.91010    -0.55259    -3.91802
 H    -3.88856    -1.11257    -4.25120
 H    -1.54111    -1.30260    -4.64776
 H    -1.79933    -0.99658    -2.91547
 H    -1.27194     0.34537    -3.99439
 C    -3.49462     0.54134    -5.45802
 C    -3.90483     0.57492    -3.02942
 H    -4.56368     0.63471    -5.74221
 H    -2.98890     0.00711    -6.27857
 H    -3.07787     1.56009    -5.36902
 H    -3.96632    -0.04626    -2.11096
 H    -4.92882     0.91020    -3.26078
 H    -3.27010     1.44911    -2.80245
 N     2.43624     0.53240    -3.47938
 C     3.87049     0.32841    -3.09316
 H     1.84084     0.39970    -2.63197
 H     4.15500     0.99572    -2.25411
 H     4.02518    -0.70676    -2.74526
 H     4.54733     0.53474    -3.94107
 C     2.22696     1.92222    -4.00093
 C     2.02926    -0.47197    -4.51605
 H     1.15047     2.11815    -4.18201
 H     2.56710     2.66352    -3.25890
 H     2.76774     2.07927    -4.95088
 H     2.05038    -1.50049    -4.10237
 H     0.99512    -0.28153    -4.84821
 H     2.70457    -0.43826    -5.38932
 N     3.48852    -4.02598     0.10301
 C     2.10505    -4.47153     0.47400
 H     4.08362    -4.04757     0.96387
 H     1.74329    -3.92979     1.37338
 H     2.10633    -5.54414     0.72482
 H     1.38663    -4.28187    -0.34241
 C     3.45920    -2.62345    -0.42558
 C     4.08207    -4.94849    -0.91851
 H     4.48698    -2.21440    -0.51604
 H     2.91002    -1.96876     0.26883
 H     2.98450    -2.58343    -1.42239
 H     4.25145    -5.95905    -0.49264
 H     5.06333    -4.56673    -1.24609
 H     3.41746    -5.05724    -1.79383
 N     2.25713     4.77753     0.59650
 C     3.63956     5.31277     0.37250
 H     1.59228     5.58411     0.65820
 H     3.88833     6.09381     1.12147
 H     3.70801     5.78606    -0.61985
 H     4.39629     4.51252     0.45333
 C     2.19672     4.00978     1.88326
 C     1.84266     3.90526    -0.55032
 H     1.14555     3.78056     2.15762
 H     2.62009     4.60989     2.70477
 H     2.74201     3.05298     1.80737
 H     1.66144     4.50980    -1.46335
 H     0.89761     3.39218    -0.31248
 H     2.62099     3.15679    -0.78361
 N     3.34598     0.19800     4.15958
 C     1.90062     0.50182     3.90414
 H     3.86717     1.09981     4.25169
 H     1.51838     1.24637     4.63231
 H     1.77844     0.94032     2.90124
 H     1.28035    -0.40906     3.98293
 C     3.49635    -0.57724     5.43504
 C     3.92180    -0.57401     3.00935
 H     4.56487    -0.67576     5.71987
 H     2.99055    -0.04914     6.25973
 H     3.07972    -1.59492     5.33653
 H     3.97167     0.05448     2.09561
 H     4.95137    -0.89096     3.24169
 H     3.30573    -1.45885     2.77220
