  113
 
Ru     0.00000     0.00000     0.00000
 N     8.87906     0.06650    -0.21262
 H     8.97465     0.88238    -0.85818
 C    10.00597     0.00136     0.75554
 H     9.76381     0.72233     1.57445
 H    10.94701     0.36029     0.26559
 C    10.20484    -1.40872     1.31735
 H     9.38885    -1.67847     2.02011
 H    11.13763    -1.46177     1.90910
 C    10.27549    -2.40615     0.16212
 H    11.17806    -2.23413    -0.48500
 H    10.35630    -3.46456     0.52136
 N     9.06116    -2.27373    -0.65521
 H     8.72832    -3.14998    -1.13570
 C     7.20957    -1.06405    -1.61618
 C     7.07221    -1.81252    -2.78538
 H     7.90596    -2.41523    -3.17521
 C     6.12929    -0.33306    -1.11342
 H     6.21036     0.21939    -0.17746
 C     3.50219    -0.99345    -3.73102
 N     3.10650    -2.04736    -4.46950
 H     3.70912    -2.87930    -4.62080
 C     1.83156    -2.02905    -5.20454
 H     1.93014    -2.68857    -6.10433
 H     1.03755    -2.46255    -4.54973
 C     1.46108    -0.60370    -5.62276
 H     2.14246    -0.23290    -6.41092
 H     0.44151    -0.58575    -6.06313
 C     1.50317     0.28615    -4.38268
 H     0.67327     0.01633    -3.68015
 H     1.35779     1.36774    -4.63102
 N     2.78682     0.14188    -3.68115
 H     3.07827     0.97026    -3.11360
 C     4.79052    -1.05143    -2.99015
 C     4.92145    -0.32706    -1.80063
 H     4.07907     0.24905    -1.38858
 C     5.86225    -1.80156    -3.47671
 H     5.77717    -2.38877    -4.39835
 C     8.47389    -1.10167    -0.84365
 C     5.25827    -1.92143     2.46413
 N     6.21376    -2.40750     3.20352
 H     7.19917    -4.24124     2.54492
 C     6.98930    -1.51584     4.05474
 H     8.04878    -1.86833     4.00450
 H     6.67114    -1.63379     5.11625
 C     6.88664    -0.04256     3.62484
 H     7.46411     0.13498     2.69961
 H     7.34434     0.61116     4.39463
 C     5.40998     0.32093     3.43038
 H     4.90399     0.36320     4.42805
 H     5.30036     1.32641     2.96755
 N     4.69014    -0.66174     2.59983
 H     4.17633    -0.25583     1.79496
 C     4.68795    -2.77808     1.39876
 C     5.58003    -3.31956     0.46938
 H     6.65042    -3.13703     0.56503
 C     3.31754    -3.00025     1.30502
 H     2.62293    -2.57161     2.03822
 C     3.20830    -5.24122    -1.70291
 N     2.31678    -4.77426    -2.59642
 H     1.97479    -3.79326    -2.53533
 C     1.61170    -5.67323    -3.52507
 H     0.54117    -5.35639    -3.56443
 H     2.05148    -5.53543    -4.54534
 C     1.70938    -7.14104    -3.09531
 H     1.01457    -7.36711    -2.25523
 H     1.36239    -7.80685    -3.91521
 C     3.15456    -7.46086    -2.70406
 H     3.83130    -7.40481    -3.59201
 H     3.23351    -8.48655    -2.26808
 N     3.61769    -6.51793    -1.68023
 H     4.39702    -6.83816    -1.06378
 C     3.72334    -4.33447    -0.65574
 C     2.82888    -3.77396     0.25573
 H     1.75144    -3.92587     0.15243
 C     5.09640    -4.10791    -0.56662
 H     5.78711    -4.54947    -1.29624
 C     0.63915    -1.37352    -1.24646
 N     0.99745    -2.17873    -2.02561
 C     0.13366    -1.43822     1.20627
 N     0.21621    -2.32345     1.97474
 C    -1.66363    -0.58254    -0.64269
 N    -2.71771    -0.91810    -1.05174
 C    -0.50593     0.90861     0.93341
 N    -0.86759     1.74609     1.84533
 C    -0.08419     1.17893    -1.44947
 N    -0.27680     1.88224    -2.37896
 C     1.78674     0.46284     0.36260
 N     2.91214     0.72625     0.60073
 O     4.68571     3.09529     0.31098
 O    -2.62541     1.42225    -4.30803
 O     0.72150     8.45354     3.33739
 O     1.31841     2.54532     3.68023
 O     0.60683    10.26329     1.37492
 O     5.59083     5.49797    -0.41492
 O     7.26334     2.44306     0.68909
 O     7.03061     7.06174     1.23167
 H     4.00665     2.41594     0.44128
 H     5.52272     2.72539     0.56749
 H    -2.33170     0.55496    -4.63873
 H    -1.82052     1.81085    -3.92813
 H     0.23997     8.97182     4.00999
 H     1.63086     8.40335     3.66248
 H     0.59979     2.30444     3.07534
 H     1.69620     1.71649     3.97543
 H    -0.14179     9.92945     0.87243
 H     0.73425     9.63491     2.11037
 H     5.09589     4.69708    -0.13754
 H     6.06182     5.21653    -1.20864
 H     7.53996     1.51543     0.65986
 H     7.53917     2.82730    -0.15991
 H     6.51515     6.44512     0.70895
 H     7.55736     6.55969     1.88345
