  116
 
Co     0.00000     0.00000     0.00000
 O     1.91465     0.00162     0.43616
 O    -0.07728     1.93202     0.32243
 C     0.84686     2.68380     0.69958
 C     2.61723     0.97162     0.79044
 C     2.14377     2.27870     1.19062
 H     2.91508     3.08201     1.20858
 C     0.56058     4.15096     0.52951
 H    -0.49280     4.33450     0.27579
 H     1.19947     4.57566    -0.26283
 H     0.79904     4.68908     1.46511
 C     4.09930     0.74172     0.70536
 H     4.58182     0.97034     1.67567
 H     4.55157     1.38453    -0.06028
 H     4.35757    -0.30356     0.45623
 O    -1.91760    -0.00970    -0.42972
 C    -2.61529    -0.97748    -0.80006
 C    -2.13862    -2.27092    -1.23137
 C    -0.84152    -2.67430    -0.75220
 O     0.07362    -1.92938    -0.33893
 C    -0.53088    -4.14100    -0.63936
 H     0.52547    -4.31167    -0.39161
 H    -1.16552    -4.61204     0.12769
 H    -0.74755    -4.63941    -1.60315
 H    -2.90739    -3.07478    -1.28777
 C    -4.09703    -0.76241    -0.68067
 H    -4.60712    -1.04729    -1.62013
 H    -4.50440    -1.37388     0.13606
 H    -4.35347     0.29457    -0.47422
Co     1.81920     3.91097    -6.80438
 O     2.81409     2.88997    -8.13514
 O     0.74279     4.80050    -8.15858
 C     0.55703     4.33507    -9.33074
 C     2.42402     2.69399    -9.33155
 C     1.39119     3.40395    -9.94275
 H     1.06074     3.03404   -10.92460
 C    -0.66411     4.82229   -10.03116
 H    -1.23520     5.54891    -9.44041
 H    -0.42495     5.24606   -11.01797
 H    -1.32192     3.93605   -10.21796
 C     3.12023     1.61712   -10.08507
 H     2.43636     0.73657   -10.14593
 H     3.33816     1.91353   -11.11945
 H     4.05215     1.26193    -9.61056
 O     0.61806     4.71965    -5.51828
 C     0.44257     4.35277    -4.31157
 C     1.10853     3.27717    -3.71478
 C     2.24151     2.66167    -4.25355
 O     2.64433     2.79713    -5.45413
 C     3.10858     1.76751    -3.42349
 H     3.76271     1.14218    -4.04914
 H     2.52644     1.12619    -2.74391
 H     3.76272     2.41088    -2.79950
 H     0.83409     3.01238    -2.69305
 C    -0.53960     5.18135    -3.55283
 H    -0.00057     6.02878    -3.07979
 H    -1.05630     4.62920    -2.76180
 H    -1.29487     5.66549    -4.20087
Co     2.26368     2.50410     3.24619
 O     4.21853     2.54339     3.20371
 O     2.15842     4.44432     3.13127
 C     3.13615     5.24851     3.02697
 C     4.95017     3.57504     3.07353
 C     4.46513     4.86378     2.83259
 H     5.18966     5.65958     2.67180
 C     2.75917     6.68630     3.19724
 H     1.67306     6.84351     3.13858
 H     3.26790     7.34247     2.47894
 H     3.07742     6.99109     4.21885
 C     6.41146     3.32591     3.25406
 H     6.67424     3.55607     4.31020
 H     7.03876     3.95381     2.61293
 H     6.70000     2.26999     3.10703
 O     0.31429     2.49778     3.28890
 C    -0.43834     1.48950     3.45842
 C     0.02325     0.20165     3.75281
 C     1.33672    -0.22003     3.53867
 O     2.33221     0.55421     3.37741
 C     1.65662    -1.67706     3.40647
 H     2.73529    -1.87311     3.47889
 H     1.11956    -2.29468     4.14180
 H     1.33035    -1.99187     2.39052
 H    -0.71801    -0.55900     3.99008
 C    -1.89400     1.75446     3.27114
 H    -2.15588     1.51667     2.21669
 H    -2.53170     1.15248     3.92513
 H    -2.16695     2.82026     3.39381
Co     3.71417     5.90242    -3.65625
 O     4.74532     4.91600    -5.00719
 O     2.69047     6.85842    -5.03526
 C     2.58558     6.49278    -6.21606
 C     4.39938     4.74107    -6.18515
 C     3.17276     5.27830    -6.80890
 H     3.25459     5.34305    -7.92376
 C     1.81551     7.41840    -7.11523
 H     1.40483     8.27117    -6.55537
 H     2.44917     7.80553    -7.93057
 H     0.96907     6.87113    -7.57417
 C     5.35384     3.95968    -7.03712
 H     4.88566     3.00081    -7.34637
 H     5.63870     4.50297    -7.94492
 H     6.27068     3.66641    -6.49023
 O     2.68098     6.91909    -2.35437
 C     2.86792     6.80243    -1.11028
 C     3.81104     5.99961    -0.46327
 C     4.70775     5.15280    -1.11664
 O     4.81241     4.95745    -2.35994
 C     5.69994     4.37472    -0.29058
 H     6.29465     3.69033    -0.90915
 H     5.18645     3.79913     0.49326
 H     6.38916     5.07432     0.20874
 H     3.86357     6.04439     0.62044
 C     1.97279     7.66535    -0.26316
 H     2.51603     8.57142     0.05214
 H     1.63832     7.13215     0.63516
 H     1.07814     8.01181    -0.81105
