   54
 
Bi     0.00000     0.00000     0.00000
Bi    -2.66367    -1.79313    -1.37257
 O    -1.34399    -1.89400     0.62698
 O     0.32010     0.37068     2.34928
Br    -5.83189    -3.34368    -2.57093
Br     3.18470     1.54787     1.19312
Bi     1.63789     0.27165     4.35108
Bi    -1.02526    -1.52327     2.97505
 O     0.29484    -1.62436     4.97429
 O     1.95711     0.64367     6.69980
Br    -4.19548    -3.07385     1.78286
Br     4.81938     1.81936     5.54610
Bi     3.26998     0.54841     8.70618
Bi     0.61592    -1.25213     7.32387
 O     1.92920    -1.34792     9.32828
 O     3.59402     0.91688    11.05040
Br    -2.56116    -2.80036     6.12896
Br     6.45921     2.09734     9.89499
Bi     1.70144     4.26567    -0.90120
Bi    -0.95487     2.46817    -2.27942
 O     0.35848     2.36495    -0.27873
 O     2.01930     4.63275     1.44658
Br    -4.14417     0.91829    -3.46946
Br     4.87652     5.81342     0.29435
Bi     3.33052     4.53577     3.45009
Bi     0.67856     2.73324     2.06788
 O     1.99241     2.63524     4.06992
 O     3.65514     4.90636     5.79610
Br    -2.50491     1.18736     0.87420
Br     6.51520     6.08571     4.64125
Bi     4.96812     4.81006     7.79933
Bi     2.31468     3.00610     6.41948
 O     3.62760     2.91163     8.42234
 O     5.29400     5.18041    10.14734
Br    -0.86652     1.45670     5.22441
Br     8.15277     6.35629     8.99161
Bi     3.39273     8.52621    -1.80473
Bi     0.73894     6.72791    -3.18410
 O     2.05445     6.62896    -1.18191
 O     3.70905     8.89793     0.54426
Br    -2.44666     5.18044    -4.37738
Br     6.56276    10.07825    -0.61229
Bi     5.02666     8.79926     2.54321
Bi     2.37125     6.99899     1.16775
 O     3.68657     6.90075     3.16853
 O     5.34918     9.16933     4.89255
Br    -0.80190     5.45077    -0.02697
Br     8.20269    10.34867     3.73751
Bi     6.66433     9.07220     6.89491
Bi     4.01076     7.27144     5.51521
 O     5.32422     7.17387     7.51736
 O     6.98548     9.44143     9.24372
Br     0.82526     5.72060     4.32484
Br     9.83190    10.62099     8.09206
