  120
 
Mg     0.00000     0.00000     0.00000
 H     0.80819    -0.61072     2.42801
 H    -2.63282     0.02388     0.15573
 O     0.10803    -0.89444     1.87119
 O    -1.92976     0.29038     0.71760
Mg     0.09211    -2.90681     1.38056
 H     0.74748     2.28599     1.07880
 H    -0.71853    -2.28663    -1.06216
 O     0.04359     2.00851     0.52359
 O    -0.01946    -2.01218    -0.49897
Mg     3.28890     1.30110     2.63593
 H     4.09549     0.68765     5.06247
 H     0.65388     1.32202     2.79014
 O     3.39464     0.40635     4.50547
 O     1.35680     1.59066     3.35139
Mg     3.37970    -1.60562     4.01779
 H     4.03627     3.58322     3.71308
 H     2.56645    -0.98796     1.57386
 O     3.33201     3.30864     3.15712
 O     3.26547    -0.71195     2.13657
Mg     1.81878     0.59860    -2.58265
 H     2.63472    -0.00326    -0.15293
 H    -0.81481     0.62671    -2.42898
 O     1.93417    -0.28720    -0.70920
 O    -0.11111     0.89635    -1.86948
Mg     1.91397    -2.29992    -1.20600
 H     2.56501     2.88309    -1.49953
 H     1.09681    -1.68942    -3.64672
 O     1.86294     2.60738    -2.05809
 O     1.79664    -1.41304    -3.08551
Mg     5.10770     1.89946     0.05285
 H     5.92191     1.29462     2.48111
 H     2.47246     1.92379     0.20581
 O     5.22071     1.01300     1.92478
 O     3.17598     2.19596     0.76463
Mg     5.20091    -0.99912     1.43112
 H     5.85336     4.17967     1.13470
 H     4.38204    -0.39136    -1.01071
 O     5.15094     3.90708     0.57533
 O     5.08179    -0.11303    -0.45004
Mg     3.63938     1.20453    -5.16958
 H     4.45040     0.59307    -2.73823
 H     1.00202     1.22335    -5.00712
 O     3.75027     0.31118    -3.29607
 O     1.70771     1.49460    -4.45105
Mg     3.73240    -1.70201    -3.78877
 H     4.38312     3.48439    -4.08446
 H     2.92170    -1.08269    -6.22749
 O     3.68159     3.21216    -4.64535
 O     3.62171    -0.80685    -5.66615
Mg     6.92829     2.50590    -2.53407
 H     7.73702     1.89170    -0.10350
 H     4.28919     2.52081    -2.37265
 O     7.03682     1.61197    -0.66212
 O     4.99473     2.79470    -1.81737
Mg     7.01959    -0.40076    -1.15167
 H     7.67129     4.78243    -1.45026
 H     6.20811     0.21518    -3.59231
 O     6.96950     4.51276    -2.01189
 O     6.90725     0.49349    -3.03096
Mg    -1.95249     5.20521    -0.10932
 H    -1.14010     4.57709     2.31864
 H    -4.58382     5.20640     0.04405
 O    -1.84413     4.30491     1.76071
 O    -3.88491     5.48653     0.60435
Mg    -1.88743     2.29676     1.24187
 H    -1.23648     7.49991     0.94475
 H    -2.69357     2.92398    -1.18602
 O    -1.93568     7.21834     0.38540
 O    -1.99161     3.19676    -0.62597
Mg     1.33568     6.50627     2.52658
 H     2.14718     5.87482     4.95301
 H    -1.29788     6.50534     2.67893
 O     1.44266     5.60513     4.39470
 O    -0.59912     6.78716     3.23871
Mg     1.40323     3.59789     3.87682
 H     2.04963     8.79794     3.58002
 H     0.59470     4.22146     1.44792
 O     1.34962     8.51860     3.02081
 O     1.29642     4.49695     2.00719
Mg    -0.13391     5.80370    -2.69235
 H     0.68603     5.18488    -0.26309
 H    -2.76625     5.81037    -2.54101
 O    -0.01838     4.91195    -0.82026
 O    -2.06636     6.09253    -1.98308
Mg    -0.06620     2.90361    -1.34487
 H     0.58181     8.09690    -1.63329
 H    -0.87804     3.52053    -3.77095
 O    -0.11575     7.81713    -2.19578
 O    -0.17535     3.79563    -3.21303
Mg     3.15415     7.10472    -0.05619
 H     3.97261     6.48239     2.37173
 H     0.51975     7.10818     0.09374
 O     3.26797     6.21184     1.81405
 O     1.21924     7.39276     0.65129
Mg     3.22407     4.20436     1.29027
 H     3.86698     9.39500     1.00238
 H     2.41067     4.81777    -1.13700
 O     3.16901     9.11734     0.43967
 O     3.11279     5.09570    -0.57947
Mg     1.68689     6.40978    -5.27895
 H     2.50192     5.78128    -2.84826
 H    -0.94938     6.40645    -5.11925
 O     1.79791     5.51066    -3.40708
 O    -0.24767     6.69069    -4.56474
Mg     1.75249     3.50174    -3.92791
 H     2.39942     8.69885    -4.21852
 H     0.94736     4.12753    -6.35209
 O     1.70240     8.42233    -4.78320
 O     1.65000     4.40200    -5.79374
Mg     4.97555     7.71085    -2.64305
 H     5.78773     7.07917    -0.21308
 H     2.33719     7.70486    -2.48402
 O     5.08385     6.81073    -0.77280
 O     3.03869     7.99137    -1.93016
Mg     5.04273     4.80275    -1.29278
 H     5.68463     9.99758    -1.58283
 H     4.23681     5.42488    -3.71875
 O     4.98738     9.72254    -2.14778
 O     4.93851     5.70229    -3.16052
