   96
 
Cd     0.00000     0.00000     0.00000
Cd    -3.80989     0.00000     0.00000
Cd    -1.90494    -3.29946     0.00000
Cd    -1.90494    -1.09982     3.11076
 F     0.00000     0.00000    -2.33307
 F     0.00000     0.00000     2.33307
 F     0.00000     2.19964     0.77769
 F     0.00000    -2.19964    -0.77769
 F     1.90495    -1.09982     0.77769
 F    -1.90495     1.09982    -0.77769
 F    -1.90495    -1.09982     0.77769
 F     1.90495     1.09982    -0.77769
Cd     3.80989    -2.19964    -3.11076
Cd     0.00000    -2.19964    -3.11076
Cd     1.90495    -5.49910    -3.11076
Cd     1.90495    -3.29946     0.00000
 F     3.80989    -2.19964    -5.44384
 F     3.80989    -2.19964    -0.77769
 F     3.80989     0.00000    -2.33307
 F     3.80989    -4.39928    -3.88845
 F     5.71484    -3.29946    -2.33307
 F     1.90495    -1.09982    -3.88845
 F     1.90495    -3.29946    -2.33307
 F     5.71484    -1.09982    -3.88845
Cd    -0.00000     4.39928    -3.11076
Cd    -3.80989     4.39928    -3.11076
Cd    -1.90495     1.09982    -3.11076
Cd    -1.90495     3.29946     0.00000
 F    -0.00000     4.39928    -5.44384
 F     0.00000     4.39928    -0.77769
 F    -0.00000     6.59893    -2.33307
 F    -0.00000     2.19964    -3.88845
 F     1.90495     3.29946    -2.33307
 F    -1.90495     5.49911    -3.88845
 F    -1.90495     3.29946    -2.33307
 F     1.90495     5.49910    -3.88845
Cd     3.80989     2.19964    -6.22153
Cd    -0.00000     2.19964    -6.22153
Cd     1.90495    -1.09982    -6.22153
Cd     1.90495     1.09982    -3.11076
 F     3.80989     2.19964    -8.55460
 F     3.80989     2.19964    -3.88845
 F     3.80989     4.39928    -5.44384
 F     3.80989    -0.00000    -6.99922
 F     5.71484     1.09982    -5.44384
 F     1.90494     3.29946    -6.99922
 F     1.90495     1.09982    -5.44383
 F     5.71484     3.29946    -6.99922
Cd     3.80989     2.19964     3.11076
Cd     0.00000     2.19964     3.11076
Cd     1.90495    -1.09982     3.11076
Cd     1.90495     1.09982     6.22153
 F     3.80989     2.19964     0.77769
 F     3.80989     2.19964     5.44384
 F     3.80989     4.39928     3.88845
 F     3.80989    -0.00000     2.33307
 F     5.71484     1.09982     3.88845
 F     1.90495     3.29946     2.33307
 F     1.90495     1.09982     3.88845
 F     5.71484     3.29946     2.33307
Cd     7.61978    -0.00000    -0.00000
Cd     3.80989     0.00000     0.00000
Cd     5.71484    -3.29946    -0.00000
Cd     5.71484    -1.09982     3.11076
 F     7.61978    -0.00000    -2.33307
 F     7.61978    -0.00000     2.33307
 F     7.61978     2.19964     0.77769
 F     7.61978    -2.19964    -0.77769
 F     9.52473    -1.09982     0.77769
 F     5.71484     1.09982    -0.77769
 F     5.71484    -1.09982     0.77769
 F     9.52473     1.09982    -0.77769
Cd     3.80989     6.59892    -0.00000
Cd    -0.00000     6.59893     0.00000
Cd     1.90495     3.29946     0.00000
Cd     1.90495     5.49910     3.11076
 F     3.80989     6.59892    -2.33307
 F     3.80989     6.59893     2.33307
 F     3.80989     8.79857     0.77769
 F     3.80989     4.39928    -0.77769
 F     5.71484     5.49910     0.77769
 F     1.90494     7.69875    -0.77769
 F     1.90495     5.49910     0.77769
 F     5.71484     7.69875    -0.77769
Cd     7.61978     4.39928    -3.11076
Cd     3.80989     4.39928    -3.11076
Cd     5.71484     1.09982    -3.11076
Cd     5.71484     3.29946     0.00000
 F     7.61978     4.39928    -5.44384
 F     7.61978     4.39928    -0.77769
 F     7.61978     6.59892    -2.33307
 F     7.61978     2.19964    -3.88845
 F     9.52473     3.29946    -2.33307
 F     5.71484     5.49910    -3.88845
 F     5.71484     3.29946    -2.33307
 F     9.52473     5.49910    -3.88845
