  144
 
Ca     0.00000     0.00000     0.00000
Ca     0.23747     2.69688     2.84488
Ca     5.74165     2.23401     1.62322
Ca     2.39664    -4.97658    -1.22166
Ca    -3.57705    -0.86389    -1.54037
Ca    -3.81452    -3.56077    -4.38525
Ca    -9.31870    -3.09790    -3.16359
Ca    -5.97370     4.11269    -0.31871
 O    -2.47818     0.48478     0.04733
 O    -1.29434     1.72154     1.39277
 C    -2.20281     1.62219     0.90161
 H    -3.18849     1.74474     1.32336
 O    -1.09977     4.83889     2.89221
 O     0.36448     1.77901    -1.45211
 C     0.13309     2.66312    -1.94327
 H    -0.33316     3.54016    -1.52152
 O     6.36144     0.58594     3.43385
 O     2.74122    -7.24375    -1.60577
 C     3.07821    -8.20056    -1.38805
 H     3.01580    -8.71365    -0.44079
 O     4.15738    -4.96743     0.58897
 O     2.20294    -5.67365     1.23911
 C     3.21700    -5.64700     1.45683
 H     3.67404    -5.40560     2.40409
 O    -1.09887    -1.34867    -1.58770
 O    -2.28272    -2.58543    -2.93314
 C    -1.37425    -2.48608    -2.44198
 H    -0.38857    -2.60864    -2.86374
 O     1.10519     4.20469     1.25718
 O    -3.94153    -2.64290    -0.08826
 C    -3.71014    -3.52701     0.40290
 H    -3.24390    -4.40405    -0.01885
 O     5.83752     0.06280     0.71554
 O    -6.31828     6.37986     0.06540
 C     5.53828    -1.05818    -0.15232
 H     5.60068    -0.54509    -1.09959
 O     4.45911    -4.29131    -2.12934
 O    -5.77999     4.80976    -2.77948
 C     5.39948    -3.61174    -2.99720
 H     4.94245    -3.85313    -3.94447
 O     2.01066    -0.57448    -1.23556
 O     1.96061    -2.72658    -0.70705
 C     2.40102    -1.76350    -1.34303
 H     3.24032    -1.91398    -2.05024
 O     1.49166     1.02362     1.60932
 O     3.48419     1.83839     2.13783
 C     2.74169     1.08329     1.50185
 H     3.18178     0.35295     0.79464
 O     3.66093     4.47631     4.99923
 O     1.68378     3.65095     4.43088
 C     2.77451     4.16630     4.16505
 H     3.01272     4.42966     3.11571
 O    -0.44055    -3.83306     2.15435
 O    -0.37511    -1.69156     1.58600
 C    -0.46729    -2.89438     1.32017
 H    -0.62830    -3.21088     0.27083
 O    -5.58771    -0.28941    -0.30481
 O    -5.53766     1.86269    -0.83332
 C    -5.97807     0.89961    -0.19734
 H    -6.81737     1.05009     0.50986
 O    -5.06871    -1.88752    -3.14969
 O    -7.06124    -2.70228    -3.67820
 C    -6.31875    -1.94718    -3.04222
 H    -6.75883    -1.21684    -2.33502
 O    -7.23798    -5.34020    -6.53961
 O    -5.26084    -4.51484    -5.97126
 C    -6.35157    -5.03019    -5.70542
 H    -6.58977    -5.29356    -4.65608
 O    -3.13651     2.96917    -3.69473
 O    -3.20194     0.82767    -3.12638
 C    -3.10977     2.03049    -2.86054
 H    -2.94875     2.34699    -1.81120
Ca     2.19710    -1.51263    -5.68976
Ca     2.43456     1.18425    -2.84488
Ca     7.93875     0.72138    -4.06654
Ca     4.59374    -6.48921    -6.91142
Ca    -1.37996    -2.37652    -7.23013
Ca    -1.61742    -5.07340   -10.07502
Ca    -7.12161    -4.61053    -8.85336
Ca    -3.77660     2.60007    -6.00848
 O    -0.28108    -1.02785    -5.64243
 O     0.90276     0.20891    -4.29699
 C    -0.00571     0.10956    -4.78816
 H    -0.99139     0.23212    -4.36640
 O     1.09733     3.32626    -2.79755
 O     2.56157     0.26638    -7.14187
 C     2.33018     1.15049    -7.63304
 H     1.86394     2.02753    -7.21128
 O     8.55854    -0.92669    -2.25591
 O     4.93832    -8.75638    -7.29553
 C     5.27530    -9.71319    -7.07781
 H     5.21290   -10.22627    -6.13055
 O     6.35448    -6.48006    -5.10079
 O     4.40004    -7.18628    -4.45065
 C     5.41410    -7.15963    -4.23293
 H     5.87113    -6.91823    -3.28567
 O     1.09822    -2.86130    -7.27746
 O    -0.08562    -4.09806    -8.62290
 C     0.82285    -3.99870    -8.13174
 H     1.80853    -4.12126    -8.55350
 O     3.30229     2.69207    -4.43258
 O    -1.74444    -4.15553    -5.77802
 C    -1.51304    -5.03964    -5.28686
 H    -1.04680    -5.91668    -5.70862
 O     8.03462    -1.44983    -4.97422
 O    -4.12118     4.86724    -5.62436
 C     7.73538    -2.57081    -5.84208
 H     7.79778    -2.05772    -6.78935
 O     6.65620    -5.80394    -7.81910
 O    -3.58290     3.29714    -8.46924
 C     7.59658    -5.12437    -8.68696
 H     7.13955    -5.36576    -9.63423
 O     4.20776    -2.08711    -6.92532
 O     4.15770    -4.23921    -6.39681
 C     4.59811    -3.27613    -7.03279
 H     5.43742    -3.42661    -7.74000
 O     3.68875    -0.48900    -4.08044
 O     5.68128     0.32576    -3.55193
 C     4.93879    -0.42934    -4.18791
 H     5.37887    -1.15968    -4.89512
 O     5.85803     2.96368    -0.69053
 O     3.88088     2.13832    -1.25888
 C     4.97161     2.65368    -1.52471
 H     5.20981     2.91704    -2.57405
 O     1.75655    -5.34569    -3.53541
 O     1.82198    -3.20418    -4.10376
 C     1.72981    -4.40701    -4.36959
 H     1.56880    -4.72351    -5.41893
 O    -3.39062    -1.80204    -5.99457
 O    -3.34056     0.35006    -6.52308
 C    -3.78097    -0.61302    -5.88710
 H    -4.62028    -0.46254    -5.17990
 O    -2.87161    -3.40014    -8.83945
 O    -4.86415    -4.21491    -9.36796
 C    -4.12165    -3.45981    -8.73198
 H    -4.56173    -2.72947    -8.02478
 O    -5.04089    -6.85282   -12.22937
 O    -3.06374    -6.02747   -11.66102
 C    -4.15447    -6.54282   -11.39519
 H    -4.39267    -6.80618   -10.34585
 O    -0.93941     1.45654    -9.38449
 O    -1.00484    -0.68496    -8.81614
 C    -0.91267     0.51786    -8.55030
 H    -0.75165     0.83437    -7.50096
