   54
 
Ca     0.00000     0.00000     0.00000
 I    -1.95476     2.28113     0.79104
 I     1.92997    -2.28369    -0.78677
Ca     1.94566    -1.66861    -3.83373
 I    -0.03887     0.56683    -3.07203
 I     3.85254    -3.95403    -4.67956
Ca     3.77586    -3.36212    -7.73149
 I     1.84678    -1.09186    -6.90298
 I     5.69166    -5.66848    -8.54934
Ca     0.18687     4.57957     0.84277
 I    -1.78010     6.86367     1.61371
 I     2.12187     2.29387     0.04879
Ca     2.07716     2.88126    -3.00919
 I     0.14396     5.16189    -2.22011
 I     4.05773     0.65244    -3.84022
Ca     3.93222     1.24810    -6.89562
 I     1.96909     3.48801    -6.07175
 I     5.89564    -1.04859    -7.69516
Ca     0.34597     9.13398     1.66029
 I    -1.59271    11.41779     2.50995
 I     2.33980     6.87169     0.87795
Ca     2.31182     7.43768    -2.17589
 I     0.35945     9.72500    -1.39192
 I     4.25077     5.16194    -2.97876
Ca     4.11108     5.74839    -6.03322
 I     2.17529     8.02349    -5.23191
 I     6.10966     3.48765    -6.87149
Ca     4.96136    -0.47675     2.71515
 I     2.98753     1.80145     3.55451
 I     6.88583    -2.77871     1.92858
Ca     6.79594    -2.12136    -1.10775
 I     4.81064     0.12474    -0.33145
 I     8.68236    -4.44119    -1.92598
Ca     8.73413    -3.80917    -4.97092
 I     6.71152    -1.56487    -4.17502
 I    10.62183    -6.15181    -5.82857
Ca     5.12902     4.07457     3.58428
 I     3.12593     6.34283     4.35328
 I     7.07640     1.82105     2.75504
Ca     6.95188     2.42464    -0.30546
 I     4.96066     4.64286     0.52257
 I     8.91266     0.17565    -1.10837
Ca     8.81854     0.74493    -4.18122
 I     6.86626     3.00514    -3.36605
 I    10.83556    -1.51145    -4.92372
Ca     5.22158     8.68175     4.38269
 I     3.31887    10.99980     5.18797
 I     7.18325     6.42927     3.56643
Ca     7.05248     6.97755     0.48961
 I     5.20223     9.31092     1.33821
 I     9.04328     4.74914    -0.28705
Ca     8.97097     5.31753    -3.36290
 I     7.10828     7.63590    -2.55000
 I    10.94542     3.04020    -4.14002
