   58
 
 P     0.00000     0.00000     0.00000
Ca    -3.12802    -0.76444    -1.65155
Ca    -1.02159     5.64012    -1.65155
Ca    -0.76068     0.91445     3.42065
Ca     5.97353    -1.52565     0.65011
Ca     2.33634    -0.85646     1.95631
Ca     3.36125     1.06646    -1.05672
Ca    -3.98110     2.86201    -3.40080
 P     5.51754     0.15565     3.32208
 P     1.62991     0.08835     5.51096
 P    -5.54567     4.25808    -0.49885
 P     4.92582    -0.32962    -3.95867
 P     7.02216     1.43954    -0.65551
 P     4.44213     4.18419     0.13707
 P    -3.58447     1.03390     1.32718
 P    -1.35221    -2.48518     3.56678
 P     1.28229     1.68536    -3.78070
 P    -1.90215     2.24310    -0.67682
 P    -3.77426    -4.07739    -1.33266
 O    -3.18490     6.35909    -2.25695
 O     1.40263     0.19548     4.02605
 O    -5.32305    -1.49216    -1.45767
 O     1.54880    -2.58522     0.12501
 O     4.55754    -0.88167     2.75050
 O     3.75233    -1.50044    -0.14407
 O     2.32129    -1.36798     5.65514
 O     5.98859    -1.01412    -3.04871
 O    -4.65108     3.46835    -1.34675
 O     4.03122     0.46011    -3.11078
 O    -3.79406     2.62264    -5.78215
 O     3.17421     1.30582     1.32463
 O     6.77769     2.31089    -1.94206
 O     5.84902     0.68673    -4.80300
 O     5.76744     0.69193    -0.37715
 O     2.54243    -3.07404     2.98357
 O    -4.44479     0.56166    -3.51880
 O     3.82493     3.36680    -0.93873
 O    -5.14804     1.26713     1.19473
 O     3.36576     5.28744     0.57437
 O    -3.12241     1.13589     2.73573
 O    -1.81428    -2.58717     2.15823
 O    -3.35412    -0.26765     0.63341
 O    -1.58256    -1.18363     4.26055
 O    -2.93721     2.24925     0.55449
 O     2.31737     1.67921    -5.01202
 O    -0.28993     2.91574     2.62160
 O    -1.49236     3.63882    -0.85251
 O     1.90138     2.43760    -2.65290
 O    -2.52123     1.49087    -1.80462
 O     0.07702     2.47817    -4.36571
 O    -0.69687     1.45028    -0.09181
 O    -1.98030     3.78068    -3.86519
 O     1.36044     0.14778    -0.59234
 O    -1.82859     6.85985     0.28411
 O     0.04631    -0.30529     1.48499
 O    -2.92747    -3.07680    -0.53671
 O    -0.84679    -1.00059    -0.79595
Ca    -0.64623    -3.31294     0.31889
