  256
 
Ni     0.00000     0.00000     0.00000
 S    12.41292    -0.26994    -0.24859
 S    13.26471     2.77973     0.60951
 S    10.71659     3.48998    -1.74429
 S     9.32250     1.06039     0.03979
 O    14.26233    -0.86269     1.51873
 O    15.34783     1.51924     1.60912
 O     8.20729     3.96210    -2.31276
 O     7.15367     2.45346    -0.41138
 C    13.69647     0.01095     0.85994
 C    14.22689     1.44030     1.08722
 C     8.98786     3.31463    -1.62760
 C     8.35369     2.31165    -0.63375
Ni    11.44084     1.80659    -0.39385
Ni    -6.72080     7.38769    -3.52648
 S     5.35246    -6.83073     1.73087
 S     7.14221    -5.70370     4.25809
 S    -5.58962     6.74442    -1.65654
 S    -7.43744     5.29062    -4.03626
 O     4.63056    -4.33336     1.58813
 O     6.35002    -3.38943     3.33660
 O    -4.95993     4.27097    -1.16320
 O    -6.93137     3.17241    -2.55738
 C     5.35775    -5.16487     2.14142
 C     6.28805    -4.61341     3.24433
 C    -5.66540     5.02733    -1.82724
 C    -6.67892     4.35259    -2.78640
 S    -0.66849     1.97219    -0.95673
 S    -2.11759    -0.88080    -0.26169
 S     0.70689    -2.13678     0.53255
 S     1.92230     0.90380     0.86752
 O    -3.08657     2.64271    -1.69339
 O    -4.29001     0.42018    -0.90905
 O     2.73660    -2.66152     2.13564
 O     4.05229    -0.45113     1.56673
 C    -2.37029     1.77910    -1.20806
 C    -3.06686     0.46203    -0.80343
 C     2.16307    -1.85482     1.40129
 C     2.84392    -0.47620     1.29860
Ni    18.60739    -5.69355     3.10562
 S    20.66848    -6.68333     3.25390
 S    17.55235    -7.72181     3.41136
 S    16.74758    -4.89958     2.02164
 S    19.32268    -3.53625     3.50384
 O     7.06444     5.97088    -1.31860
 O     4.59023     5.34163    -2.06867
 O    16.10726    -2.42634     1.55910
 O    18.13634    -1.29319     2.78484
 C     6.51486     6.74136    -2.11087
 C     5.01782     6.45066    -2.38721
 C    16.90051    -3.18988     2.10546
 C    18.09754    -2.52055     2.81540
 O     4.42287     2.86872    -0.37352
 O    -5.33847     0.63133    -3.34338
 O     6.64613    -1.36055     1.21317
 O    17.09443     1.30554     3.91614
 O     2.07439     4.66156    -1.12903
 O    -4.17494    -1.77568    -3.62340
 O     0.72445     5.61991     0.99024
 O    -5.91572    -0.95906     0.72585
Ca     6.18059     3.99467    -1.54448
Ca    -5.21588     2.20764    -1.68883
Ca     4.86310    -2.32439     2.25460
Ca    16.30469    -0.37116     2.08516
 O     6.29702     4.80386    -3.88315
 O    -5.15154     2.50023     0.59512
 O     4.20057    -2.74853     4.54421
 O    16.66646    -0.75092    -0.24573
 O     6.05075     4.50317     0.77334
 O    -4.64921     3.25532    -3.70846
 O     5.11803    -2.74074    -0.35887
 O    15.85805    -1.12844     4.12844
 O     5.71226     1.92142    -2.48370
 O    -7.13680     1.17305    -0.35344
 O     5.87472    -0.77541     3.71971
 O    17.80926     1.14782     1.09506
 O     5.24984     1.90739     2.01863
 O     0.19786    -5.90296     1.20494
 O     6.12255    -0.43065    -1.25696
 O    10.75053     7.14637    -2.06091
 H    -4.98233    -0.27542    -3.34311
 H    -5.35595     0.85314    -4.29187
 H     7.48858    -1.79326     0.97189
 H     6.54008    -0.69935     0.50046
 H    -5.90365     2.52750     1.20582
 H    -4.51284     3.07390     1.06608
 H     3.42391    -3.22643     4.87279
 H     4.89160    -2.94933     5.19263
 H    -4.90731     2.88940    -4.58088
 H    -3.76352     3.62037    -3.87655
 H     4.42915    -3.16985    -0.91095
 H     5.91584    -3.24841    -0.56424
 H    -6.83741     0.32221     0.05781
 H    -7.91449     0.91903    -0.87505
 H     6.78292    -1.04061     3.98867
 H     6.00723     0.13138     3.39635
 H     4.32751     1.92374    -0.59742
 H     4.50986     2.82664     0.60364
 H    16.70409     2.21073     3.85328
 H     2.70668     4.00770    -0.78944
 H     2.66796     5.32843    -1.51016
 H    -4.46223    -2.49767    -3.06352
 H    -3.85770    -2.15677    -4.44147
 H     1.40254     5.56203     1.66099
 H     1.12013     5.23277     0.19124
 H    -6.12223    -1.63295     0.05145
 H    -5.20262    -0.41613     0.34127
 H     5.72189     4.62056    -4.66001
 H     7.17388     4.83610    -4.28900
 H    17.08208    -0.16216    -0.88029
 H     6.54881     5.21783     1.21300
 H    15.23337    -1.85259     4.33695
 H    15.91185    -0.64126     4.96605
 H     5.80827     1.06124    -2.02679
 H     5.09057     1.76807    -3.20703
 H    17.73988     2.09497     1.35110
 H     4.76656     1.07243     1.85650
 H     6.10588     1.78203     1.57242
 H    -0.68921    -5.57115     1.06089
 H     0.51314    -6.24446     0.35292
 H     5.53448    -1.20312    -1.08034
 H     6.90215    -0.80440    -1.67468
 H    10.07746     6.52506    -1.76424
 H    11.59364     6.81218    -1.73939
 H    18.04967     1.45592     3.99112
 H    16.16382    -1.37847    -0.79436
 H     6.14871     3.77574     1.40940
 H    18.76796     0.99077     1.05089
Ni    -2.87819     0.82834     8.68590
 S     9.65915     0.19730     7.96938
 S    10.12226     3.01192     9.68563
 S     8.37945     4.08861     6.90539
 S     6.39982     1.70229     8.07740
 O    11.89779    -0.42089     9.19302
 O    12.58788     2.13725     9.60721
 O     6.18136     4.82482     5.71321
 O     4.54898     3.18874     6.96621
 C    11.08481     0.45330     8.91747
 C    11.39429     1.87531     9.43247
 C     6.70207     4.04932     6.51700
 C     5.75295     3.01750     7.16766
Ni     8.61092     2.20554     8.17953
Ni    -9.63829     8.32345     4.90947
 S     1.04757    -5.50838    11.18336
 S     4.36476    -5.22708    11.48697
 S    -7.56226     7.41442     5.14388
 S   -10.72050     6.31386     5.12633
 O     1.52263    -3.45610     9.60931
 O     3.83044    -2.77447    10.71487
 O    -7.29384     5.14355     6.41851
 O    -9.44186     4.00636     5.35198
 C     1.94387    -4.19976    10.49639
 C     3.40891    -3.91166    10.90489
 C    -8.01090     5.84832     5.70892
 C    -9.38294     5.22638     5.37480
 S    -3.69069     2.96715     8.47768
 S    -4.70819    -0.12189     7.73852
 S    -2.21817    -0.60817    10.31298
 S    -0.75951     1.28236     8.01026
 O    -5.52766     3.50625     6.66938
 O    -6.84145     1.24882     7.08175
 O     0.22200    -1.50459    10.60033
 O     1.35268    -0.02654     8.74502
 C    -5.00999     2.67042     7.40810
 C    -5.64438     1.27079     7.37661
 C    -0.51878    -0.73752     9.99932
 C     0.14552     0.14040     8.91500
Ni    15.05244    -4.85989    11.87370
 S    16.80399    -6.10494    12.63203
 S    13.51456    -6.46529    12.42009
 S    14.09123    -4.09421     9.95864
 S    15.67798    -2.77458    12.55782
 O     4.72095     6.95220     5.76945
 O     2.37443     5.98829     4.96738
 O    14.09913    -1.61412     9.14825
 O    15.09647    -0.55004    11.32978
 C     3.92114     7.73919     5.28005
 C     2.48816     7.20421     5.06460
 C    14.37397    -2.40689    10.05574
 C    15.03951    -1.77999    11.30780
 O     2.02274     4.30287     6.82732
 O    -8.12723     1.11552     4.80346
 O     4.27130    -0.77234     9.03748
 O    14.21433     1.89103    11.66425
 O    -0.08346     4.95453     8.95484
 O    -7.47948    -1.47995     4.43650
 O    -1.68256     6.08519    10.79953
 O    -8.55788    -0.22417     8.52706
Ca     4.05389     4.87022     5.71071
Ca    -7.68239     3.03103     6.21694
Ca     2.29331    -1.45301     9.99523
Ca    13.78849     0.38465     9.92455
 O     4.49732     5.31776     3.46268
 O    -8.19658     3.52025     8.47354
 O     1.97186    -2.22572    12.33690
 O    13.54887     0.44633     7.36664
 O     4.23402     5.61683     7.99318
 O    -6.97735     3.48763     4.09094
 O     2.47083    -2.04246     7.61375
 O    12.10413     0.30648    11.60994
 O     4.36362     2.73574     4.43315
 O    -9.51336     1.79357     7.02503
 O     2.80794     0.71185    10.73365
 O    15.53763     1.35680     8.65891
 O     2.57597     2.36231     8.60067
 O    -3.88772    -4.20632    10.26938
 O     3.99201    -0.18811     6.41410
 O     8.22580     8.37894     7.11727
 H    -7.90413     0.17669     4.92433
 H    -8.09631     1.21776     3.83758
 H     5.15741    -1.03180     9.33451
 H     4.36516    -0.46496     8.11746
 H    -8.60958     2.83575     9.01744
 H    -7.70125     4.05946     9.11299
 H     1.08752    -2.35203    12.71282
 H     2.54140    -2.07824    13.11094
 H    -7.26358     3.00831     3.29283
 H    -6.31384     4.10571     3.75490
 H     1.75827    -2.30426     6.99961
 H     3.16435    -2.67784     7.36136
 H    -9.33259     1.01935     7.60797
 H   -10.04310     1.40057     6.30937
 H     3.61744     0.78997    11.26450
 H     2.89397     1.42777    10.06355
 H     1.18324     4.30147     6.33947
 H     2.01046     3.50329     7.39622
 H    13.89011     2.81428    11.68385
 H     0.32063     4.08648     9.05621
 H     0.59756     5.47679     8.50975
 H    -7.98197    -2.30105     4.55265
 H    -7.22492    -1.45344     3.51317
 H    -2.36825     5.42928    10.98564
 H    -1.08181     5.68862    10.14239
 H    -8.84651    -0.95542     7.95133
 H    -7.80812     0.18096     8.06485
 H     4.51656     4.65986     2.75400
 H     5.16256     5.95905     3.15468
 H    12.91029    -0.20870     7.01034
 H     4.91795     5.94684     8.59845
 H    11.39426    -0.32711    11.73764
 H    12.16011     0.74998    12.48852
 H     4.18007     1.89352     4.87216
 H     4.74576     2.50373     3.58222
 H    15.42299     2.30411     8.43859
 H     2.24024     1.49644     8.31653
 H     3.40672     2.49888     8.10968
 H    -4.72773    -4.17720     9.79291
 H    -3.20063    -4.26856     9.60721
 H     3.21400    -0.70377     6.69096
 H     4.34099    -0.65251     5.64737
 H     9.05255     7.96334     7.40297
 H     8.47141     8.88463     6.30551
 H    14.91065     1.85469    12.32465
 H    14.32936     0.23630     6.81241
 H     3.51895     5.36854     8.59704
 H    15.87723     0.99541     7.81987
