  112
 
Ca     0.00000     0.00000     0.00000
Ca    -6.49958     1.05981     1.64142
Ca     0.91741     3.98687     0.25518
Ca    -3.27819    -0.14842     4.28932
Ca    -3.29750     0.30822     0.67833
Ca    -1.08806     2.08698     2.34327
Ca    -0.52144     0.33168    -3.66806
Ca     1.92866     1.96866    -2.24275
Si    -2.30808    -1.89565    -1.70950
Si     2.07477    -1.41797    -1.68529
Si    -1.50897     2.46000    -1.24045
Si    -5.90368     1.97856    -1.23333
 O    -1.92988    -0.86663    -0.58298
 O     3.60771    -1.07446    -1.60994
 O    -1.91580     1.44510    -2.38757
 O     3.65814     1.06975    -3.18971
 O    -1.49434    -3.32042    -1.52603
 O     1.14738    -0.07720    -1.86114
 O    -1.99638    -0.11832     2.57407
 O    -4.98114     0.62654    -1.09362
 O     3.28609     1.84176     0.19213
 O     1.06868     1.60773    -4.28818
 O    -1.85757     1.87281     0.23846
 O    -4.77687    -1.11342     1.18974
 O    -3.88014    -2.14767    -1.72267
 O    -4.50646     1.67096     2.03591
 O     0.48143    -0.88348     2.35419
 O     0.70910    -1.16430    -4.93464
Ca     4.75523     3.42685     3.04368
Ca    -1.76660     4.38225     4.64292
Ca     5.66596     7.46746     3.31477
Ca     1.44053     3.04369     7.30286
Ca     1.41706     3.74792     3.81204
Ca     3.77334     5.46042     5.45039
Ca     4.21905     3.72849    -0.61376
Ca     6.76566     5.38130     0.97330
Si     2.46070     1.55593     1.54727
Si     6.94868     1.83766     1.55155
Si     3.25224     5.88002     1.79202
Si    -1.21030     5.51698     1.90865
 O     2.78825     2.66264     2.64715
 O     8.65762     1.94171     2.10761
 O     2.92701     4.75200     0.72034
 O     8.46638     4.35084     0.04122
 O     2.93051     0.14727     2.24585
 O     6.29395     3.24560     1.55287
 O     2.96267     3.44131     5.64602
 O    -0.26130     4.19792     2.01327
 O     7.72615     5.46047     3.07619
 O     6.00189     4.93003    -1.14583
 O     2.53546     5.64062     3.22628
 O    -0.33407     2.61505     4.49075
 O     0.88887     1.61182     1.23610
 O     0.63846     5.28305     5.12613
 O     4.81531     1.79278     4.51440
 O     5.40047     2.24964    -1.68263
Ca    -0.62811     3.94744    -3.96026
Ca    -6.98486     4.80521    -2.28530
Ca     0.29128     7.89164    -3.51504
Ca    -3.70422     3.74453     0.47443
Ca    -3.81448     4.12929    -3.04977
Ca    -1.67433     5.99338    -1.43771
Ca    -1.22580     4.24826    -7.47020
Ca     1.22060     5.88344    -5.95298
Si    -2.85841     1.98540    -5.57162
Si     1.52324     2.45648    -5.58108
Si    -2.19889     6.40523    -5.01904
Si    -6.59095     6.02277    -5.17996
 O    -2.50966     3.03651    -4.43470
 O     3.03408     2.84799    -5.40689
 O    -2.57999     5.35277    -6.14803
 O     2.82843     5.08026    -7.12043
 O    -1.86259     0.68404    -5.52020
 O     0.51484     3.72764    -5.78038
 O    -2.39311     3.84278    -1.35348
 O    -5.88871     4.64371    -4.93815
 O     0.95256     5.52606    -3.72633
 O     0.31587     5.67646    -7.99873
 O    -2.26741     5.63884    -3.57634
 O    -5.41553     2.71706    -2.59108
 O    -4.34159     1.46850    -5.28284
 O    -5.00938     5.67868    -1.98986
 O     0.05211     2.77940    -1.36565
 O    -0.24718     2.76985    -8.83184
Ca     4.17097     7.37326    -0.79906
Ca    -2.26880     8.28040     0.88148
Ca     5.07024    11.33859    -0.34521
Ca     1.02242     7.09823     3.69146
Ca     0.87214     7.52197    -0.02850
Ca     3.20710     9.36345     1.62023
Ca     3.56894     7.65035    -4.25488
Ca     6.05145     9.30802    -2.85108
Si     1.86318     5.42720    -2.41009
Si     6.43861     5.87094    -2.40125
Si     2.60229     9.84218    -1.91065
Si    -2.02386     9.41375    -1.98354
 O     2.98709     6.55514    -2.49595
 O     7.97956     6.24409    -2.32206
 O     1.42113     8.77918    -1.73227
 O     7.61882     8.74427    -4.44987
 O     2.72344     4.02984    -2.30393
 O     5.58605     7.23809    -2.40881
 O     2.73024     7.27987     1.10824
 O    -1.14710     8.07181    -1.99586
 O     6.71519     9.59345    -0.75847
 O     5.28519     8.65224    -4.97391
 O     3.54244     9.75272    -0.60931
 O    -0.85849     6.47730     0.66297
 O     0.84952     5.63029    -1.17678
 O    -0.13364     9.17819     1.16711
 O     4.84353     5.86100     2.03553
 O     4.54471     6.06746    -5.51961
