  144
 
Ca     0.00000     0.00000     0.00000
Ca    -3.67198     0.50605    -0.53447
Ca    -2.24313    -3.36714    -0.16619
Ca    -1.46813     1.52686    -3.70886
 C     0.34554     1.90871    -1.48318
 C     0.40680     2.80270    -2.30723
 C    -1.87656    -1.37133    -1.52197
 C    -1.81856    -0.40576    -2.26135
 C    -0.58531    -2.40651     1.28643
 C     0.49570    -2.00352     1.66339
 C     1.65570    -1.04825    -1.41567
 C     2.69867    -1.31886    -1.97660
Ca     3.57670    -4.91482     3.48307
Ca    -0.09434    -4.40952     2.94702
Ca     1.36586    -8.17724     3.48017
Ca     2.14307    -3.28481    -0.06515
 C     3.91546    -2.98271     2.02649
 C     4.03938    -2.07243     1.22671
 C     1.71324    -6.24838     2.02887
 C     1.77516    -5.28353     1.28879
 C     3.01824    -6.98786     5.18700
 C     4.05824    -7.32400     4.65272
 C     5.22279    -5.96531     2.02441
 C     6.23918    -6.30299     1.44892
Ca     0.00513     2.24473     3.18093
Ca    -3.66404     2.74997     2.64632
Ca    -2.23699    -1.12349     3.01554
Ca    -1.45851     3.76970    -0.52833
 C     0.34735     4.15456     1.69755
 C     0.40922     5.05056     0.87577
 C    -1.87161     0.87084     1.65845
 C    -1.80838     1.83727     0.92036
 C    -0.58336    -0.15929     4.46991
 C     0.50011     0.24025     4.84342
 C     1.66206     1.19779     1.76618
 C     2.70439     0.92576     1.20492
Ca     3.58318    -2.66908     6.66405
Ca    -0.08687    -2.16434     6.12749
Ca     1.37412    -5.93394     6.66105
Ca     2.14977    -1.04067     3.11681
 C     3.91893    -0.73609     5.20761
 C     4.04255     0.17481     4.40850
 C     1.72269    -4.00489     5.21116
 C     1.78250    -3.04020     4.47069
 C     3.03086    -4.73802     8.37337
 C     4.05887    -5.08683     7.82420
 C     5.23041    -3.71811     5.20648
 C     6.24446    -4.06008     4.62961
Ca     0.00884     4.48727     6.36335
Ca    -3.66117     4.99216     5.82864
Ca    -2.23279     1.12114     6.19727
Ca    -1.45873     6.01378     2.65211
 C     0.34954     6.39740     4.88029
 C     0.41212     7.29073     4.05566
 C    -1.86446     3.11706     4.84151
 C    -1.80487     4.08059     4.10025
 C    -0.57983     2.08416     7.65322
 C     0.50593     2.48058     8.02385
 C     1.66600     3.44228     4.94627
 C     2.71057     3.17172     4.38845
Ca     3.58626    -0.42640     9.84620
Ca    -0.08235     0.07772     9.30974
Ca     1.38140    -3.68863     9.84355
Ca     2.15394     1.20400     6.29734
 C     3.92139     1.50670     8.38895
 C     4.04769     2.41712     7.58963
 C     1.72865    -1.75941     8.39318
 C     1.78828    -0.79692     7.64983
 C     3.03515    -2.49456    11.55974
 C     4.06220    -2.84270    11.00823
 C     5.23496    -1.47419     8.38830
 C     6.24996    -1.81403     7.81182
Ca     4.43816     4.35211    -3.09338
Ca     0.73864     4.80381    -3.66706
Ca     2.21963     0.91437    -3.33753
Ca     2.98644     6.00649    -6.59764
 C     4.76640     6.30855    -4.51717
 C     4.89158     7.21672    -5.31883
 C     2.53452     2.91609    -4.69932
 C     2.63349     3.99313    -5.25819
 C     3.89299     1.89232    -1.88784
 C     4.91224     2.34479    -1.40460
 C     6.10337     3.31345    -4.49578
 C     7.14162     3.03526    -5.06184
Ca     8.06601    -0.56537     0.37758
Ca     4.36686    -0.11533    -0.19794
Ca     5.81188    -4.01250     0.12524
Ca     6.57823     1.07875    -3.13759
 C     8.39845     1.43410    -0.98309
 C     8.45948     2.32718    -1.80783
 C     6.16513    -1.99795    -1.21398
 C     6.26437    -0.92326    -1.77734
 C     7.46868    -3.05617     1.57820
 C     8.50683    -2.60890     2.01869
 C     9.73388    -1.60439    -1.02991
 C    10.74193    -1.95245    -1.61390
Ca     4.44414     6.59718     0.08818
Ca     0.74372     7.04969    -0.48568
Ca     2.22641     3.15905    -0.15485
Ca     2.99281     8.25082    -3.41565
 C     4.77146     8.55354    -1.33584
 C     4.89571     9.46312    -2.13605
 C     2.53980     5.16101    -1.51577
 C     2.64031     6.23790    -2.07469
 C     3.89523     4.14017     1.29751
 C     4.91933     4.58868     1.77415
 C     6.10819     5.55791    -1.31560
 C     7.14895     5.28203    -1.87798
Ca     8.07371     1.68022     3.55827
Ca     4.37253     2.13085     2.98414
Ca     5.81776    -1.76861     3.30718
Ca     6.58434     3.32338     0.04517
 C     8.41004     3.67941     2.19732
 C     8.46813     4.57130     1.37114
 C     6.16932     0.24604     1.96833
 C     6.27184     1.32251     1.40890
 C     7.47027    -0.80961     4.76204
 C     8.51139    -0.36431     5.19743
 C     9.73782     0.63768     2.14830
 C    10.75135     0.29516     1.57070
Ca     4.44923     8.83845     3.26959
Ca     0.74903     9.29097     2.69591
Ca     2.22876     5.40405     3.02647
Ca     2.99757    10.49476    -0.23589
 C     4.77408    10.79584     1.84703
 C     4.90077    11.70357     1.04496
 C     2.54691     7.40702     1.66761
 C     2.64680     8.48126     1.10353
 C     3.89910     6.38259     4.47896
 C     4.92596     6.82809     4.95281
 C     6.11544     7.80195     1.86519
 C     7.15617     7.52576     1.30315
Ca     8.07854     3.92097     6.74050
Ca     4.37859     4.37295     6.16443
Ca     5.82140     0.47670     6.48922
Ca     6.59193     5.56644     3.22487
 C     8.41057     5.91989     5.37909
 C     8.47342     6.81352     4.55516
 C     6.17780     2.49108     5.15197
 C     6.27844     3.56409     4.58558
 C     7.47562     1.43294     7.94481
 C     8.51874     1.87570     8.37836
 C     9.74581     2.88281     5.33012
 C    10.75638     2.53760     4.74886
