  152
 
 C     0.00000     0.00000     0.00000
 C     1.50017     0.00000     0.00000
 C     2.10936     1.39194     0.00000
 C     2.17741     2.03655     1.37643
 C     0.82303     2.29409     2.02884
 C     0.00826     1.04477     2.25765
 H     1.85875    -0.52353     0.76199
 H    -0.85059     1.23120     2.89969
 H    -1.69123     0.51812     1.11750
 H     1.73659    -0.52769    -0.84228
 H     3.11877     1.32098    -0.42047
 H     1.54427     2.00853    -0.70068
 H     2.69745     1.40500     1.99759
 H     2.71486     2.98795     1.29931
 H     1.01486     2.74270     2.94748
 H     0.31810     2.95491     1.42987
 H     0.61268     0.25303     2.71680
 N    -0.63321     0.52608     1.04206
 O    -0.63324    -0.47106    -0.95789
 C    -3.90388    -5.42736     7.96023
 C    -2.40371    -5.42736     7.96023
 C    -1.79452    -4.03542     7.96023
 C    -1.72647    -3.39082     9.33666
 C    -3.08085    -3.13327     9.98907
 C    -3.89562    -4.38259    10.21788
 H    -2.04512    -5.95089     8.72222
 H    -4.75446    -4.19616    10.85992
 H    -5.59510    -4.90924     9.07773
 H    -2.16728    -5.95505     7.11795
 H    -0.78510    -4.10638     7.53976
 H    -2.35960    -3.41883     7.25954
 H    -1.20643    -4.02236     9.95782
 H    -1.18902    -2.43941     9.25953
 H    -2.88902    -2.68466    10.90771
 H    -3.58578    -2.47245     9.39010
 H    -3.29120    -5.17433    10.67703
 N    -4.53709    -4.90128     9.00228
 O    -4.53712    -5.89842     7.00233
 C     3.91720     1.32117    -3.91261
 C     2.72091     0.41687    -3.91516
 C     1.39591     1.16013    -3.90970
 C     0.95061     1.63781    -5.28455
 C     1.87510     2.66211    -5.93452
 C     3.27810     2.15744    -6.16668
 H     2.75038    -0.21413    -4.67879
 H     3.85068     2.82637    -6.80791
 H     4.95279     2.75804    -5.02639
 H     2.85166    -0.14947    -3.07358
 H     0.63362     0.49339    -3.49203
 H     1.47632     1.99052    -3.20708
 H     0.91578     0.82256    -5.90847
 H    -0.05171     2.07253    -5.20479
 H     1.45052     2.90750    -6.85184
 H     1.88073     3.49187    -5.33353
 H     3.27326     1.16313    -6.63006
 N     4.10478     2.12649    -4.95157
 O     4.70752     1.32387    -2.95561
 C     0.01333    -4.10619     4.04761
 C    -1.18297    -5.01050     4.04506
 C    -2.50797    -4.26723     4.05052
 C    -2.95327    -3.78955     2.67567
 C    -2.02878    -2.76525     2.02570
 C    -0.62577    -3.26992     1.79355
 H    -1.15349    -5.64149     3.28143
 H    -0.05320    -2.60099     1.15231
 H     1.04891    -2.66932     2.93384
 H    -1.05221    -5.57683     4.88664
 H    -3.27025    -4.93397     4.46820
 H    -2.42756    -3.43684     4.75314
 H    -2.98810    -4.60480     2.05175
 H    -3.95559    -3.35483     2.75544
 H    -2.45336    -2.51986     1.10838
 H    -2.02315    -1.93549     2.62669
 H    -0.63062    -4.26423     1.33017
 N     0.20090    -3.30087     3.00866
 O     0.80364    -4.10349     5.00461
 C     2.21482    -1.87686    -7.91492
 C     0.71466    -1.87686    -7.91492
 C     0.10572    -3.26872    -7.91353
 C     0.03820    -3.91314    -9.29078
 C     1.39180    -4.17095    -9.94376
 C     2.20603    -2.92181   -10.17174
 H     0.35685    -1.35307    -8.67635
 H     3.06541    -3.10806   -10.81461
 H     3.90552    -2.39516    -9.03159
 H     0.47870    -1.34796    -7.07207
 H    -0.90316    -3.19757    -7.49388
 H     0.67134    -3.88513    -7.21367
 H    -0.48184    -3.28160    -9.91194
 H    -0.50057    -4.86499    -9.21340
 H     1.19997    -4.61956   -10.86240
 H     1.89673    -4.83178    -9.34479
 H     1.60293    -2.12963   -10.63115
 N     2.84882    -2.40268    -8.95641
 O     2.84831    -1.40572    -6.95563
 C    -4.16281     0.07200     0.05938
 C    -5.66298     0.07200     0.05937
 C    -6.27192    -1.31986     0.06076
 C    -6.33944    -1.96428    -1.31649
 C    -4.98584    -2.22208    -1.96947
 C    -4.17161    -0.97294    -2.19745
 H    -6.02078     0.59580    -0.70205
 H    -3.31223    -1.15920    -2.84032
 H    -2.47212    -0.44630    -1.05730
 H    -5.89894     0.60090     0.90222
 H    -7.28080    -1.24871     0.48041
 H    -5.70630    -1.93627     0.76062
 H    -6.85948    -1.33273    -1.93765
 H    -6.87821    -2.91613    -1.23910
 H    -5.17767    -2.67070    -2.88811
 H    -4.48091    -2.88291    -1.37049
 H    -4.77471    -0.18077    -2.65686
 N    -3.52882    -0.45381    -0.98212
 O    -3.52932     0.54315     1.01866
 C    -1.70291    -3.19821    -4.00148
 C    -0.50608    -2.29373    -3.99975
 C     0.81970    -3.03673    -4.00465
 C     1.26369    -3.51486    -2.62954
 C     0.33997    -4.53889    -1.97900
 C    -1.06249    -4.03404    -1.74768
 H    -0.53478    -1.66247    -3.23556
 H    -1.63507    -4.70297    -1.10644
 H    -2.73796    -4.63490    -2.88853
 H    -0.63691    -1.72636    -4.83995
 H     1.58120    -2.37025    -4.42289
 H     0.73929    -3.86712    -4.70727
 H     1.29851    -2.69960    -2.00562
 H     2.26653    -3.94939    -2.71013
 H     0.76430    -4.78436    -1.06308
 H     0.33488    -5.36847    -2.58082
 H    -1.05843    -3.03999    -1.28486
 N    -1.88970    -4.00327    -2.96196
 O    -2.49269    -3.20074    -4.95931
 C    -8.08055    -1.24935     3.97281
 C    -6.88372    -0.34486     3.97454
 C    -5.55794    -1.08786     3.96964
 C    -5.11395    -1.56599     5.34476
 C    -6.03766    -2.59002     5.99529
 C    -7.44013    -2.08517     6.22662
 H    -6.91241     0.28639     4.73873
 H    -8.01271    -2.75411     6.86785
 H    -9.11560    -2.68603     5.08576
 H    -7.01454     0.22251     3.13435
 H    -4.79644    -0.42139     3.55140
 H    -5.63835    -1.91826     3.26702
 H    -5.07913    -0.75074     5.96868
 H    -4.11111    -2.00053     5.26416
 H    -5.61333    -2.83550     6.91122
 H    -6.04276    -3.41961     5.39347
 H    -7.43607    -1.09113     6.68943
 N    -8.26734    -2.05440     5.01233
 O    -8.87033    -1.25187     3.01499
