  184
 
Bi     0.00000     0.00000     0.00000
 S   -15.38171    -5.14827    -0.24287
 S   -12.99982     1.07314    -0.24287
 S   -14.80619    -1.26151     2.61540
 O   -16.60999    -4.33659    -0.28693
 O   -15.37648    -5.91710     0.99597
 O   -15.26570    -5.99772    -1.40134
 O   -14.18969    -4.22227    -0.20954
 O   -14.32594     0.47945    -0.49638
 O   -13.00957     1.89501     0.98909
 O   -12.03458    -0.03090    -0.13724
 O   -13.90249    -1.91351     1.64558
 O   -15.97140    -0.71577     1.94180
 O   -13.40381    -0.88223    -3.11776
 O   -14.55541    -2.92866    -2.87356
 O   -12.62448     1.99273    -1.33387
 O   -16.03278    -1.82496    -0.58631
 H   -16.22576    -2.42247     0.04979
 H   -16.21240    -1.50040    -1.40461
Bi   -12.32781     4.13509     0.08427
Bi   -13.64157    -2.06523    -0.70568
 S    -8.88097     3.57910     0.83533
 S   -10.79477    -3.41296    -0.83794
 O    -8.76375     5.04736     0.86567
 O    -8.39179     3.04604     2.10097
 O    -8.18213     3.01344    -0.29186
 O   -10.34130     3.21297     0.72177
 O    -9.49358    -2.72688    -0.94695
 O   -11.54528    -2.95196     0.35299
 O   -10.52809    -4.85731    -0.77101
 O   -12.49725     4.33154     2.44159
 O   -13.18727     4.78358    -2.38857
 O   -10.89648     4.41430    -1.95274
 O   -11.65033    -3.09317    -1.99811
 O   -11.06205     6.15706     0.40716
 H   -10.53222     5.91166     1.08328
 H   -11.13471     6.53356    -0.40621
 S   -12.54204     5.40071     3.45810
 O   -12.19654     6.68351     2.86805
 S    -3.44693     0.55610    -0.75007
 S     2.89861    -1.41365    -0.26675
 S     0.21456    -1.26641    -3.37270
 O    -3.56415    -0.91217    -0.78041
 O    -3.93612     1.08915    -2.01571
 O    -4.14567     1.12166     0.37614
 O    -1.98661     0.92222    -0.63651
 O     1.59742    -2.09973    -0.15774
 O     3.64912    -1.87465    -1.45768
 O     2.63193     0.03070    -0.33369
 O     0.16934    -0.19634    -2.35633
 O    -0.13127    -2.54842    -2.78378
 O     0.85946    -0.64849     2.47284
 O    -1.43143    -0.27910     2.03800
 O     3.75427    -1.73354     0.89243
 O    -1.26586    -2.02187    -0.32190
 H    -1.79569    -1.77647    -0.99802
 H    -1.19310    -2.39847     0.49048
Bi     5.74540    -2.76137    -0.39902
 S     7.48565     0.32157    -0.86282
 S     0.67201     3.06195     0.32714
 O     8.71436    -0.49101    -0.81862
 O     7.48042     1.09039    -2.10165
 O     7.36954     1.17111     0.29665
 O     6.29363    -0.60443    -0.89614
 O     1.99803     3.65575     0.58164
 O     0.68177     2.24008    -0.90482
 O    -0.29322     4.16599     0.22151
 O     6.00643    -2.91320    -2.75126
 O     5.50765    -3.94438     2.01306
 O     6.65935    -1.89805     1.76788
 O     0.29657     2.14246     1.41913
 O     8.13672    -3.00175    -0.51937
 H     8.32970    -2.40423    -1.15547
 H     8.31624    -3.32620     0.29991
 S     6.91003    -3.56510    -3.72010
 O     8.07534    -4.11094    -3.04749
 O   -12.65592    -7.68389    -1.35558
 H   -11.82696    -8.03245    -1.37246
 H   -13.20310    -7.93716    -0.71022
 O    -3.86865     4.21402     0.48924
 H    -3.63641     5.07970     0.56589
 H    -4.34426     3.96917    -0.21176
 O     4.75986     2.85718     0.24989
 H     3.93090     3.20574     0.26678
 H     5.30704     3.11045    -0.39546
 O    -8.45915    -0.07892    -0.40497
 H    -8.69150    -0.94451    -0.48063
 H    -7.98365     0.16602     0.29702
 O   -14.74723    -8.60639     0.43978
 H   -14.89821    -7.75175     0.69580
 H   -15.26249    -9.29274     0.67832
 O    -6.38975     3.87152     4.96319
 H    -5.78892     3.23602     4.73208
 H    -7.22401     3.90043     4.64992
 O     6.17419     4.43187     4.94178
 H     6.32517     3.57723     4.68576
 H     6.68955     5.11812     4.70226
 O    -6.61494     0.91566     1.60734
 H    -7.21576     1.55116     1.83845
 H    -5.78078     0.88685     1.92160
 C   -12.08945    -6.43950     2.08467
 H   -12.25271    -7.12845     2.74721
 H   -12.67412    -6.60053     1.32850
 C   -12.38244    -5.08674     2.67492
 H   -11.75505    -4.90633     3.39420
 H   -12.26234    -4.40547     1.99451
 N   -10.68172    -6.48804     1.64737
 H   -10.57741    -5.98202     0.92331
 H   -10.45873    -7.32868     1.45606
 H   -10.15556    -6.18373     2.30018
 N   -13.76351    -5.02489     3.19754
 H   -14.33204    -5.24765     2.55232
 H   -13.93726    -4.19914     3.47531
 H   -13.84804    -5.59174     3.87824
 C    -2.91408     4.69260     3.65796
 H    -3.49517     5.01894     2.95421
 H    -3.46613     4.29986     4.35119
 C    -1.97731     3.65347     3.10337
 H    -1.38717     4.06620     2.45151
 H    -1.42938     3.29764     3.82077
 N    -2.12918     5.80932     4.21670
 H    -1.73157     5.54781     4.96855
 H    -2.67002     6.49510     4.39040
 H    -1.50963     6.06314     3.62733
 N    -2.72782     2.55320     2.46271
 H    -3.30947     2.21564     3.04423
 H    -2.16079     1.91904     2.20672
 H    -3.16406     2.86635     1.75316
 C     3.51651     2.26488     3.29590
 H     3.67967     2.95393     2.63435
 H     4.10108     2.42601     4.05307
 C     3.80950     0.91212     2.70565
 H     3.18201     0.73181     1.98736
 H     3.68940     0.23085     3.38606
 N     2.10868     2.31352     3.73419
 H     2.00436     1.80750     4.45825
 H     1.88569     3.15415     3.92550
 H     1.58252     2.00921     3.08138
 N     5.19046     0.85037     2.18402
 H     5.75910     1.07303     2.82825
 H     5.36432     0.02452     1.90526
 H     5.27510     1.41712     1.50233
 C   -10.09071     0.09468     2.91355
 H    -9.50952    -0.23176     3.61632
 H    -9.53855     0.48731     2.21934
 C   -11.02695     1.13282     3.46730
 H   -11.61752     0.72098     4.11902
 H   -11.57540     1.48964     2.75075
 N   -10.87508    -1.02303     2.35397
 H   -11.27311    -0.76063     1.60198
 H   -10.33467    -1.70792     2.18013
 H   -11.49505    -1.27596     2.94320
 N   -10.27644     2.23308     4.10796
 H    -9.69521     2.57154     3.52630
 H   -10.84399     2.86824     4.36480
 H    -9.84073     1.92093     4.81836
 C   -18.63589    -2.71868     2.37437
 H   -18.22420    -2.48448     1.52784
 H   -19.58892    -2.81960     2.23050
 N   -18.38861    -1.65148     3.36295
 H   -17.51627    -1.59795     3.53045
 H   -18.82383    -1.83823     4.11637
 H   -18.67571    -0.87439     3.03863
 C   -18.04879    -4.02998     2.88576
 H   -18.46048    -4.26418     3.73229
 H   -17.09576    -3.92906     3.02963
 N   -18.29607    -5.09718     1.89718
 H   -19.16841    -5.15071     1.72969
 H   -17.86086    -4.91043     1.14376
 H   -18.00887    -5.87437     2.22051
 C    -3.97361    -2.73356     2.94705
 H    -3.61412    -2.59192     3.83729
 H    -4.65035    -3.42645     3.00166
 N    -2.89562    -3.15513     2.03187
 H    -2.30440    -2.49568     1.94542
 H    -3.24156    -3.34893     1.23519
 H    -2.49000    -3.87448     2.36275
 C    -4.59943    -1.44096     2.43451
 H    -4.95892    -1.58260     1.54428
 H    -3.92269    -0.74807     2.37990
 N    -5.67742    -1.01939     3.34970
 H    -6.26864    -1.67884     3.43614
 H    -5.33148    -0.82559     4.14638
 H    -6.08304    -0.30004     3.01882
