   60
 
In     0.00000     0.00000     0.00000
 P     5.81188    -6.94777    -6.08019
 P     2.85213    -2.47503    -6.08019
 B     4.01458    -4.93999    -5.61755
 O     6.66306    -6.87092    -4.81849
 O     4.67102    -7.95881    -5.86363
 O     2.89437    -1.66117    -7.34280
 O     1.50075    -3.09583    -5.81045
 O     6.63755    -7.25307    -7.30703
 O     2.79070    -5.67244    -5.96044
 O     3.95885    -3.56376    -6.13620
 O     5.17741    -5.53330    -6.27905
 O     4.17854    -4.98827    -4.16661
 H     2.81060    -6.34599    -5.92705
In    -1.17141     1.08170    -4.93509
In    -4.14579    -2.42500    -2.26751
In    -2.97382    -3.50604     2.66708
 P     1.57846     0.48248    -3.03497
 P     4.53821    -3.99026    -3.03497
 B     3.37576    -1.52530    -3.49761
 O     0.72728     0.40563    -4.29667
 O     2.71932     1.49352    -3.25152
 O    -0.25554    -2.01448    -0.58420
 O     1.69783   -11.46483    -3.19782
 O     4.49597    -4.80413    -1.77235
 O    -0.07994    -5.16850    -4.67598
 O     1.52222    -8.31080     0.89396
 O     5.88959    -3.36946    -3.30471
 O     0.75279     0.78778    -1.80812
 O     4.59964    -0.79285    -3.15472
 O     3.43149    -2.90153    -2.97896
 O     2.21293    -0.93199    -2.83611
 O     3.21180    -1.47702    -4.94855
 H     4.57974    -0.11931    -3.18811
 P     2.83757   -10.45511    -3.41337
 P    -0.12162    -5.98171    -3.41387
 B     1.04027    -8.44733    -2.95073
 O     3.68875   -10.37826    -2.15167
 O    -1.47356    -6.60317    -3.14363
 O     3.66380   -10.75975    -4.64072
 O    -0.18361    -9.17978    -3.29362
 O     0.98454    -7.07110    -3.46938
 O     2.20366    -9.03998    -3.61273
 O     1.20479    -8.49495    -1.50029
 H    -0.16371    -9.85332    -3.26023
 P    -1.39585    -3.02486    -0.36815
 P     1.56390    -7.49760    -0.36815
 B     0.40201    -5.03198    -0.83129
 O    -2.24703    -3.10171    -1.62985
 O     2.91584    -6.87614    -0.63839
 O    -2.22152    -2.71956     0.85870
 O     1.62533    -4.30019    -0.48790
 O     0.45718    -6.40887    -0.31214
 O    -0.76138    -4.43933    -0.16929
 O     0.23750    -4.98436    -2.28173
 H     1.60599    -3.62598    -0.52179
Rb    -3.91210    -0.04124     1.35543
Rb    -0.93835     3.46544    -1.31089
Rb    -0.23306    -2.38374    -3.62421
Rb    -3.20737    -5.89108    -0.95739
