   82
 
Nb     0.00000     0.00000     0.00000
 P    -2.54245     0.62876     1.99432
 P     1.94565    -0.86500     2.46727
 F    -5.48095     0.03755     0.12400
 O    -2.43835     1.09369     3.48190
 O    -3.02816    -0.81306     1.91030
 O    -3.52234     1.72562     1.41402
 O    -4.52551     3.71362    -0.18909
 O    -1.13261     0.96174     1.36293
 O     2.61510    -2.21862     1.95016
 O     1.61033     0.11443     1.26636
 O     0.70289    -1.26286     3.29625
 O     2.91830    -0.08635     3.37443
 O    -3.75409     1.06807    -1.36620
 O     2.47491    -2.29683    -0.85672
Nb    -4.90086     1.99307     0.00450
 P    -2.33754     1.39339    -1.98932
 P     2.14042    -1.27788    -2.02580
 F     0.55477     1.96109    -0.11364
 O    -2.45431     0.93539    -3.48042
 O    -1.85275     2.83186    -1.89680
 O    -1.37683     0.27288    -1.41763
 O    -0.41658    -1.71086     0.22808
 O     1.44168     0.05326    -1.50165
 O     3.38326    -0.87042    -2.84724
 O     1.17562    -2.04241    -2.95818
 N    -3.28212     4.60537    -3.26927
 H    -2.36514     4.42804    -2.76411
 H    -3.92113     3.75683    -3.15956
 H    -3.71791     5.45559    -2.81265
 N    -5.33467     4.48997    -5.59174
 H    -6.10011     4.83024    -6.32437
 H    -5.77979     4.28968    -4.62370
 H    -4.94410     3.57045    -5.95455
 C    -3.00968     4.91458    -4.72130
 H    -2.66378     3.97381    -5.24975
 H    -2.15972     5.67868    -4.74518
 C    -4.21901     5.49679    -5.45091
 H    -4.60582     6.42394    -4.90630
 H    -3.89036     5.81414    -6.47621
 N    -6.65118     1.03261    -7.15337
 H    -7.56616     1.21019    -7.66312
 H    -6.01314     1.88227    -7.25819
 H    -6.21044     0.18328    -7.60909
 N    -4.60870     1.15410    -4.82716
 H    -3.84422     0.81493    -4.09230
 H    -4.16093     1.35731    -5.79388
 H    -5.00212     2.07250    -4.46316
 C    -6.93243     0.72621    -5.70351
 H    -7.27886     1.67066    -5.17988
 H    -7.78555    -0.03331    -5.68131
 C    -5.72251     0.14521    -4.97352
 H    -5.33384    -0.77819    -5.52378
 H    -6.05050    -0.17808    -3.95051
 N     0.81211     3.41159    -2.53885
 H     1.51932     3.27065    -1.77759
 H    -0.15755     3.55248    -2.14437
 H     1.10823     4.29869    -3.09029
 N     0.28248     2.89181    -5.89672
 H    -0.50435     3.22570    -6.56255
 H     0.75854     2.02749    -6.33824
 H     0.97270     3.73439    -5.79038
 C     0.75063     2.24192    -3.50185
 H     0.49536     1.30425    -2.91215
 H     1.76062     2.10496    -3.97009
 C    -0.31857     2.55055    -4.55837
 H    -1.03753     1.68274    -4.67408
 H    -0.93135     3.43930    -4.21986
 N    -1.76694    -1.87486    -7.41743
 H    -2.54181    -1.81075    -8.12222
 H    -0.81792    -1.93981    -7.88054
 H    -1.94564    -2.78277    -6.85068
 N    -1.23100    -1.38761    -4.09709
 H    -0.43146    -1.70790    -3.43844
 H    -1.74538    -0.55772    -3.62516
 H    -1.88099    -2.25191    -4.23813
 C    -1.72832    -0.69196    -6.47119
 H    -1.48759     0.24278    -7.07794
 H    -2.73704    -0.56145    -6.00250
 C    -0.64676    -0.94922    -5.41451
 H    -0.01538    -0.02418    -5.25302
 H     0.05513    -1.75460    -5.77841
