   30
 
Os     0.00000     0.00000     0.00000
Cl    -0.13388     5.00076     0.57621
Cl     1.01162     6.16028     4.98795
Cl    -1.06051    -2.14860    -0.73815
Cl    -0.09132     0.96046     2.40146
Cl    -1.56481     3.10179     3.27033
Cl    -1.59173     7.13388     2.13480
Cl    -1.85504    -1.01833     1.67969
Cl    -2.20815     1.36753    -0.31299
Os    -0.24506     5.32477     3.02147
Os     3.47453    -0.45348     0.76073
Cl     3.28558     4.09866     1.51321
Cl     3.59740     7.33527     4.95315
Cl     2.08390    -1.41122    -1.04038
Cl     3.35926    -1.34743     3.11292
Cl     1.21661     3.35020     3.20333
Cl     1.81590     6.60202     2.24472
Cl     1.09891    -1.59141     1.58642
Cl     2.02487     1.53227     0.79761
Os     3.18247     5.02902     3.92182
Os     6.13803    -0.39039    -0.05714
Cl     6.79324     4.96465     1.14851
Cl     6.53127     7.89015     4.63909
Cl     6.07729    -2.38505    -1.68803
Cl     5.22492     0.55717     2.24967
Cl     5.18744     3.38432     3.81580
Cl     4.59891     6.58108     2.32553
Cl     4.98591    -2.44760     0.95957
Cl     4.55133     1.83892    -0.14494
Os     6.65526     5.70134     3.48916
