  116
 
Bi     0.00000     0.00000     0.00000
Cl     2.97655    -3.80737    -3.26889
Cl     6.25382    -1.35991    -4.09558
Cl     6.25567    -3.97436    -1.34877
Cl     5.60709    -0.44782     0.07760
Cl     3.13255     0.15978    -2.56877
Cl    -1.56683     2.02175    -0.76498
Bi     4.66275    -1.95953    -2.03964
Cl     1.84688     1.65381     1.34627
Cl    -1.66498    -0.45609     2.01309
Cl     1.50649    -2.13596     0.52432
Cl    -1.10398    -1.42675    -2.06910
Bi    -5.77057    -3.45163     5.55410
Cl    -8.12400    -4.99406     5.79802
Cl    -5.49399    -2.48946     8.00316
Cl    -7.26432    -1.35715     4.84775
Cl    -3.62001    -2.33198     4.20940
Cl    -4.16663    -5.51608     6.09588
Bi    -3.93637    -7.68804     2.70488
Cl    -6.91589    -3.79874     1.66636
Cl    -1.75079    -5.96629     2.24840
Cl    -4.12436    -8.70428     0.27717
Cl    -5.55085    -5.64238     2.15540
Cl    -6.01372    -9.04752     3.91973
 N    -0.68454     4.89146     0.67158
 N    -5.90188     0.92761     3.30816
 C    -0.94513     4.13784     1.96913
 C    -2.43045     3.78885     2.13204
 C    -2.66013     3.04428     3.45597
 C    -4.13188     2.65697     3.67065
 C    -4.44756     1.29204     3.05108
 H    -0.72946     4.21391    -0.15120
 H     0.28553     5.32675     0.70520
 H    -1.41416     5.64744     0.52530
 H    -6.05401    -0.09201     3.03865
 H    -6.55025     1.54093     2.72935
 H    -6.13102     1.04796     4.33723
 H    -0.60406     4.78003     2.82866
 H    -0.33313     3.18834     1.94501
 H    -3.04672     4.71924     2.10288
 H    -2.76586     3.12387     1.29454
 H    -2.34372     3.70064     4.30562
 H    -2.03114     2.11732     3.46137
 H    -4.79822     3.43654     3.22253
 H    -4.32561     2.61856     4.77555
 H    -4.26237     1.30897     1.93872
 H    -3.79748     0.48510     3.50065
 N    -3.74638    -3.15126     1.30435
 N    -7.30535    -6.90098    -3.37971
 C    -4.03803    -2.96976    -0.18134
 C    -4.48741    -4.28938    -0.82054
 C    -4.87910    -4.07878    -2.29016
 C    -5.36776    -5.37547    -2.95525
 C    -6.85634    -5.62131    -2.69135
 H    -4.65789    -3.10405     1.85781
 H    -3.09949    -2.37667     1.63797
 H    -3.29636    -4.09560     1.48410
 H    -8.37349    -6.93118    -3.39091
 H    -6.94637    -7.75655    -2.86010
 H    -6.94657    -6.91899    -4.37714
 H    -3.10761    -2.59397    -0.69263
 H    -4.85334    -2.19519    -0.28379
 H    -3.66492    -5.04176    -0.74995
 H    -5.38010    -4.69430    -0.27735
 H    -3.98971    -3.70142    -2.85938
 H    -5.69520    -3.31337    -2.34189
 H    -4.77838    -6.24470    -2.57185
 H    -5.18830    -5.28442    -4.05919
 H    -7.05720    -5.72116    -1.58760
 H    -7.47924    -4.76430    -3.08582
 N    -2.97935    -0.12167     7.91463
 N     2.50448     3.45785     5.47892
 C    -1.90968    -0.38955     6.86100
 C    -1.21961     0.90704     6.41813
 C    -0.15859     0.63161     5.34237
 C     0.60306     1.90801     4.94529
 C     1.72313     2.23529     5.94016
 H    -2.52938    -0.07074     8.88089
 H    -3.68824    -0.91490     7.91537
 H    -3.46882     0.79894     7.72145
 H     3.40239     3.53685     6.05381
 H     1.93326     4.34155     5.60841
 H     2.76604     3.35610     4.45507
 H    -2.39837    -0.88096     5.97430
 H    -1.15253    -1.09668     7.30829
 H    -1.97838     1.62641     6.02239
 H    -0.70604     1.38299     7.29115
 H    -0.65677     0.21614     4.42831
 H     0.56569    -0.12839     5.72865
 H    -0.11064     2.76895     4.89539
 H     1.03707     1.74782     3.92273
 H     1.29768     2.45064     6.96023
 H     2.43907     1.36549     6.03316
 N    -6.80634    -2.97484    -7.29230
 N    -3.49430     1.19014    -2.85486
 C    -7.27400    -2.13966    -6.10985
 C    -6.09912    -1.81267    -5.18402
 C    -6.54495    -0.90598    -4.03004
 C    -5.36395    -0.45636    -3.15455
 C    -4.63807     0.75144    -3.75944
 H    -6.18464    -2.37381    -7.91741
 H    -7.66438    -3.29855    -7.84430
 H    -6.25277    -3.81725    -6.97159
 H    -3.14558     2.15112    -3.16433
 H    -2.69039     0.49713    -2.90968
 H    -3.83073     1.25826    -1.85134
 H    -8.06222    -2.70970    -5.54514
 H    -7.72277    -1.18723    -6.52107
 H    -5.65726    -2.75684    -4.78288
 H    -5.30615    -1.27160    -5.76050
 H    -7.27512    -1.46389    -3.38831
 H    -7.04941    -0.00190    -4.45303
 H    -4.64203    -1.30338    -3.03949
 H    -5.76633    -0.19308    -2.14093
 H    -4.21565     0.49278    -4.77254
 H    -5.34670     1.62263    -3.88988
