  144
 
 V     0.00000     0.00000     0.00000
 F    -2.82642    -5.67985     6.89759
 F    -4.07608    -3.34881     6.89759
 N    -5.38763    -5.59734     5.73182
 C    -7.83760    -6.91077     5.93169
 C    -6.66728    -7.50630     6.39379
 H     0.06556    -1.74383     3.41381
 C    -5.47541    -6.82934     6.26499
 H    -0.97326    -4.09493     7.20417
 V    -3.51609    -4.59401     5.57915
 F    -4.20576    -3.50818     4.26071
 N    -1.64455    -3.59068     5.42647
 C     0.80542    -2.27726     5.22661
 C    -0.12002    -2.22626     4.18794
 C     0.47408    -3.00283     6.36712
 C    -7.75055    -5.64198     5.36634
 H     1.07263    -3.06489     7.07729
 H    -8.51198    -5.21778     5.03962
 H    -6.68999    -8.35087     6.78448
 C    -1.31365    -2.89928     4.32091
 C    -0.75149    -3.62674     6.43151
 C    -6.52322    -5.02201     5.29779
 H    -1.91997    -2.87503     3.61581
 H    -6.47553    -4.16675     4.93497
 H    -4.69502    -7.24067     6.56025
 F     0.68967    -1.08583     1.31844
 F     0.56000    -1.24520    -1.31844
 N    -1.87154    -1.00333     0.15268
 C    -4.32150    -2.31675     0.35254
 C    -3.15118    -2.91228     0.81465
 H     3.58173     2.85025    -2.16392
 C    -1.95961    -2.23467     0.68654
 H     2.54292     0.49916     1.62643
 F    -0.68929     1.08524    -1.31772
 N     1.87154     1.00333    -0.15268
 C     4.32151     2.31675    -0.35254
 C     3.39645     2.36717    -1.39049
 C     3.98988     1.59184     0.78867
 C    -4.23438    -1.04790    -0.21140
 H     4.58873     1.52912     1.49814
 H    -4.99551    -0.62435    -0.53881
 H    -3.17419    -3.75620     1.20603
 C     2.20252     1.69480    -1.25682
 C     2.76461     0.96727     0.85236
 C    -3.00675    -0.42858    -0.28064
 H     1.59612     1.71898    -1.96334
 H    -2.95973     0.42792    -0.64348
 H    -1.17855    -2.64724     0.98182
 V     1.12028    -2.49106    -2.63758
 F    -1.70614    -8.17090     4.26001
 F    -2.95580    -5.83987     4.26001
 N    -4.26735    -8.08840     3.09425
 C    -6.71732    -9.40182     3.29411
 C    -5.54700    -9.99735     3.75621
 H     1.18584    -4.23489     0.77623
 C    -4.35513    -9.32040     3.62741
 H     0.14702    -6.58598     4.56659
 V    -2.39581    -7.08507     2.94157
 F    -3.08548    -5.99924     1.62313
 N    -0.52427    -6.08174     2.78889
 C     1.92570    -4.76832     2.58903
 C     1.00026    -4.71732     1.55037
 C     1.59436    -5.49389     3.72955
 C    -6.63027    -8.13303     2.72876
 H     2.19291    -5.55595     4.43971
 H    -7.39170    -7.70883     2.40204
 H    -5.56971   -10.84193     4.14690
 C    -0.19337    -5.39034     1.68334
 C     0.36879    -6.11780     3.79393
 C    -5.40294    -7.51306     2.66021
 H    -0.79969    -5.36609     0.97823
 H    -5.35525    -6.65780     2.29739
 H    -3.57474    -9.73172     3.92268
 F     1.80995    -3.57689    -1.31913
 F     1.68028    -3.73626    -3.95602
 N    -0.75126    -3.49439    -2.48490
 C    -3.20122    -4.80781    -2.28504
 C    -2.03090    -5.40334    -1.82293
 H     4.70201     0.35919    -4.80150
 C    -0.83933    -4.72573    -1.95104
 H     3.66320    -1.99190    -1.01115
 F     0.43099    -1.40581    -3.95530
 N     2.99182    -1.48773    -2.79025
 C     5.44179    -0.17430    -2.99012
 C     4.51673    -0.12389    -4.02806
 C     5.11016    -0.89922    -1.84891
 C    -3.11410    -3.53895    -2.84897
 H     5.70901    -0.96193    -1.13944
 H    -3.87523    -3.11541    -3.17639
 H    -2.05391    -6.24726    -1.43155
 C     3.32280    -0.79626    -3.89440
 C     3.88489    -1.52378    -1.78522
 C    -1.88647    -2.91964    -2.91822
 H     2.71640    -0.77207    -4.60092
 H    -1.83945    -2.06313    -3.28106
 H    -0.05827    -5.13830    -1.65575
 V     2.24056    -4.98211    -5.27516
 F    -0.58586   -10.66196     1.62243
 F    -1.83552    -8.33093     1.62243
 N    -3.14707   -10.57946     0.45667
 C    -5.59704   -11.89288     0.65653
 C    -4.42672   -12.48841     1.11864
 H     2.30612    -6.72594    -1.86134
 C    -3.23485   -11.81145     0.98983
 H     1.26731    -9.07704     1.92901
 V    -1.27553    -9.57613     0.30399
 F    -1.96520    -8.49029    -1.01445
 N     0.59601    -8.57280     0.15131
 C     3.04598    -7.25937    -0.04855
 C     2.12054    -7.20837    -1.08721
 C     2.71464    -7.98495     1.09197
 C    -5.50999   -10.62409     0.09118
 H     3.31319    -8.04700     1.80213
 H    -6.27141   -10.19989    -0.23553
 H    -4.44943   -13.33298     1.50932
 C     0.92691    -7.88139    -0.95424
 C     1.48907    -8.60885     1.15635
 C    -4.28266   -10.00412     0.02263
 H     0.32059    -7.85714    -1.65935
 H    -4.23497    -9.14886    -0.34019
 H    -2.45446   -12.22278     1.28510
 F     2.93023    -6.06795    -3.95671
 F     2.80056    -6.22731    -6.59360
 N     0.36903    -5.98544    -5.12248
 C    -2.08094    -7.29886    -4.92261
 C    -0.91062    -7.89440    -4.46051
 H     5.82229    -2.13186    -7.43908
 C     0.28095    -7.21678    -4.58862
 H     4.78348    -4.48296    -3.64873
 F     1.55127    -3.89687    -6.59288
 N     4.11210    -3.97878    -5.42783
 C     6.56207    -2.66536    -5.62770
 C     5.63701    -2.61495    -6.66564
 C     6.23044    -3.39028    -4.48648
 C    -1.99382    -6.03001    -5.48655
 H     6.82929    -3.45299    -3.77702
 H    -2.75494    -5.60646    -5.81396
 H    -0.93363    -8.73831    -4.06913
 C     4.44308    -3.28731    -6.53198
 C     5.00517    -4.01484    -4.42280
 C    -0.76619    -5.41070    -5.55580
 H     3.83668    -3.26313    -7.23849
 H    -0.71917    -4.55419    -5.91864
 H     1.06201    -7.62935    -4.29333
