  312
 
Sb     0.00000     0.00000     0.00000
 I     2.67407    -0.41021     0.81174
 S    -2.22569     1.42865    -0.26014
 S     0.49349     2.41804     0.32734
 C    -1.27509     2.80710     0.27369
 N    -1.75800     3.98041     0.61375
 C    -3.21463     4.26550     0.59108
 C    -3.61177     4.90946    -0.73002
 C    -0.90632     5.11720     1.03581
 C    -0.48767     4.99310     2.49736
 S     0.56366    -0.22020    -2.33577
 S    -0.98344    -2.89954    -2.33008
 C    -0.43438    -1.48023    -3.22375
 N    -0.64602    -1.25476    -4.50142
 C    -0.23529    -0.04573    -5.25938
 C    -1.33785     1.00995    -5.23090
 C    -1.38198    -2.23231    -5.34484
 C    -0.39845    -3.10591    -6.12366
 I     3.63449    -0.67977    -4.12103
Sb     4.35052     1.53672    -2.49289
 S     3.93889     3.95266    -1.45742
 S     2.46936     2.67596    -3.67361
 C     2.55293     4.07415    -2.53372
 N     1.67142     5.04762    -2.53043
 C     1.73266     6.15532    -1.54599
 C     2.40484     7.37851    -2.15485
 C     0.55546     5.14812    -3.50020
 C    -0.67511     4.37878    -3.03271
 S     6.15023     2.15079    -3.98048
 S     7.93282     1.24497    -1.61390
 C     7.73912     2.24721    -3.05223
 N     8.66262     3.03296    -3.56463
 C     8.51560     3.86770    -4.78115
 C     7.94724     5.24373    -4.43581
 C     9.99043     3.17305    -2.90930
 C    10.95975     2.10425    -3.41473
Sb    -3.20105     9.40575    -2.93048
 I     3.23020     9.65582    -8.86042
 S    -4.50832    11.09806    -4.47600
 S    -2.61172    11.79608    -2.31169
 C    -3.71273    12.40237    -3.59187
 N    -3.91064    13.68223    -3.82957
 C    -4.78168    14.14305    -4.93660
 C    -6.17992    14.45944    -4.41798
 C    -3.31159    14.76569    -3.01736
 C    -1.96574    15.20914    -3.57972
 S    -4.97061     9.30906    -1.25470
 S    -5.27802     7.14204    -3.36587
 C    -5.97172     7.96243    -1.94271
 N    -7.14488     7.70604    -1.41232
 C    -7.77068     8.49908    -0.32938
 C    -8.56372     9.66739    -0.91643
 C    -8.00423     6.60870    -1.92458
 C    -7.58526     5.26696    -1.32755
 I    -0.19830     8.68451    -5.81372
Sb     1.13998    11.19622    -5.48425
 S     1.65193    13.79683    -5.59271
 S    -0.91580    12.44107    -6.22353
 C     0.03735    13.97189    -6.26560
 N    -0.43658    15.09895    -6.75741
 C     0.39560    16.32475    -6.83034
 C     0.16287    17.20976    -5.61128
 C    -1.80963    15.23879    -7.29061
 C    -1.83467    14.97756    -8.79305
 S     0.68769    11.26561    -3.08361
 S     3.60763    10.55708    -3.59795
 C     2.37480    11.11274    -2.43316
 N     2.58500    11.39362    -1.16712
 C     1.53851    11.83718    -0.21276
 C     1.34471    13.35107    -0.26767
 C     3.94442    11.33022    -0.57525
 C     4.20068     9.95757     0.04610
Sb    12.06396     7.19884     5.97592
 I    10.87526     7.95631    -2.59606
 S    14.22261     6.07966     5.43860
 S    11.67815     4.59602     5.50444
 C    13.41659     4.46517     5.26402
 N    14.07055     3.35162     5.03407
 C    15.54824     3.27634     4.97812
 C    16.09505     2.77733     6.31427
 C    13.38982     2.04986     4.81769
 C    13.03890     1.84415     3.34869
 S    11.96372     6.88271     8.37652
 S    13.22128     9.30866     6.91020
 C    12.79178     8.48031     8.57826
 N    13.04664     8.98047     9.75389
 C    12.68628     8.32565    11.03785
 C    13.73998     7.30227    11.45305
 C    13.75253    10.27513     9.91617
 C    12.77078    11.39565    10.25502
 I    13.94544    10.73951     5.33806
Sb    12.37265     6.64526     0.91018
 S    13.06933     4.74004    -0.52144
 S    14.36838     5.28987     2.05794
 C    14.35730     4.24107     0.64318
 N    15.13969     3.20956     0.43969
 C    14.94444     2.26951    -0.68908
 C    14.08680     1.09182    -0.23600
 C    16.27592     2.86411     1.32586
 C    17.55805     3.54014     0.85153
 S    10.55017     5.69334     2.18732
 S    10.34592     6.94880    -0.65910
 C     9.46741     6.05857     0.77415
 N     8.20957     5.71596     0.77218
 C     7.53510     5.04520     1.90997
 C     7.65034     3.52902     1.77631
 C     7.34614     5.89249    -0.41972
 C     6.48155     7.14475    -0.29258
Sb     6.59116    15.81406     7.75201
 I     4.73649    17.13425     6.00135
 S     8.18353    13.95529     8.77216
 S     6.20848    13.54392     6.59945
 C     7.22507    12.78497     7.86065
 N     7.25711    11.48355     8.07851
 C     8.01464    10.87605     9.20000
 C     9.37578    10.37220     8.73045
 C     6.50641    10.51180     7.25089
 C     5.07185    10.34753     7.74385
 S     8.37770    16.49511     6.06991
 S     7.89862    17.99237     8.56188
 C     8.86718    17.88355     7.09500
 N     9.83395    18.71112     6.76187
 C    10.48040    18.69747     5.42781
 C    11.54799    17.61361     5.32381
 C    10.38786    19.70686     7.70846
 C     9.80913    21.09436     7.45558
 I     7.54164    18.04516     2.29228
Sb     6.23617    15.50428     2.25450
 S     5.87270    12.87003     2.47606
 S     8.34337    14.36841     3.16435
 C     7.52440    12.77343     3.09326
 N     8.10981    11.64423     3.44361
 C     7.38594    10.35158     3.50373
 C     7.56162     9.55742     2.21242
 C     9.53145    11.55267     3.85084
 C     9.66638    11.57047     5.36842
 S     7.11614    15.13146    -0.08768
 S     4.36450    16.07634     0.30565
 C     5.54111    15.50048    -0.86493
 N     5.34417    15.31908    -2.15232
 C     6.43098    14.90339    -3.07526
 C     6.51410    13.38360    -3.16857
 C     4.01274    15.43098    -2.79006
 C     3.84719    16.77223    -3.49835
 I     7.85767     0.01756     0.13521
 I    10.36249    -0.82391     0.86315
 I    -1.58451    -4.24041    -0.79340
 I    -2.46756    -6.75426    -1.58426
 I     0.75613     8.84556     2.87253
 I     2.89608     8.55415     4.47695
 I    -4.81274     6.05868    -5.19898
 I    -7.35380     5.41676    -5.85142
 H    -4.82900    13.37946    -5.75043
 H    -4.30647    15.03767    -5.39898
 H    -6.66182    13.58803    -3.95721
 H    -6.18631    15.26411    -3.66952
 H    -6.83412    14.80357    -5.23118
 H    -3.19959    14.43938    -1.95609
 H    -4.02659    15.62712    -3.00110
 H    -1.20949    14.41340    -3.52316
 H    -1.56706    16.06051    -3.01545
 H    -2.04178    15.53343    -4.62283
 H    -8.42794     7.83120     0.27363
 H    -7.00942     8.87007     0.39354
 H    -9.26148     9.33830    -1.69699
 H    -7.90402    10.41409    -1.37832
 H    -9.13364    10.17730    -0.13008
 H    -7.95833     6.58402    -3.03670
 H    -9.06946     6.83409    -1.68191
 H    -6.62182     4.93315    -1.73568
 H    -7.47854     5.31462    -0.24053
 H    -8.32284     4.48974    -1.57279
 H    -3.80568     3.33480     0.76920
 H    -3.44359     4.94446     1.44530
 H    -3.53642     4.22011    -1.57874
 H    -3.00489     5.79327    -0.96350
 H    -4.65272     5.26975    -0.69544
 H    -0.01201     5.18880     0.37513
 H    -1.48036     6.06811     0.88050
 H    -0.12807     3.98731     2.75253
 H     0.34507     5.66807     2.72931
 H    -1.30954     5.23812     3.18025
 H    -0.00743    -0.34353    -6.31171
 H     0.71661     0.37655    -4.87006
 H    -2.29704     0.60983    -5.58691
 H    -1.07779     1.85385    -5.88456
 H    -1.50050     1.40813    -4.22271
 H    -2.06103    -2.86102    -4.72129
 H    -2.04987    -1.66499    -6.03680
 H     0.23969    -3.68567    -5.44445
 H     0.25249    -2.50312    -6.76558
 H    -0.94210    -3.81600    -6.76107
 H     2.26515     5.83644    -0.61823
 H     0.68729     6.39000    -1.23734
 H     3.45969     7.20546    -2.39596
 H     2.36597     8.23259    -1.46212
 H     1.90550     7.72412    -3.07107
 H     0.88331     4.78949    -4.50316
 H     0.29901     6.23289    -3.62960
 H    -0.49425     3.29679    -2.97266
 H    -1.02456     4.71577    -2.05017
 H    -1.50914     4.52663    -3.73486
 H     9.51512     3.96961    -5.26722
 H     7.88036     3.36290    -5.54432
 H     8.55520     5.75997    -3.68088
 H     7.91285     5.88065    -5.32886
 H     6.92532     5.17896    -4.04179
 H     9.88261     3.10920    -1.79882
 H    10.37937     4.20039    -3.10290
 H    11.97894     2.31841    -3.06476
 H    10.97356     2.04186    -4.50717
 H    10.68851     1.11129    -3.02960
 H     1.47788    16.05921    -6.91908
 H     0.14542    16.86157    -7.77361
 H     0.49708    16.73857    -4.67880
 H     0.70234    18.16276    -5.70380
 H    -0.89378    17.47946    -5.47285
 H    -2.51110    14.54890    -6.76604
 H    -2.17606    16.27017    -7.05901
 H    -1.50928    13.95634    -9.03967
 H    -1.19571    15.67741    -9.34283
 H    -2.84827    15.09513    -9.19445
 H     1.83743    11.52522     0.81402
 H     0.57303    11.31395    -0.40982
 H     2.23903    13.89165     0.06388
 H     1.10241    13.70196    -1.27877
 H     0.51268    13.65597     0.38256
 H     4.71818    11.55931    -1.34628
 H     4.03161    12.13806     0.18922
 H     5.17038     9.94757     0.56378
 H     3.43388     9.68872     0.77759
 H     4.22923     9.17119    -0.71979
 H    15.83612     2.57786     4.15437
 H    16.00089     4.25788     4.70443
 H    17.18920     2.69619     6.27222
 H    15.83623     3.44571     7.14576
 H    15.71558     1.77677     6.57079
 H    14.06407     1.23093     5.17761
 H    12.47177     1.98397     5.44529
 H    12.58838     0.85087     3.19782
 H    13.91907     1.89114     2.69795
 H    12.31342     2.58376     2.98554
 H    11.67872     7.85164    10.96191
 H    12.58235     9.10935    11.82541
 H    13.76168     6.42944    10.78708
 H    14.75078     7.72953    11.44688
 H    13.53787     6.92978    12.46488
 H    14.51946    10.15705    10.71622
 H    14.31767    10.52858     8.98747
 H    12.18698    11.18186    11.15864
 H    13.30591    12.33826    10.42939
 H    12.05956    11.56820     9.43556
 H    15.94545     1.91350    -1.03157
 H    14.48840     2.77767    -1.57086
 H    14.50791     0.57976     0.64194
 H    13.06348     1.39254     0.02124
 H    14.02563     0.33627    -1.03091
 H    16.39966     1.75088     1.32791
 H    16.05554     3.14816     2.37937
 H    18.42432     3.12791     1.38913
 H    17.54389     4.62400     1.02696
 H    17.74667     3.37502    -0.21436
 H     7.96865     5.38947     2.87908
 H     6.46703     5.36258     1.93905
 H     8.67846     3.21726     1.54057
 H     7.00737     3.14787     0.97259
 H     7.37791     3.03410     2.71691
 H     6.71848     4.97734    -0.53537
 H     7.96873     5.94506    -1.34541
 H     5.83403     7.11499     0.59132
 H     7.09943     8.05128    -0.23301
 H     5.83274     7.24861    -1.17251
 H     7.40907    10.03497     9.61465
 H     8.13661    11.60517    10.03780
 H     9.90880     9.87261     9.55218
 H    10.02355    11.18588     8.38018
 H     9.29043     9.65082     7.91022
 H     7.04382     9.53351     7.28623
 H     6.51703    10.82320     6.18068
 H     4.62260     9.44190     7.31317
 H     5.01626    10.25289     8.83275
 H     4.43263    11.19551     7.45579
 H     9.70859    18.56664     4.62933
 H    10.92915    19.70275     5.24759
 H    11.11352    16.61754     5.15243
 H    12.19774    17.80608     4.45724
 H    12.17270    17.56741     6.22240
 H    11.49906    19.70912     7.58905
 H    10.20853    19.39092     8.76486
 H    10.15471    21.52359     6.50914
 H    10.10350    21.78736     8.25849
 H     8.71111    21.08705     7.44397
 H     7.78377     9.77077     4.37133
 H     6.30223    10.51536     3.71812
 H     8.60157     9.24360     2.05345
 H     7.24486    10.12824     1.33009
 H     6.95718     8.64018     2.24402
 H     9.95307    10.60404     3.43423
 H    10.12655    12.38240     3.39984
 H    10.72653    11.59304     5.66407
 H     9.19360    12.45868     5.80439
 H     9.22324    10.68735     5.84145
 H     7.41094    15.33592    -2.75204
 H     6.23298    15.35015    -4.07823
 H     6.75899    12.92079    -2.20290
 H     7.31147    13.09120    -3.86806
 H     5.57373    12.94046    -3.51616
 H     3.90483    14.58603    -3.51591
 H     3.20024    15.27318    -2.04317
 H     4.55790    16.89771    -4.32418
 H     3.98048    17.61888    -2.81113
 H     2.83463    16.85725    -3.91968
