  140
 
Sb     0.00000     0.00000     0.00000
 P    -1.09976    -7.28960     5.68857
 O    -1.17061    -5.70775     5.62396
 O    -0.32038    -7.76124     6.92491
 O    -0.41244    -7.92035     4.42463
 O    -3.41517    -6.64766     6.38037
 C    -2.92290    -7.75916     5.64009
 C    -3.26667    -9.06655     6.29609
 H    -2.84326    -9.08806     7.33137
 H    -2.86667    -9.92800     5.71177
 P    -3.83904    -7.39438     4.03485
 O    -3.85804    -5.81157     4.01943
 O    -5.25751    -7.97823     3.94403
 O    -5.26523    -4.64116     6.40202
 H    -4.37721    -9.16524     6.38907
Sb    -3.13988    -4.64686     5.81376
 P    -0.13733     0.59380     3.28566
 O     0.61299     0.95294     1.93631
 O     0.80076    -0.13465     4.26131
 O     1.54872    -1.51156     0.47328
 O    -0.90889    -1.05069     1.57216
 C    -1.58668    -0.42847     2.65998
 C    -2.13409    -1.43324     3.63410
 H    -1.30065    -2.07321     4.01781
 H    -2.64053    -0.93080     4.49171
 P    -2.86805     0.49449     1.63543
 O    -2.04229     0.87366     0.33931
 O    -4.11513    -0.33179     1.28370
 O    -1.06424    -1.61767    -1.08759
 H    -2.86208    -2.10822     3.11867
Sb   -10.45177    -9.45922     1.57262
 P    -7.59715    -9.93407    -0.09880
 O    -8.40112   -10.32063     1.20991
 O    -6.35302    -9.09743     0.23895
 O    -9.39621    -7.81938     2.62392
 O    -9.56692    -8.41036    -0.00796
 C    -8.90690    -9.02988    -1.10716
 C    -8.40433    -8.01572    -2.09566
 H    -7.71864    -7.29710    -1.58100
 H    -7.86429    -8.50575    -2.93894
 P   -10.35130   -10.07892    -1.70353
 O   -11.06706   -10.45451    -0.33991
 O   -11.32298    -9.35838    -2.65321
 O   -12.03026    -7.96115     1.09356
 H    -9.26448    -7.42392    -2.49838
Sb    -7.32457    -4.82837    -4.23044
 P    -9.39773    -2.20715    -4.09875
 O    -9.31051    -3.78716    -4.02192
 O   -10.19207    -1.74923    -5.33193
 O    -7.81931    -4.94038    -6.38120
 O    -7.09444    -2.83418    -4.82631
 C    -7.57796    -1.71732    -4.08818
 C    -7.25878    -0.41898    -4.77444
 H    -7.69803    -0.42256    -5.80383
 H    -7.66072     0.44810    -4.20063
 P    -6.63665    -2.06034    -2.49232
 O    -6.62012    -3.64451    -2.45680
 O    -5.21097    -1.49008    -2.43809
 O    -5.19618    -4.79969    -4.85639
 H    -6.15159    -0.30744    -4.89087
 N     3.20948     5.69904     0.95841
 H     3.74756     5.00314     0.36180
 H     3.91961     6.36111     1.43330
 H     2.60614     6.25885     0.26948
 C     2.31320     5.05665     1.99612
 H     1.79216     5.91668     2.52946
 H     1.54099     4.43465     1.46931
 C     3.07489     4.20775     3.02182
 H     2.49606     4.25459     3.98350
 H     4.08576     4.66053     3.23054
 C     3.24270     2.74777     2.58741
 C     3.97383     1.89893     3.63464
 N     3.05648     1.27678     4.66558
 H     2.50260     1.98305     5.23581
 H     2.35881     0.60736     4.18985
 H     3.64819     0.73565     5.37921
 H     4.49183     1.02595     3.11729
 H     4.74436     2.51735     4.16774
 H     3.84739     2.69677     1.64173
 H     2.23628     2.29844     2.35276
 N     2.25299    -2.16987     3.33589
 H     1.89360    -1.59997     4.15493
 H     3.32046    -2.02493     3.26019
 H     1.77467    -1.76060     2.46713
 C     1.95000    -3.65343     3.39934
 H     2.37124    -4.10387     2.43725
 H     0.83751    -3.80194     3.40698
 C     2.60606    -4.35601     4.59083
 H     2.80295    -5.42162     4.29233
 H     3.61014    -3.89234     4.81172
 C     1.73058    -4.31866     5.84291
 C     2.37506    -5.03722     7.03088
 N     2.10437    -6.52774     7.06543
 H     2.49755    -7.07322     6.24310
 H     1.04057    -6.69966     7.12347
 H     2.57836    -6.94130     7.93564
 H     1.92710    -4.61265     7.99351
 H     3.48417    -4.86787     7.04157
 H     1.55290    -3.25105     6.14894
 H     0.71990    -4.76617     5.61875
 N    -2.89353     5.41408    -2.75292
 H    -2.60235     4.70878    -3.49408
 H    -3.70542     6.00340    -3.15218
 H    -2.03802     6.04191    -2.59863
 C    -3.29285     4.79751    -1.42919
 H    -3.58515     5.66787    -0.75659
 H    -2.39759     4.28262    -0.98792
 C    -4.47326     3.82528    -1.54043
 H    -5.03566     3.87385    -0.56946
 H    -5.18616     4.16892    -2.34284
 C    -4.03295     2.38386    -1.81685
 C    -5.21497     1.41200    -1.90882
 N    -5.64960     0.85577    -0.56980
 H    -5.94370     1.59399     0.13531
 H    -4.85046     0.27135    -0.13633
 H    -6.51219     0.23253    -0.71231
 H    -4.91341     0.50935    -2.53735
 H    -6.09345     1.91518    -2.39353
 H    -3.48772     2.33400    -2.79834
 H    -3.30826     2.04554    -1.02322
 N    -6.61459    -6.96217     1.83171
 H    -6.03042    -7.49111     1.11932
 H    -6.14410    -7.04693     2.80021
 H    -7.56257    -7.46363     1.85240
 C    -6.84461    -5.50265     1.50279
 H    -7.51157    -5.09174     2.33487
 H    -7.39348    -5.42798     0.52686
 C    -5.55650    -4.67842     1.45765
 H    -5.82139    -3.61798     1.72221
 H    -4.83204    -5.03781     2.24337
 C    -4.89795    -4.72166     0.07943
 C    -3.60034    -3.91352     0.03426
 N    -3.81617    -2.46334    -0.34291
 H    -4.41962    -1.90952     0.33077
 H    -4.26327    -2.40782    -1.32349
 H    -2.86451    -1.96541    -0.35031
 H    -2.92823    -4.35294    -0.77797
 H    -3.06044    -3.96328     1.01684
 H    -4.65110    -5.78285    -0.19646
 H    -5.61778    -4.34704    -0.70419
