  212
 
Ce     0.00000     0.00000     0.00000
 O     2.55937     0.21485     0.08253
 O     0.79444     2.34342     0.19898
 O     0.72082    -0.21068     2.40549
 O     0.72699    -2.39597    -0.11127
 O     0.90477     0.08306    -2.35314
 O    -1.85531    -1.01792    -1.55068
 O    -1.93535    -1.48998     0.95881
 O    -1.95112     1.00533     1.44640
 O    -1.89434     1.49655    -1.06181
 C    -2.39081    -2.33803    -1.24853
 C    -2.90035    -2.26616     0.18939
 C    -2.49237    -1.19028     2.26974
 C    -2.95209     0.26621     2.21055
 C    -2.47167     2.32014     1.11403
 C    -2.93474     2.21874    -0.33738
 C    -2.36756     1.17404    -2.39764
 C    -2.82529    -0.28271    -2.35222
 H    -1.53220    -3.01923    -1.39111
 H    -3.18719    -2.62491    -1.96168
 H    -2.95810    -3.26817     0.65165
 H    -3.86516    -1.72819     0.24853
 H    -1.65401    -1.36979     2.96753
 H    -3.31958    -1.87315     2.53663
 H    -3.92380     0.37031     1.69099
 H    -2.98883     0.72539     3.21315
 H    -1.61198     2.99967     1.26868
 H    -3.28430     2.62983     1.79496
 H    -3.86739     1.62925    -0.42839
 H    -3.04809     3.21073    -0.80600
 H    -1.47967     1.34352    -3.03902
 H    -3.17519     1.85053    -2.72784
 H    -3.81557    -0.39123    -1.87008
 H    -2.82232    -0.74253    -3.35673
Ce    -1.23258     5.54140     4.15536
 O    -3.73550     5.94206     3.80370
 O    -1.99268     7.91683     4.31959
 O    -2.02861     4.04541    -3.21957
 O    -2.00046     3.14869     4.19917
 O    -1.94975     5.50137     1.74954
 O     0.67093     4.52660     2.65396
 O     0.69627     4.08049     5.17465
 O     0.67257     6.58740     5.63429
 O     0.66196     7.05279     3.12286
 C     1.21926     3.21958     2.99156
 C     1.70126     3.32751     4.43602
 C     1.21834     4.40764     6.49472
 C     1.67129     5.86387     6.41608
 C     1.17760     7.90923     5.30778
 C     1.65592     7.82446     3.85937
 C     1.17026     6.72569     1.80075
 C     1.64249     5.27278     1.86336
 H     0.36720     2.52749     2.85316
 H     2.02707     2.91746     2.30012
 H     1.78814     2.33229     4.91053
 H     2.64648     3.89856     4.50970
 H     0.36304     4.23542     7.17313
 H     2.04216     3.73456     6.79886
 H     2.64505     5.96660     5.90079
 H     1.69464     6.33286     7.41424
 H     0.30815     8.57751     5.45889
 H     1.98015     8.23108     5.99509
 H     2.61925     7.28814     3.77558
 H     1.71483     8.82189     3.39251
 H     0.29668     6.88546     1.13671
 H     1.97711     7.40629     1.48175
 H     2.62747     5.17917     2.35785
 H     1.66270     4.81246     0.85988
Ce    -9.13097     3.31278    -0.51798
 O    -6.61382     2.88052    -0.74599
 O    -8.29700     1.11431     0.31965
 O    -8.32923     4.08595     1.73997
 O    -8.32157     5.61531    -1.13130
 O    -8.40065     2.69648    -2.84661
 O   -11.01647     3.89859    -2.25088
 O   -11.05797     4.99817     0.04360
 O   -11.06350     2.69759     1.16041
 O   -11.02162     1.57953    -1.13717
 C   -11.54059     5.25748    -2.30050
 C   -12.01585     5.58516    -0.88660
 C   -11.60853     5.03133     1.39112
 C   -12.08179     3.60980     1.67840
 C   -11.57908     1.34033     1.18372
 C   -12.04189     1.04687    -0.24118
 C   -11.52408     1.56265    -2.50209
 C   -12.00795     2.98175    -2.79479
 H   -10.67877     5.86332    -2.63691
 H   -12.35024     5.35721    -3.04744
 H   -12.02223     6.67620    -0.70499
 H   -13.00245     5.13683    -0.66873
 H   -10.76694     5.36965     2.02133
 H   -12.43756     5.76147     1.49187
 H   -13.03220     3.38247     1.15854
 H   -12.16170     3.42131     2.76048
 H   -10.71784     0.72813     1.51395
 H   -12.39287     1.21444     1.92046
 H   -12.99407     1.56093    -0.47945
 H   -12.12223    -0.03754    -0.43082
 H   -10.64723     1.24978    -3.10285
 H   -12.32500     0.81583    -2.63996
 H   -12.97542     3.19941    -2.30144
 H   -12.06447     3.17692    -3.88037
Ce   -10.21330    -0.89702     5.04498
 O   -12.77093    -0.88029     5.21748
 O   -11.14755     6.73907     4.48277
 O   -10.96637    -1.37218    -2.47314
 O   -11.10099     1.32951     4.23999
 O   -10.92126    -1.54551     2.72323
 O    -8.33173    -0.35174     3.29813
 O    -8.26717     0.76955     5.59513
 O    -8.29088    -1.51076     6.73038
 O    -8.33305    -2.64854     4.44949
 C    -7.77970     0.99484     3.24439
 C    -7.29396     1.31432     4.65695
 C    -7.71356     0.81379     6.94326
 C    -7.26826    -0.61234     7.26167
 C    -7.79893    -2.87637     6.77308
 C    -7.31981    -3.17853     5.35498
 C    -7.84195    -2.70082     3.08272
 C    -7.36108    -1.28997     2.74569
 H    -8.62618     1.62172     2.90933
 H    -6.96747     1.06991     2.49521
 H    -7.24723     2.40443     4.83510
 H    -6.32921     0.81767     4.87171
 H    -8.55225     1.17426     7.56619
 H    -6.88003     1.53488     7.02574
 H    -6.30717    -0.86618     6.77448
 H    -7.21666    -0.79302     8.34885
 H    -8.67475    -3.47248     7.09262
 H    -7.00161    -3.00710     7.52639
 H    -6.36864    -2.66095     5.12383
 H    -7.23393    -4.26218     5.16863
 H    -8.72650    -3.02701     2.49904
 H    -7.04303    -3.45195     2.95525
 H    -6.37775    -1.06736     3.20248
 H    -7.33706    -1.11620     1.65515
Cl     3.28757     3.33260    -0.67608
Cl    -4.47388    -0.90927     4.83464
Cl    -5.74395    -0.06195    -0.24211
Cl     4.50342     5.61317     3.94382
Cl    -0.63652     4.85375    -0.73889
Cl    -0.53882     0.67820     4.90604
Cl    -9.59869    -1.57874     0.11687
Cl    -9.80456     3.99117     4.33531
Cl     3.43254     0.56196     3.24217
Cl    -4.64502     5.13567    -2.66941
Cl    -5.68951     3.31697     2.63383
Cl     4.50425    -2.16076    -1.58846
 O     2.89720     6.40745    -0.77538
 O    -4.25497     2.13348     5.02242
 O    -6.07462     6.86366    -0.64898
 O     4.83780     2.69972     4.71105
 O     3.46907     0.38769    -2.96081
 O    -4.56513     5.75543     1.25781
 O    -5.77378     2.38762    -3.24512
 O     4.64569     7.48813     0.94062
 H     3.19120     0.32233    -0.68761
 H     3.20913     0.30250     0.83660
 H     0.37628     3.22088     0.40713
 H     1.78224     2.72413    -0.09705
 H     1.60197     0.10425     2.85862
 H     0.23075    -0.46356     3.25584
 H     1.63994    -2.82729     0.17547
 H     0.23595    -3.26456    -0.29117
 H     1.87036     0.19583    -2.67623
 H     0.45013     0.00036    -3.27623
 H    -4.25209     5.90540     2.93053
 H    -4.41887     6.38726     4.37245
 H    -1.56921     8.79119     4.55487
 H    -2.94562     8.30187     4.00639
 H    -1.57991     3.79618    -2.34924
 H    -2.91370     4.43835    -2.80661
 H    -1.49976     2.26691     4.07059
 H    -2.89704     2.73620     4.52364
 H    -2.88842     5.60406     1.39839
 H    -1.44596     5.39197     0.83337
 H    -5.92792     2.61858    -0.07779
 H    -6.09287     2.69217    -1.59824
 H    -7.34503     0.65618     0.09114
 H    -8.68828     0.34782     0.82080
 H    -7.44026     3.84017     2.24875
 H    -8.78715     4.56343     2.50237
 H    -8.80671     6.42969    -1.51757
 H    -7.41963     6.09446    -0.94726
 H    -7.45960     2.51539    -3.15654
 H    -8.90204     2.55226    -3.75702
 H   -13.37488    -1.43310     5.79222
 H   -13.46390    -0.31791     4.74081
 H   -10.74919     5.96909     4.96682
 H   -12.12109     6.26056     4.26115
 H   -10.51807    -0.87980    -1.71338
 H   -11.84837    -1.61342    -1.97976
 H   -10.64913     2.10753     3.76965
 H   -11.99732     1.80792     4.42852
 H   -10.41972    -1.64618     1.81481
 H   -11.84000    -1.84927     2.41236
 H     3.47197     6.59306    -1.57010
 H     2.86855     5.43064    -0.67905
 H    -4.21592     1.14638     5.06026
 H    -4.79414     2.34397     4.21260
 H    -6.14995     7.82517    -0.85828
 H    -5.51426     6.48216    -1.37769
 H     5.09060     3.64897     4.64623
 H     4.22410     2.52921     3.96561
 H     3.91475     0.82577    -3.70243
 H     3.91387    -0.47166    -2.88249
 H    -4.99958     4.88290     1.23678
 H    -5.09350     6.29573     0.64152
 H    -5.37265     3.22486    -3.54361
 H    -5.21673     1.69803    -3.65017
 H     4.21592     8.01998     1.60991
 H     3.97560     7.23762     0.29283
