  412
 
Ce     0.00000     0.00000     0.00000
 N     2.61238     0.00000     0.00000
 N     1.24421     2.34619     0.00000
 N    -1.48167     2.16702    -0.09515
 N     0.52709     0.74078     2.53724
 N     0.80345    -1.85155     1.74331
 C     3.29001    -1.17094    -0.08117
 H     2.81032    -1.94904    -0.24896
 C     4.64923    -1.25852     0.07445
 H     5.07595    -2.08105    -0.00142
 C     5.37324    -0.12304     0.34398
 H     6.29205    -0.16824     0.47223
 C     4.71376     1.08598     0.42052
 H     5.18780     1.86851     0.58951
 C     3.32717     1.12660     0.24141
 C     2.58463     2.41378     0.24953
 C     3.22771     3.63278     0.48597
 H     4.14295     3.65792     0.65078
 C     2.48876     4.79406     0.47652
 H     2.90095     5.61106     0.64789
 C     1.12792     4.74215     0.20869
 H     0.62047     5.52175     0.18896
 C     0.53502     3.50193    -0.02905
 C    -0.92962     3.39630    -0.26480
 C    -1.68820     4.51433    -0.61710
 H    -1.27926     5.33917    -0.75106
 C    -3.04155     4.38112    -0.76362
 H    -3.56048     5.11667    -0.99771
 C    -3.63590     3.15297    -0.56870
 H    -4.55502     3.04455    -0.65188
 C    -2.81731     2.08629    -0.24152
 H    -3.21770     1.25680    -0.11185
 C     0.45784     2.02522     2.92059
 H    -0.16515     2.57123     2.49795
 C     1.25002     2.59264     3.90318
 H     1.14488     3.48662     4.13771
 C     2.19577     1.81393     4.52654
 H     2.78043     2.17833     5.15049
 C     2.25347     0.46563     4.19849
 H     2.86147    -0.09430     4.62548
 C     1.39859    -0.04793     3.23011
 C     1.33709    -1.49759     2.93196
 C     1.75554    -2.44494     3.86401
 H     2.10978    -2.17909     4.68225
 C     1.63944    -3.77807     3.55721
 H     1.91992    -4.42441     4.16577
 N    -2.13954    -1.09297     1.02923
 C    -2.23562    -1.25992     2.37097
 H    -1.58434    -0.87954     2.91234
 C    -3.25020    -1.96655     2.96314
 H    -3.28601    -2.04715     3.88845
 C    -4.21160    -2.55497     2.17852
 H    -4.89496    -3.05467     2.56243
 C    -4.14813    -2.39277     0.81004
 H    -4.79618    -2.77204     0.26224
 C    -3.10077    -1.65168     0.25313
 C    -3.02749    -1.39425    -1.20841
 N    -2.00111    -0.60527    -1.63901
 N     0.26818     0.62838    -2.53579
 C    -0.76467     0.50711    -3.40939
 C    -1.91552    -0.32392    -2.96304
 C    -2.82522    -0.83179    -3.88941
 C    -3.85601    -1.64659    -3.43984
 C    -3.97063    -1.92179    -2.09590
 H    -4.66535    -2.45511    -1.78223
 H    -4.46763    -2.00400    -4.04394
 H    -2.74375    -0.62974    -4.79396
 C    -0.75092     1.10325    -4.67194
 H    -1.48342     1.02403    -5.24001
 C     0.35480     1.80712    -5.06273
 H     0.37966     2.21013    -5.90064
 C     1.43176     1.92311    -4.21049
 H     2.19663     2.38697    -4.46198
 C     1.33679     1.32221    -2.96757
 H     2.06327     1.40253    -2.39097
 N     0.25737    -2.54960    -0.83312
 C    -0.07297    -2.91548    -2.08223
 H     0.04282    -2.29038    -2.76135
 C    -0.57100    -4.15848    -2.42783
 H    -0.76725    -4.36021    -3.31504
 C    -0.77385    -5.09177    -1.43927
 H    -1.15908    -5.91576    -1.63050
 C    -0.38629    -4.76955    -0.14512
 H    -0.48228    -5.39184     0.54010
 C     0.14685    -3.51455     0.12516
 C     0.68542    -3.16657     1.45969
 C     1.10627    -4.15338     2.34874
 H     1.02738    -5.05377     2.12795
Ce   -11.26280    -0.87497     4.26150
 N   -11.39614    -3.19371     3.06424
 N   -13.40874    -1.39062     2.78442
 N   -13.06576     1.01994     4.02540
 N   -13.10878    -2.13834     5.76384
 N   -10.45935    -2.72651     6.00480
 C   -10.35518    -4.05703     3.14233
 H    -9.56320    -3.76163     3.52860
 C   -10.41843    -5.34541     2.67818
 H    -9.67560    -5.90110     2.74004
 C   -11.58607    -5.80770     2.12257
 H   -11.65244    -6.68365     1.82252
 C   -12.66088    -4.94838     2.01910
 H   -13.45644    -5.23850     1.63398
 C   -12.54317    -3.63879     2.49445
 C   -13.65174    -2.65970     2.34405
 C   -14.87483    -3.01605     1.76741
 H   -15.01955    -3.88570     1.47039
 C   -15.86256    -2.06570     1.64860
 H   -16.68786    -2.29244     1.28176
 C   -15.62465    -0.76709     2.07830
 H   -16.28084    -0.11395     1.99281
 C   -14.38473    -0.46010     2.63913
 C   -14.10728     0.90397     3.16144
 C   -14.89921     1.99385     2.79461
 H   -15.59145     1.89001     2.18183
 C   -14.64511     3.21850     3.34941
 H   -15.16342     3.95367     3.11463
 C   -13.61336     3.36213     4.25186
 H   -13.43192     4.18278     4.64819
 C   -12.85919     2.24198     4.55192
 H   -12.16193     2.33910     5.15984
 C   -14.42069    -1.90292     5.60576
 H   -14.68034    -1.04929     5.34239
 C   -15.41494    -2.84353     5.81001
 H   -16.31033    -2.61667     5.70023
 C   -15.05851    -4.11883     6.17756
 H   -15.69705    -4.78791     6.26761
 C   -13.71465    -4.38140     6.40989
 H   -13.44450    -5.22653     6.68968
 C   -12.77150    -3.37713     6.22491
 C   -11.34467    -3.57128     6.57427
 C   -10.95231    -4.54067     7.49495
 H   -11.58180    -5.10435     7.88553
 C    -9.62336    -4.65304     7.81871
 H    -9.34289    -5.29938     8.42727
 N   -10.65456     0.35165     6.48793
 C   -11.11542    -0.12415     7.66977
 H   -11.73436    -0.81604     7.65772
 C   -10.70754     0.37002     8.88171
 H   -11.05800     0.02381     9.66993
 C    -9.77728     1.37938     8.92224
 H    -9.47400     1.71165     9.73507
 C    -9.29704     1.89250     7.73439
 H    -8.67693     2.58466     7.74008
 C    -9.75396     1.36462     6.52302
 C    -9.31611     1.92892     5.21937
 N    -9.87170     1.38245     4.09951
 N   -10.67272     0.02515     1.86595
 C   -10.11200     1.24912     1.68668
 C    -9.51931     1.88902     2.89173
 C    -8.59764     2.92713     2.76328
 C    -8.02822     3.46407     3.91101
 C    -8.39308     2.97673     5.14496
 H    -8.02783     3.33819     5.92046
 H    -7.40236     4.15040     3.84513
 H    -8.36743     3.25565     1.92449
 C   -10.06345     1.87464     0.43929
 H    -9.69476     2.72410     0.35004
 C   -10.56518     1.22065    -0.65283
 H   -10.54093     1.62404    -1.49004
 C   -11.11432    -0.03515    -0.50811
 H   -11.45000    -0.50034    -1.23911
 C   -11.14486    -0.58257     0.76192
 H   -11.51750    -1.43009     0.85963
 N    -8.63175    -1.42079     4.46258
 C    -7.71798    -0.73642     3.75554
 H    -7.96697    -0.42017     2.91652
 C    -6.43103    -0.47261     4.18764
 H    -5.83557    -0.00601     3.64538
 C    -6.04456    -0.90932     5.43201
 H    -5.20659    -0.69982     5.77468
 C    -6.94316    -1.67284     6.16578
 H    -6.69985    -2.00869     6.99884
 C    -8.20805    -1.93566     5.65267
 C    -9.15637    -2.84197     6.34032
 C    -8.70942    -3.80674     7.24074
 H    -7.80457    -3.87760     7.44760
Ce    -2.83984   -10.24563     3.08504
 N    -0.70091    -9.15228     2.05650
 N    -0.83935    -9.63998     4.72474
 N    -3.10864   -10.87363     5.62153
 N    -3.09783    -7.69565     3.91885
 N    -3.64329    -8.39408     1.34173
 C    -0.60484    -8.98533     0.71476
 H    -1.25612    -9.36571     0.17339
 C     0.40975    -8.27870     0.12259
 H     0.44556    -8.19810    -0.80272
 C     1.37115    -7.69028     0.90721
 H     2.05450    -7.19058     0.52330
 C     1.30768    -7.85247     2.27569
 H     1.95572    -7.47321     2.82349
 C     0.26031    -8.59357     2.83260
 C     0.18704    -8.85100     4.29414
 C     1.13018    -8.32346     5.18163
 H     1.82489    -7.79014     4.86796
 C     1.01556    -8.59866     6.52557
 H     1.62718    -8.24125     7.12967
 C    -0.01523    -9.41346     6.97514
 H    -0.09671    -9.61551     7.87969
 C    -0.92493    -9.92133     6.04876
 C    -2.07579   -10.75236     6.49512
 C    -2.08954   -11.34850     7.75767
 H    -1.35704   -11.26928     8.32575
 C    -3.19525   -12.05237     8.14846
 H    -3.22012   -12.45538     8.98637
 C    -4.27221   -12.16836     7.29622
 H    -5.03709   -12.63222     7.54771
 C    -4.17724   -11.56746     6.05330
 H    -4.90372   -11.64778     5.47670
 C    -2.76749    -7.32977     5.16796
 H    -2.88327    -7.95487     5.84708
 C    -2.26946    -6.08677     5.51356
 H    -2.07321    -5.88504     6.40077
 C    -2.06660    -5.15348     4.52500
 H    -1.68138    -4.32949     4.71623
 C    -2.45417    -5.47570     3.23085
 H    -2.35818    -4.85341     2.54563
 C    -2.98730    -6.73070     2.96057
 C    -3.52587    -7.07868     1.62604
 C    -3.94672    -6.09187     0.73699
 H    -3.86784    -5.19148     0.95778
 C    -4.47928    -6.46756    -0.47217
 H    -4.75975    -5.82122    -1.08073
 N    -5.45284   -10.24525     3.08573
 C    -6.13046    -9.07431     3.16690
 H    -5.65078    -8.29621     3.33469
 C    -7.48968    -8.98673     3.01128
 H    -7.91641    -8.16419     3.08715
 C    -8.21369   -10.12221     2.74175
 H    -9.13251   -10.07701     2.61350
 C    -7.55421   -11.33123     2.66521
 H    -8.02825   -12.11376     2.49622
 C    -6.16763   -11.37185     2.84432
 C    -5.42509   -12.65903     2.83620
 N    -4.08467   -12.59144     3.08573
 N    -1.35879   -12.41227     3.18088
 C    -1.91084   -13.64155     3.35053
 C    -3.37548   -13.74718     3.11478
 C    -3.96838   -14.98740     2.87705
 C    -5.32922   -15.03931     2.60921
 C    -6.06817   -13.87803     2.59976
 H    -6.98341   -13.90317     2.43495
 H    -5.74141   -15.85631     2.43784
 H    -3.46093   -15.76700     2.89677
 C    -1.15226   -14.75958     3.70283
 H    -1.56120   -15.58442     3.83679
 C     0.20110   -14.62637     3.84935
 H     0.72003   -15.36192     4.08344
 C     0.79544   -13.39822     3.65443
 H     1.71456   -13.28980     3.73761
 C    -0.02315   -12.33154     3.32725
 H     0.37725   -11.50206     3.19758
 N    -3.36755   -10.98603     0.54849
 C    -3.29829   -12.27047     0.16514
 H    -2.67531   -12.81648     0.58778
 C    -4.09048   -12.83789    -0.81744
 H    -3.98534   -13.73187    -1.05198
 C    -5.03623   -12.05918    -1.44081
 H    -5.62089   -12.42358    -2.06476
 C    -5.09392   -10.71088    -1.11276
 H    -5.70193   -10.15095    -1.53975
 C    -4.23904   -10.19732    -0.14438
 C    -4.17754    -8.74766     0.15377
 C    -4.59600    -7.80031    -0.77828
 H    -4.95024    -8.06616    -1.59652
Ce    -3.43775    -2.11767    11.99321
 N    -3.30442     0.20107    13.19047
 N    -1.29182    -1.60202    13.47029
 N    -1.63480    -4.01257    12.22930
 N    -1.59178    -0.85429    10.49086
 N    -4.24121    -0.26612    10.24990
 C    -4.34538     1.06439    13.11237
 H    -5.13736     0.76900    12.72610
 C    -4.28213     2.35278    13.57652
 H    -5.02496     2.90846    13.51466
 C    -3.11448     2.81507    14.13214
 H    -3.04812     3.69102    14.43218
 C    -2.03968     1.95575    14.23560
 H    -1.24412     2.24586    14.62073
 C    -2.15738     0.64616    13.76025
 C    -1.04882    -0.33293    13.91065
 C     0.17427     0.02342    14.48729
 H     0.31900     0.89307    14.78431
 C     1.16200    -0.92694    14.60610
 H     1.98730    -0.70020    14.97294
 C     0.92410    -2.22554    14.17640
 H     1.58028    -2.87869    14.26189
 C    -0.31582    -2.53253    13.61558
 C    -0.59328    -3.89661    13.09326
 C     0.19866    -4.98649    13.46010
 H     0.89089    -4.88265    14.07287
 C    -0.05544    -6.21114    12.90529
 H     0.46287    -6.94631    13.14007
 C    -1.08719    -6.35477    12.00284
 H    -1.26863    -7.17541    11.60651
 C    -1.84136    -5.23461    11.70278
 H    -2.53863    -5.33174    11.09486
 C    -0.27986    -1.08972    10.64894
 H    -0.02021    -1.94334    10.91231
 C     0.71438    -0.14910    10.44470
 H     1.60978    -0.37597    10.55447
 C     0.35795     1.12620    10.07714
 H     0.99649     1.79528     9.98709
 C    -0.98590     1.38877     9.84481
 H    -1.25606     2.23390     9.56502
 C    -1.92905     0.38449    10.02980
 C    -3.35589     0.57865     9.68044
 C    -3.74825     1.54803     8.75976
 H    -3.11875     2.11172     8.36917
 C    -5.07720     1.66040     8.43599
 H    -5.35767     2.30674     7.82744
 N    -4.04599    -3.34428     9.76677
 C    -3.58513    -2.86849     8.58493
 H    -2.96620    -2.17660     8.59699
 C    -3.99302    -3.36266     7.37299
 H    -3.64255    -3.01644     6.58478
 C    -4.92327    -4.37201     7.33246
 H    -5.22655    -4.70429     6.51963
 C    -5.40352    -4.88513     8.52031
 H    -6.02362    -5.57730     8.51462
 C    -4.94659    -4.35726     9.73168
 C    -5.38444    -4.92155    11.03534
 N    -4.82886    -4.37509    12.15519
 N    -4.02784    -3.01778    14.38875
 C    -4.58856    -4.24176    14.56803
 C    -5.18125    -4.88166    13.36297
 C    -6.10292    -5.91977    13.49142
 C    -6.67233    -6.45671    12.34369
 C    -6.30748    -5.96937    11.10974
 H    -6.67272    -6.33083    10.33424
 H    -7.29820    -7.14304    12.40958
 H    -6.33312    -6.24828    14.33021
 C    -4.63711    -4.86727    15.81541
 H    -5.00579    -5.71673    15.90467
 C    -4.13537    -4.21329    16.90753
 H    -4.15962    -4.61668    17.74475
 C    -3.58624    -2.95748    16.76281
 H    -3.25056    -2.49229    17.49382
 C    -3.55569    -2.41007    15.49279
 H    -3.18306    -1.56255    15.39507
 N    -6.06880    -1.57185    11.79212
 C    -6.98258    -2.25621    12.49917
 H    -6.73358    -2.57247    13.33818
 C    -8.26952    -2.52002    12.06706
 H    -8.86499    -2.98662    12.60932
 C    -8.65600    -2.08332    10.82270
 H    -9.49397    -2.29281    10.48002
 C    -7.75740    -1.31980    10.08892
 H    -8.00071    -0.98394     9.25586
 C    -6.49251    -1.05697    10.60204
 C    -5.54419    -0.15067     9.91438
 C    -5.99114     0.81411     9.01396
 H    -6.89598     0.88496     8.80710
 I    -6.69637    -5.26021     3.82840
 I     3.85592    -4.98504    -0.74267
 I    -1.36466    -0.75936     6.15142
 I    -1.47580    -9.48589    -3.06569
 I     2.76243    -3.30295    10.84164
 I     9.08512    -6.59735     4.42871
 I    -6.22957     0.63124     0.57667
 I    -2.93285    -7.58148     8.92231
 I     5.06128     2.06002    -3.10956
 I    -1.26142     5.35442     3.30337
 I     3.38911   -10.87649     2.50906
 I     0.09240    -2.66377    -5.83658
 N    -7.80137    -7.55787     8.35332
 C    -7.06994    -7.97188     7.57803
 C    -6.11654    -8.46915     6.58754
 N     3.87904    -6.33037     4.27378
 C     4.56407    -6.78356     3.47827
 C     5.40954    -7.37102     2.44172
 N    -5.01226     2.80240     5.15946
 C    -4.28071     2.39038     4.38317
 C    -3.31900     1.87168     3.41198
 N     1.15484    -5.27344     6.65186
 C     0.47114    -4.82103     7.44899
 C    -0.38410    -4.21335     8.46561
 N     4.96091    -2.68738    -5.26759
 C     4.22948    -2.27337    -4.49230
 C     3.27609    -1.77610    -3.50181
 N    -6.71950    -3.91488    -1.18805
 C    -7.40453    -3.46169    -0.39254
 C    -8.25000    -2.87423     0.64401
 N     2.17181   -13.04765    -2.07373
 C     1.44026   -12.63563    -1.29744
 C     0.47855   -12.11693    -0.32625
 N    -3.99529    -4.97181    -3.56613
 C    -3.31159    -5.42422    -4.36326
 C    -2.45636    -6.03190    -5.37988
 H    -5.10052    -8.29206     6.94028
 H    -6.26916    -9.53845     6.44123
 H    -6.26916    -7.94770     5.64261
 H     6.45791    -7.22390     2.70131
 H     5.20075    -8.43802     2.36406
 H     5.20075    -6.88947     1.48641
 H    -2.30599     2.06123     3.76689
 H    -3.46700     0.79849     3.29173
 H    -3.46700     2.36855     2.45317
 H     0.23643    -3.75357     9.23480
 H    -1.01338    -4.98043     8.91693
 H    -1.01338    -3.45261     8.00368
 H     3.81829    -1.35185    -2.65676
 H     2.64960    -2.59821    -3.15576
 H     2.64960    -1.00747    -3.95438
 H    -7.62210    -2.43491     1.41916
 H    -8.87931    -3.64900     1.08196
 H    -8.87931    -2.10044     0.20432
 H     1.01360   -11.66954     0.51141
 H    -0.14747   -12.93226     0.03629
 H    -0.14747   -11.36220    -0.80227
 H    -1.41049    -5.87438    -5.11636
 H    -2.66025    -7.10128    -5.43429
 H    -2.66025    -5.57346    -6.34754
