  168
 
 O     0.00000     0.00000     0.00000
 C     1.46102    -0.05165    -0.01903
 H     1.82422     0.99597    -0.03673
 O     1.77899    -0.74794     1.17527
 C     1.91562    -0.97379    -1.17137
 H     1.63392    -2.03007    -0.94632
 C     1.32478    -0.50739    -2.51295
 H     1.87961     0.39890    -2.84503
 C    -0.18483    -0.23482    -2.40705
 H    -0.75512    -1.19316    -2.39325
 C    -0.53144     0.65293    -1.18354
 H    -0.08689     1.67579    -1.27970
 C    -2.03685     0.73045    -0.89548
 H    -2.51680    -0.25880    -1.07919
 H    -2.23394     1.13097     0.13398
 O     3.32108    -0.84770    -1.37392
 O     1.47667    -1.58102    -3.45125
 O    -2.65426     1.70993    -1.74660
 O     3.88802     0.02260     4.07492
 C    -1.07989    -0.14011    -4.66495
 H    -1.32482    -1.20066    -4.42528
 O    -0.54880     0.57887    -3.56266
 C     1.63194     0.82234     4.56034
 H     1.89695     1.90795     4.42063
 C     1.10622     0.14807     3.27874
 H     0.65598    -0.85747     3.47004
 C     2.26628     0.06956     2.26861
 H     2.56133     1.08435     1.92252
 C     3.48610    -0.67250     2.86141
 H     3.24947    -1.73839     3.10087
 C     4.70796    -0.61531     1.94071
 H     4.82150     0.35952     1.41388
 H     5.62723    -0.90985     2.49946
 O     0.62983     0.86720     5.57098
 O     0.07676     0.99304     2.74540
 O     4.43490    -1.61697     0.93279
 H     3.84593    -1.15598    -0.54629
 H     2.22630    -1.38062    -4.08615
 H    -2.50761     1.43893    -2.71449
 H     0.28559    -0.02896     5.74364
 H    -0.12556     0.71818     1.78932
 H     5.30346    -2.05503     0.67867
 O     0.53273    -4.62978    -3.39344
 C     1.99369    -4.68269    -3.42213
 H     2.35686    -3.63506    -3.44584
 O     2.32231    -5.37284    -2.22873
 C     2.44206    -5.60800    -4.57462
 H     2.16337    -6.66422    -4.34784
 C     1.84327    -5.14083    -5.91470
 H     2.39944    -4.23841    -6.25348
 C     0.33289    -4.86699    -5.79833
 H    -0.23115    -5.82966    -5.77822
 C    -0.01138    -3.98068    -4.57395
 H     0.42389    -2.95516    -4.67456
 C    -1.51587    -3.92330    -4.27074
 H    -1.97462    -4.92447    -4.44562
 H    -1.70471    -3.52024    -3.24247
 O     3.84734    -5.48074    -4.78278
 O     1.98622    -6.22223    -6.84378
 O    -2.17411    -2.96375    -5.11442
 O     4.38203    -4.60932     0.70229
 C    -0.59506    -4.77837    -8.04240
 H    -0.83896    -5.83656    -7.80011
 O    -0.05333    -4.05502    -6.94592
 C     2.11832    -3.82253     1.16597
 H     2.39257    -2.73577     1.05256
 C     1.62383    -4.48619    -0.13224
 H     1.18910    -5.50206     0.04525
 C     2.79226    -4.55184    -1.13083
 H     3.09274    -3.53581    -1.47449
 C     4.00003    -5.29759    -0.51769
 H     3.75377    -6.36315    -0.28665
 C     5.23338    -5.24727    -1.42476
 H     5.37548    -4.26718    -1.93313
 H     6.14313    -5.57163    -0.86490
 O     1.08097    -3.80386     2.14638
 O     0.57179    -3.66132    -0.65398
 O     4.93637    -6.22286    -2.44815
 H     4.37808    -5.77877    -3.95510
 H     2.70475    -6.01057    -7.51314
 H    -2.04469    -3.24240    -6.07999
 H     0.50376    -4.58979     2.05697
 H     0.40515    -3.89730    -1.62841
 H     5.78486    -6.70931    -2.68199
 O    -6.17927    -1.68589    -0.50543
 C    -4.72527    -1.72545    -0.53753
 H    -4.36165    -0.67703    -0.54278
 O    -4.39183    -2.44422     0.63989
 C    -4.22640    -2.60305    -1.70314
 H    -4.36055    -3.68210    -1.45346
 C    -4.91334    -2.26488    -3.03970
 H    -4.45350    -1.37303    -3.48862
 C    -6.42607    -2.00538    -2.89560
 H    -6.99872    -2.95843    -2.83819
 C    -6.72177    -1.06411    -1.69743
 H    -6.25686    -0.05675    -1.84567
 C    -8.21431    -0.93784    -1.37247
 H    -8.70829    -1.92882    -1.52354
 H    -8.37146    -0.51083    -0.35142
 O    -2.84340    -2.28476    -1.89370
 O    -4.72792    -3.37821    -3.92056
 O    -8.84003     0.02049    -2.23892
 O    -2.38148    -1.72557     3.60781
 C    -7.36535    -1.91891    -5.14585
 H    -7.59230    -2.97973    -4.91368
 O    -6.83967    -1.20146    -4.03876
 C    -4.66024    -0.96999     4.07184
 H    -4.41011     0.12658     4.01387
 C    -5.11464    -1.55935     2.73103
 H    -5.57907    -2.56658     2.87098
 C    -3.93526    -1.63577     1.75158
 H    -3.62338    -0.62211     1.41608
 C    -2.73166    -2.38590     2.36693
 H    -2.96529    -3.46131     2.56322
 C    -1.49093    -2.28141     1.47038
 H    -1.36705    -1.28843     0.98308
 H    -0.56856    -2.56546     2.03131
 O    -5.72069    -1.03407     5.02505
 O    -6.11705    -0.65986     2.24105
 O    -1.76683    -3.22859     0.41581
 H    -2.29981    -2.60593    -1.07362
 H    -3.98791    -3.15830    -4.57800
 H    -8.77774    -0.32018    -3.18558
 H    -6.44551    -1.66567     4.77481
 H    -6.29636    -0.83040     1.26381
 H    -0.94734    -3.79007     0.25281
 O    -5.63794    -6.30689    -3.86988
 C    -4.18555    -6.36637    -3.89729
 H    -3.80784    -5.32386    -3.91314
 O    -3.86565    -7.07325    -2.70979
 C    -3.69054    -7.26101    -5.05026
 H    -3.86012    -8.33584    -4.81230
 C    -4.34522    -6.87848    -6.39305
 H    -3.81937    -5.99350    -6.78879
 C    -5.85837    -6.60411    -6.26499
 H    -6.42538    -7.56289    -6.22062
 C    -6.18036    -5.68177    -5.06196
 H    -5.73580    -4.66491    -5.20123
 C    -7.67470    -5.59417    -4.72718
 H    -8.14008    -6.59893    -4.86999
 H    -7.82876    -5.16966    -3.70457
 O    -2.29889    -6.97431    -5.21869
 O    -4.19649    -7.98108    -7.29301
 O    -8.35294    -4.66014    -5.57933
 O    -1.83805    -6.34408     0.24190
 C    -6.81532    -6.52320    -8.50547
 H    -7.05283    -7.58050    -8.26508
 O    -6.26416    -5.80056    -7.41126
 C    -4.10853    -5.57181     0.70899
 H    -3.84816    -4.47786     0.63473
 C    -4.57679    -6.17680    -0.62205
 H    -5.03344    -7.18586    -0.47122
 C    -3.40232    -6.25545    -1.60723
 H    -3.08490    -5.24590    -1.95016
 C    -2.20357    -7.01237    -0.98913
 H    -2.45618    -8.08195    -0.78304
 C    -0.96438    -6.94037    -1.88932
 H    -0.82058    -5.96023    -2.39318
 H    -0.04643    -7.24151    -1.32928
 O    -5.16352    -5.62246     1.66973
 O    -5.60059    -5.29912    -1.10680
 O    -1.26925    -7.90615    -2.91884
 H    -1.76667    -7.29979    -4.39216
 H    -3.48396    -7.75834    -7.97953
 H    -8.27239    -4.97940    -6.53332
 H    -5.90734    -6.22334     1.40810
 H    -5.73852    -5.42793    -2.09721
 H    -0.46575    -8.49908    -3.05908
