   48
 
Cs     0.00000     0.00000     0.00000
Cs     4.50155    -0.68365     5.31710
Cs     2.76188     3.11519     5.31710
Cs     3.04151    -2.73267     0.85989
Cs     1.86782     3.43811     1.59848
Cs     1.00644    -5.45447     2.64376
Cs     0.89406    -0.32292     3.71863
Cs    -0.53855    -3.75625    -1.14009
 C     4.08937     0.18893     1.90267
 C    -1.44151    -2.39071     2.19002
 C     3.45369    -3.60526     4.27432
 C    -2.87177    -0.28849    -1.54624
 O     3.29189    -0.44998     1.10362
 O    -2.39867    -3.18881     1.83009
 O     4.25117    -2.96635     5.07337
 O    -1.91461     0.50961    -1.18632
 O     3.60187     0.89077     2.87639
 O    -0.26065    -2.52471     1.67429
 O     3.94118    -4.30710     3.30060
 O    -4.05264    -0.15449    -1.03051
 O     5.37618     0.11878     1.73418
 O    -1.66704    -1.45140     3.05951
 O     2.16688    -3.53510     4.44281
 O    -2.64624    -1.22781    -2.41572
Cs     2.95219     0.68365    -5.31710
Cs     7.45374     0.00000     0.00000
Cs     5.71408     3.79884     0.00000
Cs     5.99370    -2.04903    -4.45722
Cs     4.82001     4.12176    -3.71863
Cs     3.95864    -4.77082    -2.67334
Cs     3.84626     0.36073    -1.59848
Cs     2.41364    -3.07260    -6.45719
 C     7.04157     0.87258    -3.41443
 C     1.51068    -1.70706    -3.12708
 C     6.40588    -2.92161    -1.04278
 C     0.08042     0.39516    -6.86334
 O     6.24409     0.23367    -4.21349
 O     0.55353    -2.50517    -3.48701
 O     7.20337    -2.28270    -0.24373
 O     1.03758     1.19326    -6.50342
 O     6.55407     1.57442    -2.44071
 O     2.69155    -1.84106    -3.64281
 O     6.89337    -3.62345    -2.01650
 O    -1.10044     0.52916    -6.34761
 O     8.32837     0.80242    -3.58292
 O     1.28515    -0.76775    -2.25760
 O     5.11907    -2.85145    -0.87430
 O     0.30595    -0.54416    -7.73283
