   36
 
 O     0.00000     0.00000     0.00000
 O   -13.47558    -4.53787    -0.43003
 O    -7.37470    -0.36765    -0.21457
Cs     4.99725     1.67230     1.02798
Cs    -4.96367    -1.68289    -1.02687
Cs    -8.49745    -2.85869     0.59957
Cs     1.13635     0.38680     2.58820
Cs    -2.39953     1.31292     0.81544
Cs   -12.35223    -2.03500    -1.24251
 O    -0.00718     2.11466    -3.40992
 O   -13.48131    -2.42255    -3.83872
 O    -7.37840     1.74327    -3.62580
Cs     4.99051     3.78767    -2.38007
Cs    -4.97080     0.43243    -4.43453
Cs    -8.50903    -0.74497    -2.80726
Cs     1.13117     2.50186    -0.81500
Cs    -2.40553     3.42556    -2.59929
Cs   -12.35859     0.07850    -4.65280
 O     1.28234    -3.80692     0.00862
 O   -12.19795    -8.34404    -0.41694
 O    -6.09274    -4.17192    -0.20741
Cs     6.27621    -2.13007     1.03615
Cs    -3.68540    -5.48720    -1.02095
Cs    -7.21969    -6.66406     0.60706
Cs     2.41772    -3.41923     2.60295
Cs    -1.12075    -2.49538     0.81698
Cs   -11.07105    -5.83969    -1.23527
 O     1.27584    -1.68939    -3.40098
 O   -12.20152    -6.22872    -3.82768
 O    -6.09983    -2.05889    -3.61842
Cs     6.26927    -0.01863    -2.37668
Cs    -3.69005    -3.37480    -4.43327
Cs    -7.22611    -4.55288    -2.80542
Cs     2.40917    -1.30667    -0.81308
Cs    -1.12879    -0.38084    -2.58803
Cs   -11.07799    -3.72729    -4.64499
