  144
 
In     0.00000     0.00000     0.00000
Cs     5.66971     0.00000     0.00000
 C    -1.36590     1.79713     0.00000
 C    -0.42964    -1.08826     1.93040
 C     2.22518     0.37939    -0.00000
 C    -0.42964    -1.08826    -1.93040
 H    -2.40393     1.46459     0.00000
 H    -1.17665     2.39731    -0.88998
 H    -1.17665     2.39731     0.88998
 H    -1.50767    -1.16716     2.07083
 H     0.00544    -2.08681     1.88917
 H     0.00583    -0.53630     2.76335
 H     2.41051     1.45352    -0.00000
 H     2.66975    -0.06602    -0.88998
 H     2.66975    -0.06602     0.88998
 H    -1.50767    -1.16716    -2.07083
 H     0.00583    -0.53630    -2.76335
 H     0.00544    -2.08681    -1.88917
In    -1.52871    -3.87216    -0.00000
Cs     4.14100    -3.87216    -0.00000
 C    -2.89461    -2.07503    -0.00000
 C    -1.95835    -4.96042     1.93040
 C     0.69646    -3.49277    -0.00000
 C    -1.95835    -4.96042    -1.93040
 H    -3.93264    -2.40757    -0.00000
 H    -2.70536    -1.47484    -0.88998
 H    -2.70536    -1.47484     0.88998
 H    -3.03639    -5.03932     2.07083
 H    -1.52328    -5.95897     1.88917
 H    -1.52288    -4.40846     2.76335
 H     0.88180    -2.41864    -0.00000
 H     1.14103    -3.93818    -0.88998
 H     1.14103    -3.93818     0.88998
 H    -3.03639    -5.03932    -2.07083
 H    -1.52288    -4.40846    -2.76335
 H    -1.52328    -5.95897    -1.88917
In    -4.90583     1.93680     5.27431
Cs     0.76388     1.93680     5.27431
 C    -6.27172     3.73393     5.27431
 C    -5.33547     0.84854     7.20471
 C    -2.68065     2.31619     5.27431
 C    -5.33547     0.84854     3.34391
 H    -7.30976     3.40139     5.27431
 H    -6.08248     4.33412     4.38433
 H    -6.08248     4.33412     6.16429
 H    -6.41350     0.76965     7.34514
 H    -4.90039    -0.15001     7.16348
 H    -4.90000     1.40050     8.03766
 H    -2.49531     3.39032     5.27431
 H    -2.23608     1.87078     4.38433
 H    -2.23608     1.87078     6.16429
 H    -6.41350     0.76965     3.20348
 H    -4.90000     1.40050     2.51096
 H    -4.90039    -0.15001     3.38514
In    -6.43454    -1.93535     5.27431
Cs    -0.76483    -1.93535     5.27431
 C    -7.80044    -0.13822     5.27431
 C    -6.86418    -3.02361     7.20471
 C    -4.20936    -1.55597     5.27431
 C    -6.86418    -3.02361     3.34391
 H    -8.83847    -0.47077     5.27431
 H    -7.61119     0.46196     4.38433
 H    -7.61119     0.46196     6.16429
 H    -7.94222    -3.10251     7.34514
 H    -6.42910    -4.02217     7.16348
 H    -6.42871    -2.47166     8.03766
 H    -4.02403    -0.48184     5.27431
 H    -3.76479    -2.00138     4.38433
 H    -3.76479    -2.00138     6.16429
 H    -7.94222    -3.10251     3.20348
 H    -6.42871    -2.47166     2.51096
 H    -6.42910    -4.02217     3.38514
In    -4.90583     1.93680    -5.27431
Cs     0.76388     1.93680    -5.27431
 C    -6.27172     3.73393    -5.27431
 C    -5.33547     0.84854    -3.34391
 C    -2.68065     2.31619    -5.27431
 C    -5.33547     0.84854    -7.20471
 H    -7.30976     3.40139    -5.27431
 H    -6.08248     4.33412    -6.16429
 H    -6.08248     4.33412    -4.38433
 H    -6.41350     0.76964    -3.20348
 H    -4.90039    -0.15001    -3.38514
 H    -4.90000     1.40050    -2.51096
 H    -2.49531     3.39032    -5.27431
 H    -2.23608     1.87078    -6.16429
 H    -2.23608     1.87078    -4.38433
 H    -6.41350     0.76964    -7.34514
 H    -4.90000     1.40050    -8.03766
 H    -4.90039    -0.15001    -7.16348
In    -6.43454    -1.93536    -5.27431
Cs    -0.76483    -1.93536    -5.27431
 C    -7.80044    -0.13822    -5.27431
 C    -6.86418    -3.02361    -3.34391
 C    -4.20936    -1.55597    -5.27431
 C    -6.86418    -3.02361    -7.20471
 H    -8.83847    -0.47077    -5.27431
 H    -7.61119     0.46196    -6.16429
 H    -7.61119     0.46196    -4.38433
 H    -7.94222    -3.10251    -3.20348
 H    -6.42910    -4.02217    -3.38514
 H    -6.42871    -2.47166    -2.51096
 H    -4.02403    -0.48184    -5.27431
 H    -3.76479    -2.00138    -6.16429
 H    -3.76479    -2.00138    -4.38433
 H    -7.94222    -3.10251    -7.34514
 H    -6.42871    -2.47166    -8.03766
 H    -6.42910    -4.02217    -7.16348
In    -9.81166     3.87361    -0.00000
Cs    -4.14195     3.87361    -0.00000
 C   -11.17755     5.67074    -0.00000
 C   -10.24130     2.78535     1.93040
 C    -7.58648     4.25299    -0.00000
 C   -10.24130     2.78535    -1.93040
 H   -12.21559     5.33819    -0.00000
 H   -10.98830     6.27092    -0.88998
 H   -10.98830     6.27092     0.88998
 H   -11.31933     2.70645     2.07083
 H    -9.80622     1.78679     1.88917
 H    -9.80582     3.33730     2.76335
 H    -7.40114     5.32712    -0.00000
 H    -7.14191     3.80758    -0.88998
 H    -7.14191     3.80758     0.88998
 H   -11.31933     2.70645    -2.07083
 H    -9.80582     3.33730    -2.76335
 H    -9.80622     1.78679    -1.88917
In   -11.34037     0.00145    -0.00000
Cs    -5.67066     0.00145    -0.00000
 C   -12.70627     1.79858    -0.00000
 C   -11.77001    -1.08681     1.93040
 C    -9.11519     0.38084    -0.00000
 C   -11.77001    -1.08681    -1.93040
 H   -13.74430     1.46603    -0.00000
 H   -12.51702     2.39876    -0.88998
 H   -12.51702     2.39876     0.88998
 H   -12.84804    -1.16571     2.07083
 H   -11.33493    -2.08536     1.88917
 H   -11.33454    -0.53486     2.76335
 H    -8.92986     1.45496    -0.00000
 H    -8.67062    -0.06457    -0.88998
 H    -8.67062    -0.06457     0.88998
 H   -12.84804    -1.16571    -2.07083
 H   -11.33454    -0.53486    -2.76335
 H   -11.33493    -2.08536    -1.88917
