  168
 
Cu     0.00000     0.00000     0.00000
 O    -1.71006    -1.14016    -0.58844
 O    -0.79474     1.70877    -1.00995
 H    -1.95736    -1.99673    -0.17918
 H    -2.06159    -1.06090    -1.49741
 H    -0.83814     2.55081    -0.50667
 H    -1.55973     1.73064    -1.61553
 S    -3.54560     0.66264    -3.26547
 O    -4.98735     0.38211    -2.86051
 O    -3.54687     1.02053    -4.72947
 O    -2.73227    -0.54366    -2.95713
 O    -3.04731     1.83989    -2.45997
Cu    -5.19670     4.57002    -0.22630
 O    -3.78179    -0.30027     0.86981
 H    -2.81989    -0.20660     0.74275
 H    -4.10779    -0.84760     0.12619
 O    -4.36413     2.56535    -0.23932
 H    -3.91022     2.26926    -1.05510
 H    -5.02572     1.88978     0.01160
 S     1.16145     0.12178    -3.12753
 O     2.63423     0.38502    -3.42495
 O     1.03884    -0.27103    -1.68557
 O     0.39979     1.34792    -3.48570
 O     0.69869    -1.03588    -3.98265
 O    -5.80461     4.12306     1.82285
 H    -6.74819     4.02255     2.04429
 H    -5.42996     4.68245     2.53788
 O    -5.93567     6.59851    -0.23468
 H    -6.41260     6.89426     0.56776
 H    -5.28184     7.28841    -0.46736
 O     0.00155    -3.30802    -2.75504
 H     0.23163    -2.44327    -3.16778
 H     0.42889    -3.41528    -1.88352
 O     0.51343     3.72785    -2.38474
 H     0.37531     2.81625    -2.72010
 H     1.15945     3.66466    -1.66447
 O    -4.76906    -1.70690    -1.18369
 H    -5.07069    -1.02111    -1.81517
 H    -4.26048    -2.32143    -1.73405
 O    -6.48676     1.07348     0.43403
 H    -6.13212     0.36642     1.01264
 H    -7.03120     1.60944     1.03537
Cu     0.72772    -5.31305     3.07478
 O    -0.99130    -6.49827     2.48951
 O    -0.12806    -3.59043     2.12161
 H    -1.21278    -7.36729     2.88248
 H    -1.34498    -6.41901     1.58818
 H    -0.16663    -2.75178     2.63240
 H    -0.89451    -3.57082     1.51903
 S    -2.81776    -4.62395    -0.19974
 O    -4.25606    -4.92474     0.20841
 O    -2.82221    -4.24877    -1.66067
 O    -1.97944    -5.81062     0.10646
 O    -2.33757    -3.44438     0.61118
Cu    -4.48660    -0.75179     2.85519
 O    -3.02003    -5.58169     3.93476
 H    -2.05652    -5.47496     3.83432
 H    -3.31416    -6.13786     3.18641
 O    -3.62213    -2.74572     2.85258
 H    -3.19212    -3.03569     2.02418
 H    -4.26720    -3.42729     3.11842
 S     1.87835    -5.17485    -0.06745
 O     3.35592    -4.96044    -0.37610
 O     1.74810    -5.54390     1.37987
 O     1.15650    -3.93142    -0.45114
 O     1.37185    -6.33434    -0.89346
 O    -5.06362    -1.16433     4.90080
 H    -6.00691    -1.22349     5.14213
 H    -4.66796    -0.60768     5.60609
 O    -5.28373     1.27466     2.85098
 H    -5.73251     1.58805     3.66229
 H    -4.63412     1.96072     2.59509
 O     0.72514    -8.61085     0.35850
 H     0.95752    -7.74987    -0.04053
 H     1.14877    -8.73208     1.23120
 O     1.23274    -1.58553     0.70817
 H     1.10905    -2.48883     0.33980
 H     1.87759    -1.64563     1.42800
 O    -3.98398    -7.01173     1.88077
 H    -4.30217    -6.31029     1.27010
 H    -3.49716    -7.61534     1.29492
 O    -5.74309    -4.23555     3.52806
 H    -5.39321    -4.92712     4.12433
 H    -6.27510    -3.68028     4.12004
Cu     1.68131     4.53609     3.39956
 O    -0.01396     3.36425     2.76510
 O     0.81339     6.19444     2.41689
 H    -0.23367     2.49330     3.15887
 H    -0.38252     3.43257     1.86166
 H     0.81199     7.05863     2.89320
 H     0.07441     6.22818     1.78519
 S    -1.89769     5.14709     0.08108
 O    -3.33680     4.88800     0.49784
 O    -1.89989     5.48524    -1.39567
 O    -1.09218     3.93550     0.38838
 O    -1.37111     6.32632     0.86390
Cu    -3.44898     9.08040     3.14296
 O    -2.09065     4.20848     4.22059
 H    -1.14706     4.27664     3.99459
 H    -2.49337     3.68104     3.50715
 O    -2.64603     7.07007     3.10027
 H    -2.20514     6.77575     2.27963
 H    -3.31106     6.40017     3.35245
 S     2.91165     4.64644     0.29399
 O     4.36697     4.90322    -0.07544
 O     2.86109     4.28815     1.75744
 O     2.13252     5.86095    -0.06640
 O     2.40015     3.46855    -0.50248
 O    -4.17032     8.67116     5.14923
 H    -5.13115     8.64519     5.31936
 H    -3.79728     9.19019     5.88886
 O    -4.17108    11.10569     3.08361
 H    -4.66646    11.42016     3.86763
 H    -3.49087    11.77105     2.85858
 O     1.69571     1.15958     0.64980
 H     1.93693     2.02591     0.25177
 H     2.13411     1.04806     1.51242
 O     1.93835     8.18863     1.15853
 H     1.91645     7.30265     0.72244
 H     2.67320     8.15328     1.79484
 O    -3.18248     2.81147     2.20892
 H    -3.50414     3.51701     1.61338
 H    -2.71218     2.20987     1.61407
 O    -4.77504     5.60314     3.79655
 H    -4.40392     4.93085     4.40654
 H    -5.32277     6.15616     4.37519
Cu     2.41246    -0.79472     6.47377
 O     0.73370    -2.00347     5.84006
 O     1.24897     0.81416     5.76761
 H     0.49856    -2.86735     6.23272
 H     0.30310    -1.87560     4.97929
 H     1.40851     1.73277     6.08758
 H     0.58750     0.86398     5.06412
 S    -1.20550    -0.15337     3.15989
 O    -2.64213    -0.40430     3.59733
 O    -1.22279     0.13925     1.67667
 O    -0.40154    -1.35716     3.50668
 O    -0.66810     1.03859     3.90973
Cu    -2.72794     3.75910     6.23308
 O    -1.31532    -1.08438     7.29637
 H    -0.36184    -0.97894     7.13057
 H    -1.67486    -1.60630     6.55762
 O    -1.88725     1.76057     6.18547
 H    -1.46221     1.48892     5.34923
 H    -2.52655     1.06850     6.44476
 S     3.65553    -0.62745     3.35367
 O     5.11506    -0.43621     2.96317
 O     3.61567    -0.89635     4.83345
 O     2.90780     0.60151     2.96368
 O     3.10888    -1.81901     2.60656
 O    -3.43590     3.37711     8.23660
 H    -4.39605     3.39400     8.41315
 H    -3.03354     3.87411     8.97556
 O    -3.52178     5.77641     6.17126
 H    -4.01161     6.09383     6.95785
 H    -2.85685     6.45128     5.93699
 O     2.45199    -4.14785     3.74523
 H     2.66940    -3.26863     3.36843
 H     2.86413    -4.26487     4.62317
 O     2.51871     2.83837     4.37221
 H     2.59889     2.01330     3.84550
 H     3.27664     2.81541     4.98945
 O    -2.41106    -2.48651     5.28927
 H    -2.74894    -1.77490     4.70407
 H    -1.92949    -3.07082     4.68299
 O    -4.00809     0.28376     6.88579
 H    -3.67942    -0.41091     7.49946
 H    -4.49775     0.88396     7.47156
