   81
 
Mg     0.00000     0.00000     0.00000
Mg    -1.81555     1.03325     6.23516
Mg     1.81286    -1.03211    -6.25021
Cl     0.04176     0.00550     4.97926
Cl    -1.94085     1.11342    -7.35441
Cl     1.85770    -1.03004    -1.25622
Cl    -0.04690     0.00117    -5.00151
Cl    -1.86443     1.03536     1.24001
Cl     1.93849    -1.11774     7.32710
Mg    -1.88333     3.21832     0.08399
Mg    -3.69773     4.25353     6.30572
Mg    -0.06847     2.18437    -6.15373
Cl    -1.83902     3.21069     5.06897
Cl    -3.82478     4.32567    -7.28092
Cl    -0.02503     2.17930    -1.16021
Cl    -1.93003     3.22539    -4.91884
Cl    -3.74727     4.25351     1.32170
Cl     0.05730     2.11346     7.42704
Mg    -3.76450     6.43498     0.16559
Mg    -5.58180     7.47115     6.39974
Mg    -1.95326     5.40168    -6.08302
Cl    -3.72305     6.43655     5.14986
Cl    -5.70612     7.55663    -7.17914
Cl    -1.90852     5.39592    -1.08396
Cl    -3.81233     6.43283    -4.83338
Cl    -5.62910     7.46150     1.41315
Cl    -1.82624     5.32595     7.50706
Mg     3.73196     0.03738    -0.05905
Mg     1.91484     1.06999     6.18408
Mg     5.54286    -0.99462    -6.30252
Cl     3.77181     0.03970     4.93047
Cl     1.78748     1.14794    -7.40517
Cl     5.58650    -0.99185    -1.32111
Cl     3.68523     0.03983    -5.05046
Cl     1.87499     1.07677     1.19092
Cl     5.66880    -1.07939     7.27302
Mg     1.84830     3.25590     0.02423
Mg     0.03227     4.29106     6.25721
Mg     3.65982     2.22009    -6.20812
Cl     1.88771     3.24536     5.01623
Cl    -0.09496     4.36059    -7.32572
Cl     3.70482     2.21492    -1.22470
Cl     1.80373     3.26586    -4.96774
Cl    -0.00942     4.29658     1.27120
Cl     3.78641     2.15052     7.37477
Mg    -0.03560     6.47428     0.10540
Mg    -1.85143     7.50621     6.35139
Mg     1.77655     5.44136    -6.13498
Cl     0.00581     6.47143     5.09933
Cl    -1.97722     7.59052    -7.22422
Cl     1.82063     5.43385    -1.14461
Cl    -0.08085     6.47196    -4.88150
Cl    -1.89102     7.50333     1.36655
Cl     1.90416     5.36358     7.45417
Mg     7.46169     0.07656    -0.12343
Mg     5.64470     1.10942     6.13193
Mg     9.27276    -0.96007    -6.35114
Cl     7.50341     0.07822     4.88159
Cl     5.51771     1.18514    -7.45890
Cl     9.32601    -0.94980    -1.37175
Cl     7.41409     0.07497    -5.10118
Cl     5.60620     1.11542     1.12813
Cl     9.39757    -1.04636     7.22893
Mg     5.57952     3.29334    -0.03900
Mg     3.75960     4.32670     6.20246
Mg     7.38833     2.25797    -6.25692
Cl     5.62100     3.28575     4.96743
Cl     3.63393     4.39725    -7.37817
Cl     7.44334     2.25890    -1.27768
Cl     5.53028     3.30008    -5.01822
Cl     3.72232     4.33379     1.20585
Cl     7.51632     2.18548     7.32926
Mg     3.69698     6.51168     0.04181
Mg     1.87847     7.54356     6.29864
Mg     5.50666     5.47653    -6.18599
Cl     3.73788     6.51007     5.04977
Cl     1.75267     7.62877    -7.27843
Cl     5.56143     5.47527    -1.19724
Cl     3.64948     6.50552    -4.93067
Cl     1.84000     7.54213     1.29916
Cl     5.63157     5.39781     7.40337
