   96
 
Cr     0.00000     0.00000     0.00000
Cr     2.20477    -1.41757     2.45530
Cr    -4.40953     2.83514    -4.91061
Cr    -2.20477     1.41757    -2.45530
Cr     4.40953    -2.83514     4.91060
 F     3.30715    -1.58584     3.99502
 F     3.30715    -0.00001     1.83117
 F     3.30715    -2.66688     1.53972
 F    -3.30715     1.58584    -3.99502
 F    -3.30715     0.00000    -1.83116
 F    -3.30715     2.66687    -1.53972
 F    -1.10238     1.24931    -0.91558
 F    -1.10238    -1.41757    -0.62414
 F    -1.10238     0.16826     1.53972
 F     5.51192    -4.08445     5.82619
 F     5.51192    -1.41758     5.53475
 F     5.51192    -3.00341     3.37089
 F    -5.51192     4.08445    -5.82619
 F    -5.51192     1.41757    -5.53474
 F    -5.51192     3.00341    -3.37089
 F     1.10238    -1.24931     0.91558
 F     1.10238     1.41757     0.62413
 F     1.10238    -0.16827    -1.53972
Cr    -6.61430     4.25271    -7.36591
Cr     0.00000     0.00001    -4.91061
Cr     2.20477    -1.41757    -2.45530
Cr    -4.40953     2.83515    -9.82121
Cr    -2.20477     1.41758    -7.36591
Cr     4.40953    -2.83514    -0.00000
 F     3.30715    -1.58583    -0.91558
 F     3.30715    -0.00000    -3.07944
 F     3.30715    -2.66687    -3.37088
 F    -3.30715     1.58584    -8.90563
 F    -3.30715     0.00001    -6.74176
 F    -3.30715     2.66688    -6.45032
 F    -1.10238     1.24931    -5.82619
 F    -1.10238    -1.41757    -5.53474
 F    -1.10238     0.16826    -3.37088
 F     5.51192    -4.08444     0.91558
 F     5.51192    -1.41757     0.62414
 F     5.51192    -3.00340    -1.53972
 F    -5.51192     4.08445   -10.73679
 F    -5.51192     1.41758   -10.44534
 F    -5.51192     3.00341    -8.28149
 F     1.10238    -1.24930    -3.99502
 F     1.10238     1.41758    -4.28647
 F     1.10238    -0.16826    -6.45032
Cr    -6.61430     4.25272   -12.27651
Cr    -0.00000     4.25270     2.45530
Cr     2.20477     2.83513     4.91061
Cr    -4.40953     7.08785    -2.45530
Cr    -2.20477     5.67027     0.00000
Cr     4.40953     1.41756     7.36591
 F     3.30715     2.66687     6.45033
 F     3.30715     4.25270     4.28647
 F     3.30715     1.58583     3.99503
 F    -3.30715     5.83854    -1.53972
 F    -3.30715     4.25270     0.62414
 F    -3.30715     6.91958     0.91559
 F    -1.10238     5.50201     1.53972
 F    -1.10238     2.83513     1.83117
 F    -1.10238     4.42096     3.99503
 F     5.51192     0.16825     8.28149
 F     5.51192     2.83513     7.99005
 F     5.51192     1.24930     5.82619
 F    -5.51192     8.33715    -3.37088
 F    -5.51192     5.67027    -3.07944
 F    -5.51192     7.25611    -0.91559
 F     1.10238     3.00340     3.37088
 F     1.10238     5.67027     3.07944
 F     1.10238     4.08444     0.91559
Cr    -6.61430     8.50542    -4.91060
Cr     0.00000     4.25271    -2.45530
Cr     2.20477     2.83514     0.00000
Cr    -4.40953     7.08785    -7.36591
Cr    -2.20477     5.67028    -4.91061
Cr     4.40953     1.41757     2.45530
 F     3.30715     2.66687     1.53972
 F     3.30715     4.25270    -0.62414
 F     3.30715     1.58583    -0.91558
 F    -3.30715     5.83854    -6.45033
 F    -3.30715     4.25271    -4.28646
 F    -3.30715     6.91958    -3.99502
 F    -1.10238     5.50202    -3.37088
 F    -1.10238     2.83514    -3.07944
 F    -1.10238     4.42097    -0.91558
 F     5.51192     0.16826     3.37088
 F     5.51192     2.83513     3.07945
 F     5.51192     1.24930     0.91559
 F    -5.51192     8.33716    -8.28149
 F    -5.51192     5.67028    -7.99004
 F    -5.51192     7.25612    -5.82619
 F     1.10238     3.00340    -1.53972
 F     1.10238     5.67028    -1.83117
 F     1.10238     4.08444    -3.99502
Cr    -6.61430     8.50542    -9.82121
