  120
 
Cr     0.00000     0.00000     0.00000
Cr     2.24784     0.02878     0.40473
Cr    -4.47588     0.07624     5.20000
Cr     6.79728     4.29352    -2.01896
Cr    -4.53055    -1.20088     2.33770
Cr    -2.40902    -1.41240     2.52678
Cr     4.75943     2.74291     0.59874
Cr     2.08108     3.05084     0.23766
Cr     4.53603     1.56979    -2.27357
Cr     7.03856     1.22418    -1.99844
Cr    -0.05056     1.42810     2.88076
Cr    -2.16509     1.54004     2.62223
 O     0.95299     1.44641     1.04126
 O     1.22788    -0.35615    -1.39831
 O     1.25772    -1.67551     0.61988
 O    -5.76626    -1.23293     4.03662
 O    -5.87845     0.39801     6.60489
 O    -5.50746     1.75352     4.47343
 O    -3.33739     0.13216     3.38093
 O    -3.55279    -1.88572     0.83483
 O    -3.52546    -3.04727     2.98308
 O     3.34947     1.61807    -0.36870
 O     3.41419    -0.97441    -0.84071
 O     3.69784     0.32838     1.90936
 O     5.76223     2.81742    -1.26681
 O     6.06494     1.49631     0.75721
 O     5.65205     4.34642     1.36863
 O    -1.19153     0.01803     1.80526
 O    -1.45122     1.27619    -0.12092
 O    -1.28901    -1.54138    -0.90891
Cr    -0.29552     0.00233    -4.65111
Cr     1.97605    -0.17077    -4.41419
Cr    -4.70808    -0.27254     0.63938
Cr     6.54134     4.35693    -6.55063
Cr    -4.74687    -1.29802    -2.37140
Cr    -2.48269    -1.36897    -2.23657
Cr     4.42977     2.53434    -4.00090
Cr     1.98099     2.80757    -4.38448
Cr     4.44163     1.37003    -6.80447
Cr     6.62232     1.09467    -6.50974
Cr    -0.15789     1.10417    -1.64451
Cr    -2.63931     1.39202    -1.87804
 O     0.83095     1.28434    -3.56801
 O     0.86955    -0.40344    -6.23045
 O     0.98506    -1.72281    -4.13358
 O    -5.84783    -1.46259    -0.57452
 O    -5.96412     0.29761     2.08478
 O    -5.61409     1.38336    -0.19931
 O    -3.59206    -0.00099    -1.10625
 O    -3.42237    -1.71790    -3.83594
 O    -3.57170    -2.99774    -1.69419
 O     3.23482     1.40234    -5.17285
 O     3.22121    -1.50233    -5.35842
 O     3.24564     0.23933    -3.02421
 O     5.56580     2.67185    -5.74922
 O     5.69380     0.97657    -3.60265
 O     5.50476     4.18928    -3.65797
 O    -1.34624     0.16118    -2.92668
 O    -1.62301     1.58281    -4.89286
 O    -1.44044    -1.61230    -5.22183
Cr     0.06625     4.74263     2.75437
Cr     2.44344     4.42712     3.19257
Cr    -4.75031     4.35964     8.19290
Cr     6.75444     8.79463     0.76873
Cr    -4.57890     3.30904     5.08839
Cr    -2.35238     3.38628     5.39051
Cr     4.47576     7.39908     3.43130
Cr     2.39444     7.43407     3.12706
Cr     4.54190     5.96773     0.53523
Cr     6.73289     5.95032     0.80614
Cr    -0.00067     5.87929     5.63225
Cr    -2.38741     5.50073     5.48563
 O     1.26786     5.96191     3.87235
 O     1.49659     4.60342     1.30143
 O     1.01271     3.01965     3.58148
 O    -5.81142     3.25060     6.86567
 O    -6.02123     4.66896     9.74897
 O    -5.78228     6.19931     7.41663
 O    -3.59654     4.28764     6.53393
 O    -3.21382     3.01882     3.60461
 O    -3.50270     1.77663     5.93836
 O     3.50010     5.98823     2.31662
 O     3.45925     3.26182     1.88598
 O     3.69172     4.65571     4.78860
 O     5.58322     7.34928     1.64056
 O     5.81226     6.00035     3.55496
 O     5.79260     8.80611     4.31668
 O    -0.96059     4.48345     4.50889
 O    -1.44583     5.97200     2.34632
 O    -1.06061     3.17096     2.06930
Cr    -0.39980     4.48997    -1.81280
Cr     2.06149     4.13099    -1.43466
Cr    -4.66000     4.36436     3.38805
Cr     6.78113     8.45241    -3.65602
Cr    -5.12590     3.03005     0.70165
Cr    -2.37612     2.73087     0.91379
Cr     4.18987     6.94938    -1.27533
Cr     2.09022     7.23239    -1.48331
Cr     4.20703     5.90937    -4.08529
Cr     6.62634     5.62799    -3.78514
Cr    -0.12909     5.71616     1.02039
Cr    -2.70552     5.80058     0.64362
 O     0.89379     5.64558    -0.77039
 O     0.91790     4.16486    -3.32366
 O     0.58440     2.83376    -0.91144
 O    -6.04719     3.16802     2.59444
 O    -5.75977     4.85992     4.82511
 O    -5.97260     6.02125     2.78035
 O    -3.68730     4.13968     1.56756
 O    -3.63984     2.68019    -0.65216
 O    -3.71613     1.38038     1.21088
 O     3.12250     5.64694    -2.29867
 O     3.13474     2.76921    -2.47592
 O     3.54913     4.28222    -0.14359
 O     5.37647     6.95296    -2.89068
 O     5.60030     5.42393    -0.89384
 O     5.42896     8.49162    -0.74230
 O    -1.37259     4.45278     0.04767
 O    -1.81928     5.89674    -2.24718
 O    -1.53458     2.80052    -2.15474
