  120
 
Cr     0.00000     0.00000     0.00000
Cr     2.97925     0.04502     0.58827
Cr    -3.99924    -0.22113     6.21912
Cr     6.34963     3.95089    -1.51453
Cr    -4.48151    -1.49225     3.36039
Cr    -1.42453    -1.52874     2.75309
Cr     5.55739     2.36054     1.27857
Cr     2.60991     3.10907     0.20072
Cr     3.97640     1.40614    -2.36100
Cr     7.04700     1.08215    -2.30736
Cr     0.70411     1.17106     3.11159
Cr    -2.32660     1.37790     3.85249
 O     2.13701     1.37096     1.01234
 O     1.92101     1.99316    -1.59444
 O     1.12414    -1.09150     0.76788
 O    -3.95981    -2.44214     4.81370
 O    -4.76053    -0.01912     8.09790
 O    -4.32307     1.06250     5.10417
 O    -2.92849    -0.22235     3.65697
 O    -3.07371    -1.33954     0.85091
 O    -2.89080    -2.66047     2.70100
 O     3.97729     2.02722    -0.78053
 O     3.90063    -1.35271     0.14781
 O     3.66690    -0.33623     2.43205
 O     5.66483     3.04581    -2.69503
 O     6.74171     1.13172     1.56631
 O     6.02592     4.96973     1.99615
 O    -0.33053    -0.41608     2.36938
 O    -0.72635     1.30783    -0.88015
 O    -0.21162    -2.08333    -1.17624
Cr    -0.59007    -0.15628    -5.08221
Cr     2.83493    -0.10857    -4.92286
Cr    -3.06339     0.41977     0.89032
Cr     6.73696     4.61361    -7.45676
Cr    -4.21383    -1.25473    -1.96933
Cr    -1.14796    -1.66268    -2.46897
Cr     5.69858     2.83256    -4.72172
Cr     2.67420     3.05254    -5.29436
Cr     4.34031     1.21275    -7.46077
Cr     7.71678     1.36289    -7.31009
Cr     0.68810     1.63145    -2.60478
Cr    -2.39528     1.47626    -2.34944
 O     2.52224     1.31459    -3.93222
 O     1.79660    -0.14864    -7.08340
 O     0.78552    -2.11232    -3.20147
 O    -4.90418    -1.98727    -0.66838
 O    -5.10005    -0.62243     2.14435
 O    -5.10988     1.81605    -0.77286
 O    -2.88382     0.22850    -1.37329
 O    -2.66972    -1.17027    -3.19693
 O    -2.25063    -3.48690    -1.87665
 O     4.51082     2.43599    -6.33160
 O     3.37829    -1.50880    -5.75968
 O     3.02519    -0.12447    -1.57310
 O     6.81398     2.04440    -5.68084
 O     5.00798     0.74966    -3.88198
 O     5.53992     4.92179    -4.70341
 O    -0.77599     0.46091    -3.42597
 O     0.19707     2.19339    -4.77662
 O    -0.44538    -0.95629    -6.50690
Cr    -0.42853     4.00763     3.37022
Cr     3.04181     4.66779     3.31185
Cr    -3.48427     4.38818     8.65186
Cr     5.88477     8.70775     0.73551
Cr    -4.43190     2.88753     6.00979
Cr    -1.24981     2.98693     6.33434
Cr     5.26042     7.14337     3.54913
Cr     1.81032     7.59085     3.51475
Cr     4.34234     5.73681     0.67570
Cr     7.54402     5.81016     1.05212
Cr     0.62369     5.68657     6.10286
Cr    -2.65503     5.99976     5.92731
 O     1.11133     4.76433     4.91587
 O     0.78053     4.48309     2.35654
 O     1.57526     2.29759     4.44631
 O    -5.50753     2.09528     7.15710
 O    -6.07502     4.53573    10.54507
 O    -4.70066     5.51468     7.14097
 O    -3.40100     4.00798     5.47534
 O    -1.66068     2.98278     4.15337
 O    -2.94554     2.06047     7.12006
 O     2.81500     5.03586     1.62500
 O     4.36145     3.51367     0.92883
 O     3.36521     4.47157     5.01544
 O     4.81599     6.99880     1.88578
 O     5.81829     7.18269     5.17044
 O     5.60189     9.47955     4.39090
 O    -1.26829     4.68223     5.77636
 O    -1.01509     5.32139     0.91773
 O    -0.51824     2.05642     1.72784
Cr    -0.12379     4.87710    -2.09839
Cr     2.97728     4.53692    -2.38903
Cr    -3.44478     4.64103     2.83009
Cr     6.83346     8.70468    -4.63035
Cr    -4.48742     3.04922     0.06526
Cr    -1.01773     2.94502     0.46652
Cr     5.66934     6.96873    -1.90323
Cr     2.38281     7.43788    -2.02134
Cr     4.22876     6.12230    -4.81327
Cr     7.26180     5.60389    -4.39544
Cr     0.94193     5.69123     0.88347
Cr    -2.36012     6.01874     0.30057
 O     1.20228     6.43265    -0.50767
 O     2.15901     4.38859    -3.84606
 O     1.05120     3.56522     0.21146
 O    -4.84277     2.47661     2.66058
 O    -5.96386     4.15393     4.79894
 O    -4.86988     7.17683     1.76463
 O    -4.36671     4.28252     1.32839
 O    -3.36929     3.18675    -1.64754
 O    -2.91544     2.09765     0.81818
 O     2.87746     6.61836    -3.47698
 O     4.03956     3.12001    -4.12195
 O     3.51200     4.83384    -0.69900
 O     5.72897     6.97682    -3.57058
 O     5.90365     6.53856    -0.18407
 O     7.04875     8.53482    -0.52250
 O    -1.02112     3.87890    -0.96736
 O     0.30315     6.24269    -3.08525
 O    -0.79331     2.69412    -2.78582
