  104
 
Cr     0.00000     0.00000     0.00000
Cr    -6.06587    -0.78047    -0.92043
Cr    -2.36913    -5.21285     1.14017
Cr     0.33652    -1.51923     6.04286
 C     0.01658     1.12882     1.50615
 C    -4.27413    -1.13919    -1.41523
 C    -2.40323    -6.34837    -0.36248
 C    -1.43499    -1.13105     6.56985
 C     0.10038    -1.14605    -1.52472
 C    -7.84729    -0.39123    -0.38834
 C    -2.45556    -4.06254     2.66023
 C     2.11511    -1.92286     5.49432
 C    -1.37303     1.00376    -0.83958
 C    -6.52377    -2.60327    -1.13347
 C    -1.03076    -4.11674     0.36479
 C     0.81758    -1.82242     7.84477
 C    -0.99445    -6.21918     1.97372
 C     0.80824     0.29829     6.24180
 C    -1.33667    -1.10470     0.76492
 C    -6.53365    -0.49484    -2.73109
 C     1.29579     1.08752    -0.85593
 C    -5.64416    -1.08577     0.90321
 C    -3.70029    -4.11914     0.35516
 C    -0.08483    -3.35777     5.83408
 C    -3.66336    -6.29590     2.00290
 C    -0.09071    -1.21949     4.21346
 C     1.33460    -1.09215     0.78472
 C    -5.65295     1.05655    -0.72488
 O     0.06198     1.82626     2.44641
 O    -3.16915    -1.35511    -1.72371
 O    -2.47660    -7.04816    -1.29843
 O    -2.50991    -0.85902     6.94297
 O     0.33183    -1.82767    -2.43958
 O    -8.90704    -0.10148     0.01031
 O    -2.68197    -3.37881     3.57580
 O     3.17329    -2.21053     5.09652
 O    -2.15766     1.54347    -1.51580
 O    -6.91772    -3.70413    -1.14565
 O    -0.25644    -3.31925     0.00821
 O     1.22944    -2.12753     8.89714
 O    -0.20335    -6.75366     2.64599
 O     1.21117     1.39730     6.23500
 O    -2.10627    -1.90801     1.12001
 O    -6.93585    -0.20925    -3.79124
 O     2.02523     1.75384    -1.47978
 O    -5.43103    -1.34626     2.02241
 O    -4.45235    -3.34979    -0.10170
 O    -0.28761    -4.50511     5.75290
 O    -4.38975    -6.96913     2.62269
 O    -0.29166    -0.98579     3.08790
 O     2.09025    -1.86369     1.23121
 O    -5.44157     2.20532    -0.67615
Cr     3.39996    -2.91688    -3.91766
Cr    -2.68328    -3.72657    -4.92756
Cr     1.04868    -8.06502    -2.73419
Cr     3.70976    -4.45322     2.05841
 C     3.42203    -1.77565    -2.41796
 C    -0.91721    -4.12559    -5.46171
 C     1.03765    -9.20397    -4.23279
 C     1.92824    -4.07326     2.57023
 C     3.50022    -4.06512    -5.43537
 C    -4.45803    -3.31469    -4.37128
 C     0.93871    -6.91612    -1.21581
 C     5.48624    -4.85306     1.51783
 C     2.01819    -1.92364    -4.75331
 C    -3.16383    -5.54310    -5.11889
 C     2.39452    -6.97236    -3.49853
 C     4.18851    -4.74327     3.86543
 C     2.43025    -9.05523    -1.89480
 C     4.17819    -2.63264     2.26154
 C     2.04724    -3.99933    -3.15038
 C    -3.17095    -3.42532    -6.72846
 C     4.70037    -1.83492    -4.77070
 C    -2.25324    -4.02182    -3.09810
 C    -0.28854    -6.98333    -3.52988
 C     3.28455    -6.29069     1.86855
 C    -0.25378    -9.15077    -1.88461
 C     3.27874    -4.15273     0.23391
 C     4.72955    -4.00424    -3.12314
 C    -2.25776    -1.88697    -4.72280
 O     3.50164    -1.07079    -1.48631
 O     0.14995    -4.41420    -5.84558
 O     0.97740    -9.90776    -5.16740
 O     0.83449    -3.83317     2.90094
 O     3.71992    -4.74279    -6.35779
 O    -5.51194    -3.02070    -3.96717
 O     0.71075    -6.23803    -0.29658
 O     6.54337    -5.14664     1.11531
 O     1.20746    -1.41104    -5.41921
 O    -3.57068    -6.64060    -5.11075
 O     3.17566    -6.17727    -3.84902
 O     4.59452    -5.04156     4.92087
 O     3.23252    -9.57741    -1.22527
 O     4.57416    -1.53222     2.26756
 O     1.25080    -4.78137    -2.80693
 O    -3.58593    -3.12381    -7.78055
 O     5.43677    -1.15990    -5.37703
 O    -2.05688    -4.24558    -1.96995
 O    -1.05570    -6.22994    -3.98802
 O     3.07087    -7.43838     1.81722
 O    -0.99720    -9.82082    -1.28191
 O     3.06571    -3.90231    -0.88699
 O     5.48735    -4.76383    -2.65893
 O    -2.05938    -0.73987    -4.63279
