  240
 
 C     0.00000     0.00000     0.00000
 C     1.40946     0.00000     0.00000
 C     2.11628     1.17260     0.00000
 C     1.46158     2.40142    -0.00398
 C     0.10103     2.44256    -0.00115
 C    -0.66415     1.25257     0.00697
 C    -2.08065     1.29766     0.01170
 C    -2.79912     0.17747     0.03302
 C    -0.79766    -1.21296     0.02317
 C    -2.19675    -1.12736     0.04053
 C    -0.19529    -2.51779     0.03068
 C    -2.99441    -2.34032     0.06370
 C    -0.91376    -3.63798     0.05200
 C    -4.40386    -2.34032     0.06370
 C    -2.32979    -3.59306     0.05760
 C    -5.11023    -3.51309     0.06457
 C    -3.09544    -4.78288     0.06485
 C    -4.45604    -4.74276     0.06866
 C    -6.04557   -12.81951     4.36946
 C    -6.00654   -13.83435     3.39357
 C    -6.83284   -14.92434     3.47394
 C    -7.73312   -15.06224     4.52710
 C    -7.80192   -14.10076     5.48748
 C    -6.97034   -12.95719     5.43574
 C    -7.04481   -11.95643     6.43580
 C    -6.27142   -10.87462     6.37861
 C    -5.20875   -11.63387     4.32105
 C    -5.32069   -10.65954     5.32202
 C    -4.25750   -11.41794     3.26436
 C    -4.48335    -9.47305     5.27350
 C    -3.48463   -10.33698     3.20727
 C    -4.52239    -8.45820     6.24939
 C    -3.55910    -9.33621     4.20733
 C    -3.69609    -7.36821     6.16903
 C    -2.72701    -8.19180     4.15549
 C    -2.79580    -7.23032     5.11587
 C    -8.16443    -8.09142     2.74108
 C    -6.75549    -8.09227     2.74119
 C    -6.04815    -6.91882     2.74108
 C    -6.70285    -5.69000     2.73710
 C    -8.06340    -5.64886     2.73994
 C    -8.82858    -6.83885     2.74806
 C   -10.24508    -6.79376     2.75279
 C   -10.96355    -7.91395     2.77411
 C    -8.96261    -9.30523     2.76436
 C   -10.36118    -9.21878     2.78162
 C    -8.36024   -10.61006     2.77187
 C   -11.15936   -10.43259     2.80490
 C    -9.07871   -11.73025     2.79319
 C   -12.56829   -10.43174     2.80479
 C   -10.49474   -11.68533     2.79879
 C   -13.27517   -11.60536     2.80577
 C   -11.26039   -12.87515     2.80604
 C   -12.62047   -12.83418     2.80974
 C    -2.33545    -1.60311     4.63376
 C    -2.29642    -2.61795     3.65787
 C    -3.12271    -3.70794     3.73823
 C    -4.02300    -3.84584     4.79139
 C    -4.09180    -2.88436     5.75177
 C    -3.25970    -1.73994     5.69993
 C    -3.33417    -0.73918     6.69999
 C    -2.56130     0.34178     6.64290
 C    -1.49811    -0.41662     4.58524
 C    -1.61005     0.55771     5.58621
 C    -0.54738    -0.20154     3.52865
 C    -0.77323     1.74335     5.53780
 C     0.22601     0.88027     3.47146
 C    -0.81227     2.75820     6.51369
 C     0.15154     1.88104     4.47152
 C     0.01403     3.84819     6.43332
 C     0.98312     3.02460     4.41978
 C     0.91432     3.98608     5.38016
 H     1.94553    -0.94907     0.00000
 H     3.20590     1.14376     0.00316
 H     2.03663     3.32737    -0.00935
 H    -0.40672     3.40707    -0.00520
 H    -2.58824     2.26216    -0.00230
 H    -3.88646     0.25262     0.04526
 H     0.89205    -2.59294     0.01844
 H    -0.40611    -4.60246     0.06533
 H    -4.94010    -1.39135     0.06300
 H    -6.19984    -3.48411     0.06203
 H    -2.58749    -5.74729     0.06743
 H    -5.03102    -5.66875     0.07488
 H    -5.30782   -13.75128     2.56111
 H    -6.78477   -15.69366     2.70326
 H    -8.38057   -15.93739     4.58204
 H    -8.50875   -14.21330     6.30956
 H    -7.74476   -12.07393     7.26307
 H    -6.36245   -10.12312     7.16286
 H    -4.16635   -12.16919     2.47988
 H    -2.78463   -10.21951     2.38005
 H    -5.22110    -8.54128     7.08186
 H    -3.74415    -6.59890     6.93971
 H    -2.02023    -8.07923     3.33336
 H    -2.14835    -6.35517     5.06092
 H    -6.21971    -9.04150     2.74137
 H    -4.95853    -6.94766     2.74416
 H    -6.12780    -4.76405     2.73174
 H    -8.57115    -4.68435     2.73589
 H   -10.75267    -5.82926     2.73879
 H   -12.05088    -7.83880     2.78635
 H    -7.27290   -10.68521     2.75963
 H    -8.57106   -12.69472     2.80652
 H   -13.10424    -9.48261     2.80391
 H   -14.36480   -11.57671     2.80340
 H   -10.75275   -13.83972     2.80871
 H   -13.19546   -13.76016     2.81580
 H    -1.59770    -2.53488     2.82540
 H    -3.07465    -4.47726     2.96756
 H    -4.67045    -4.72099     4.84634
 H    -4.79857    -2.99693     6.57390
 H    -4.03417    -0.85665     7.52721
 H    -2.65245     1.09303     7.42738
 H    -0.45635    -0.95304     2.74440
 H     0.92596     0.99777     2.64419
 H    -1.51098     2.67512     7.34615
 H    -0.03403     4.61750     7.20400
 H     1.68995     3.13714     3.59770
 H     1.56177     4.86123     5.32522
 C     4.45431    -3.12498    -3.00538
 C     5.86376    -3.12498    -3.00538
 C     6.57059    -1.95238    -3.00538
 C     5.91588    -0.72356    -3.00936
 C     4.55534    -0.68242    -3.00653
 C     3.79016    -1.87241    -2.99841
 C     2.37366    -1.82732    -2.99368
 C     1.65519    -2.94751    -2.97235
 C     3.65665    -4.33794    -2.98221
 C     2.25756    -4.25234    -2.96485
 C     4.25902    -5.64277    -2.97470
 C     1.45990    -5.46530    -2.94168
 C     3.54055    -6.76296    -2.95338
 C     0.05044    -5.46530    -2.94168
 C     2.12452    -6.71805    -2.94778
 C    -0.65592    -6.63807    -2.94081
 C     1.35887    -7.90786    -2.94053
 C    -0.00173    -7.86774    -2.93672
 C    -1.59126   -15.94449     1.36409
 C    -1.55223   -16.95933     0.38819
 C    -2.37853   -18.04932     0.46856
 C    -3.27881   -18.18722     1.52172
 C    -3.34761   -17.22574     2.48210
 C    -2.51604   -16.08217     2.43037
 C    -2.59051   -15.08141     3.43043
 C    -1.81711   -13.99960     3.37323
 C    -0.75444   -14.75885     1.31568
 C    -0.86638   -13.78452     2.31664
 C     0.19681   -14.54292     0.25898
 C    -0.02905   -12.59803     2.26812
 C     0.96968   -13.46196     0.20189
 C    -0.06808   -11.58318     3.24402
 C     0.89521   -12.46119     1.20195
 C     0.75822   -10.49319     3.16365
 C     1.72730   -11.31678     1.15011
 C     1.65851   -10.35530     2.11049
 C    -3.71012   -11.21640    -0.26429
 C    -2.30118   -11.21725    -0.26419
 C    -1.59384   -10.04380    -0.26429
 C    -2.24855    -8.81498    -0.26827
 C    -3.60909    -8.77384    -0.26544
 C    -4.37427    -9.96383    -0.25732
 C    -5.79077    -9.91874    -0.25259
 C    -6.50924   -11.03893    -0.23127
 C    -4.50830   -12.43021    -0.24101
 C    -5.90687   -12.34376    -0.22376
 C    -3.90593   -13.73504    -0.23351
 C    -6.70505   -13.55757    -0.20048
 C    -4.62440   -14.85523    -0.21219
 C    -8.11398   -13.55672    -0.20059
 C    -6.04043   -14.81031    -0.20659
 C    -8.82087   -14.73034    -0.19961
 C    -6.80608   -16.00013    -0.19933
 C    -8.16616   -15.95916    -0.19563
 C     2.11886    -4.72809     1.62838
 C     2.15789    -5.74293     0.65249
 C     1.33159    -6.83292     0.73286
 C     0.43131    -6.97082     1.78601
 C     0.36251    -6.00934     2.74639
 C     1.19460    -4.86493     2.69455
 C     1.12014    -3.86416     3.69461
 C     1.89301    -2.78320     3.63752
 C     2.95620    -3.54160     1.57986
 C     2.84426    -2.56727     2.58083
 C     3.90693    -3.32652     0.52328
 C     3.68107    -1.38163     2.53242
 C     4.68032    -2.24471     0.46608
 C     3.64204    -0.36678     3.50831
 C     4.60585    -1.24395     1.46614
 C     4.46834     0.72321     3.42794
 C     5.43742    -0.10038     1.41441
 C     5.36863     0.86110     2.37479
 H     6.39984    -4.07405    -3.00538
 H     7.66020    -1.98122    -3.00222
 H     6.49093     0.20239    -3.01472
 H     4.04759     0.28209    -3.01058
 H     1.86606    -0.86282    -3.00768
 H     0.56785    -2.87236    -2.96011
 H     5.34635    -5.71792    -2.98694
 H     4.04820    -7.72744    -2.94005
 H    -0.48580    -4.51633    -2.94238
 H    -1.74553    -6.60909    -2.94335
 H     1.86682    -8.87227    -2.93795
 H    -0.57672    -8.79373    -2.93050
 H    -0.85351   -16.87626    -0.44427
 H    -2.33046   -18.81864    -0.30212
 H    -3.92627   -19.06237     1.57667
 H    -4.05444   -17.33828     3.30418
 H    -3.29045   -15.19891     4.25769
 H    -1.90814   -13.24810     4.15748
 H     0.28795   -15.29417    -0.52550
 H     1.66968   -13.34449    -0.62533
 H    -0.76680   -11.66626     4.07648
 H     0.71015    -9.72388     3.93433
 H     2.43408   -11.20421     0.32798
 H     2.30596    -9.48015     2.05554
 H    -1.76540   -12.16648    -0.26401
 H    -0.50422   -10.07265    -0.26122
 H    -1.67349    -7.88903    -0.27364
 H    -4.11684    -7.80933    -0.26949
 H    -6.29836    -8.95424    -0.26659
 H    -7.59658   -10.96378    -0.21903
 H    -2.81859   -13.81019    -0.24575
 H    -4.11675   -15.81970    -0.19886
 H    -8.64994   -12.60759    -0.20147
 H    -9.91049   -14.70169    -0.20198
 H    -6.29844   -16.96470    -0.19667
 H    -8.74115   -16.88514    -0.18957
 H     2.85661    -5.65986    -0.17997
 H     1.37966    -7.60224    -0.03782
 H    -0.21615    -7.84597     1.84096
 H    -0.34426    -6.12191     3.56852
 H     0.42013    -3.98163     4.52183
 H     1.80186    -2.03195     4.42200
 H     3.99795    -4.07802    -0.26098
 H     5.38026    -2.12721    -0.36119
 H     2.94332    -0.44986     4.34077
 H     4.42027     1.49252     4.19862
 H     6.14425     0.01216     0.59232
 H     6.01608     1.73625     2.31984
