  112
 
Al     0.00000     0.00000     0.00000
 O    -0.84264     9.86881    -4.19106
Al    -2.92275     8.12182    -1.26193
 O    -4.38379     6.39560     1.34304
Al    -2.39443     0.92229    -2.09906
 O     1.57956     9.65851    -2.62090
Al    -2.92191     5.32009     0.79038
 O    -6.82373     7.21498     0.22091
 O    -1.78612     7.65852    -2.66776
 O    -3.46232     9.21521     0.19655
 O    -1.11274     2.33714    -2.19280
Al    -5.34900     3.45984    -0.72749
Al    -4.76525     2.84701    -3.58095
Al    -2.33302     8.78027    -4.10315
 O    -2.03241     4.53224    -0.62933
 O    -3.31170     1.09275    -0.52043
Al    -5.32232     6.25953    -2.77691
 O    -4.45412     4.38663    -2.20164
 O    -0.85821     1.85419     0.61316
 O    -4.20376     3.91000     0.67618
 O    -4.41291     7.03361    -1.36297
 O    -0.85640    10.45725    -1.47664
 O    -3.27361     1.68519     2.19438
 O    -2.00856     5.17515    -3.33368
Be    -0.02345     9.91434    -2.75569
Be    -2.84906     4.62084    -2.06402
Be    -5.22152     6.96390     0.07704
Be    -2.46424     1.62207     0.75464
Al    -0.01262     0.05571    -5.69324
 O    -0.85442     9.92063    -9.88463
Al    -2.93617     8.17750    -6.95335
 O    -4.39984     6.44882    -4.35089
Al    -2.40687     0.97706    -7.79266
 O     1.56733     9.71652    -8.31476
Al    -2.93602     5.37633    -4.90304
 O    -6.83902     7.26979    -5.47038
 O    -1.80028     7.71271    -8.35941
 O    -3.47611     9.27169    -5.49551
 O    -1.12528     2.39223    -7.88606
Al    -5.36432     3.51517    -6.42051
Al    -4.77829     2.90358    -9.27324
Al    -2.34639     8.83424    -9.79638
 O    -2.04537     4.58752    -6.32137
 O    -3.32464     1.14740    -6.21388
Al    -5.33455     6.31692    -8.46991
 O    -4.46783     4.44212    -7.89364
 O    -0.87316     1.91063    -5.07956
 O    -4.21676     3.96419    -5.01784
 O    -4.42772     7.09167    -7.05497
 O    -0.86935    10.51069    -7.16946
 O    -3.28867     1.73971    -3.49847
 O    -2.02102     5.22928    -9.02594
Be    -0.03671     9.96755    -8.44873
Be    -2.86222     4.67397    -7.75641
Be    -5.23693     7.01894    -5.61534
Be    -2.47850     1.67681    -4.93792
Al    -4.79224     0.03320     0.01011
 O    -5.63656     9.90246    -4.18169
Al    -7.71603     8.15475    -1.25031
 O    -9.17818     6.42448     1.35200
Al    -7.18706     0.95692    -2.08813
 O    -3.21562     9.69232    -2.61141
Al    -7.71443     5.35360     0.79984
 O   -11.61955     7.24831     0.23135
 O    -6.58031     7.69024    -2.65658
 O    -8.25720     9.24659     0.20808
 O    -5.90805     2.37243    -2.18300
Al   -10.14247     3.49299    -0.71788
Al    -9.55944     2.87928    -3.57078
Al    -7.12599     8.81297    -4.09175
 O    -6.82719     4.56330    -0.61918
 O    -8.10534     1.12627    -0.50999
Al   -10.11405     6.29251    -2.76682
 O    -9.24897     4.42183    -2.19278
 O    -5.65057     1.88934     0.62351
 O    -8.99668     3.94152     0.68497
 O    -9.20839     7.07022    -1.35218
 O    -5.64822    10.49197    -1.46699
 O    -8.06615     1.71880     2.20333
 O    -6.80352     5.20896    -3.32199
Be    -4.81741     9.94907    -2.74686
Be    -7.64285     4.65083    -2.05395
Be   -10.01689     6.99598     0.08781
Be    -7.25624     1.65392     0.76463
Al    -4.80621     0.08980    -5.68354
 O    -5.64859     9.95625    -9.87489
Al    -7.72943     8.20905    -6.94149
 O    -9.19230     6.48101    -4.34153
Al    -7.20114     1.01082    -7.78235
 O    -3.22743     9.74853    -8.30435
Al    -7.72897     5.40922    -4.89286
 O   -11.63491     7.30402    -5.45958
 O    -6.59526     7.74597    -8.34892
 O    -8.27076     9.30177    -5.48342
 O    -5.92166     2.42720    -7.87606
Al   -10.15626     3.54731    -6.41001
Al    -9.57163     2.93612    -9.26423
Al    -7.13961     8.86861    -9.78556
 O    -6.84173     4.61912    -6.31209
 O    -8.11859     1.18128    -6.20304
Al   -10.12708     6.34751    -8.45913
 O    -9.26229     4.47771    -7.88499
 O    -5.66591     1.94521    -5.06879
 O    -9.00950     3.99578    -5.00742
 O    -9.22203     7.12549    -7.04388
 O    -5.66203    10.54558    -7.16022
 O    -8.08189     1.77262    -3.48838
 O    -6.81465     5.26549    -9.01530
Be    -4.83013    10.00320    -8.43959
Be    -7.65619     4.70804    -7.74755
Be   -10.03224     7.05142    -5.60456
Be    -7.27122     1.70975    -4.92732
