  112
 
Al     0.00000     0.00000     0.00000
 O    -0.77423     8.85554    -3.93406
Al    -2.44292     7.42773    -1.16096
 O    -3.76491     6.08733     1.50901
Al    -2.32190     0.86344    -1.99206
 O     1.46864     8.78435    -2.42675
Al    -2.45932     4.73521     0.94183
 O    -6.31725     6.40382     0.33102
 O    -1.75395     6.63713    -2.66779
 O    -3.08742     8.55590     0.20867
 O    -0.72244     1.85097    -1.95096
Al    -4.72785     2.94941    -0.58283
Al    -4.68364     2.69244    -3.42133
Al    -2.39964     7.82862    -3.98291
 O    -1.74082     3.97492    -0.57011
 O    -3.34388     1.36040    -0.49941
Al    -4.77807     5.64431    -2.68631
 O    -3.97656     3.95580    -2.08127
 O    -0.80021     1.65511     0.69734
 O    -4.06217     3.75559     0.92695
 O    -4.07096     6.40668    -1.16994
 O    -1.08123     9.04253    -1.23804
 O    -3.04975     1.54864     2.19445
 O    -1.42802     4.30925    -3.25306
Be    -0.10875     8.89680    -2.53106
Be    -2.40086     4.08657    -1.97135
Be    -4.73968     6.29261     0.22650
Be    -2.37591     1.51608     0.79630
Al     0.00779     0.14020    -5.65767
 O    -0.76682     8.99841    -9.59282
Al    -2.43335     7.57134    -6.82316
 O    -3.75891     6.22749    -4.15002
Al    -2.31184     1.00581    -7.65102
 O     1.47868     8.92767    -8.08775
Al    -2.45082     4.87718    -4.71987
 O    -6.30863     6.54577    -5.33021
 O    -1.74822     6.77996    -8.33103
 O    -3.08123     8.69469    -5.45058
 O    -0.71250     1.99247    -7.61071
Al    -4.71719     3.09223    -6.24448
Al    -4.67745     2.83234    -9.08181
Al    -2.39160     7.97256    -9.64416
 O    -1.72719     4.12228    -6.23256
 O    -3.33448     1.50173    -6.15882
Al    -4.77164     5.78787    -8.34656
 O    -3.96737     4.09846    -7.74265
 O    -0.79157     1.79758    -4.96444
 O    -4.05138     3.89525    -4.73372
 O    -4.06356     6.55184    -6.83165
 O    -1.07147     9.18487    -6.89791
 O    -3.04208     1.69243    -3.46577
 O    -1.42106     4.45093    -8.91309
Be    -0.09847     9.04247    -8.19116
Be    -2.39222     4.22970    -7.63162
Be    -4.73087     6.43701    -5.43451
Be    -2.36781     1.66118    -4.86402
Al    -4.63389    -0.03431    -0.00894
 O    -5.40697     8.81934    -3.94345
Al    -7.07882     7.39657    -1.16982
 O    -8.40130     6.05177     1.50083
Al    -6.95558     0.82816    -1.99853
 O    -3.16491     8.74832    -2.43383
Al    -7.09270     4.70193     0.93211
 O   -10.95162     6.36681     0.32278
 O    -6.39040     6.60734    -2.67745
 O    -7.72449     8.52595     0.20021
 O    -5.35345     1.81209    -1.95585
Al    -9.36670     2.91528    -0.59151
Al    -9.31517     2.65811    -3.43021
Al    -7.03662     7.79925    -3.99120
 O    -6.37128     3.94629    -0.58091
 O    -7.98154     1.32607    -0.50835
Al    -9.41331     5.60957    -2.69470
 O    -8.61291     3.92085    -2.08923
 O    -5.43652     1.62039     0.68809
 O    -8.69152     3.71659     0.91600
 O    -8.70271     6.36835    -1.17777
 O    -5.71604     9.00666    -1.24730
 O    -7.67883     1.51794     2.18847
 O    -6.06481     4.27611    -3.26038
Be    -4.74225     8.86130    -2.54014
Be    -7.03729     4.05332    -1.97902
Be    -9.37419     6.25620     0.21768
Be    -7.01178     1.48028     0.78676
Al    -4.62586     0.10542    -5.66664
 O    -5.39981     8.96242    -9.60236
Al    -7.06900     7.54029    -6.83182
 O    -8.39496     6.19241    -4.15786
Al    -6.94560     0.97011    -7.65748
 O    -3.15499     8.89208    -8.09478
Al    -7.08399     4.84418    -4.72948
 O   -10.94290     6.50831    -5.33863
 O    -6.38489     6.74988    -8.34080
 O    -7.71849     8.66526    -5.45882
 O    -5.34356     1.95321    -7.61558
Al    -9.35568     3.05849    -6.25308
Al    -9.30940     2.79822    -9.09066
Al    -7.02838     7.94265    -9.65273
 O    -6.35799     4.09314    -6.24313
 O    -7.97226     1.46776    -6.16787
Al    -9.40673     5.75330    -8.35466
 O    -8.60364     4.06403    -7.75048
 O    -5.42765     1.76217    -4.97373
 O    -8.68048     3.85659    -4.74448
 O    -8.69491     6.51365    -6.83919
 O    -5.70620     9.14837    -6.90719
 O    -7.67087     1.66165    -3.47204
 O    -6.05783     4.41767    -8.92052
Be    -4.73209     9.00695    -8.20044
Be    -7.02853     4.19647    -7.63929
Be    -9.36516     6.40051    -5.44318
Be    -7.00344     1.62491    -4.87384
