   96
 
Co     0.00000     0.00000     0.00000
Co     2.20300    -1.45559     2.52115
Co    -4.40600     2.91118    -5.04230
Co    -2.20300     1.45559    -2.52115
Co     4.40600    -2.91118     5.04230
 F     3.30450    -1.74234     4.03636
 F     3.30450    -0.00000     2.01188
 F     3.30450    -2.62442     1.51521
 F    -3.30450     1.74234    -4.03636
 F    -3.30450     0.00000    -2.01188
 F    -3.30450     2.62442    -1.51521
 F    -1.10150     1.16884    -1.00594
 F    -1.10150    -1.45559    -0.50927
 F    -1.10150     0.28675     1.51522
 F     5.50750    -4.08001     6.04823
 F     5.50750    -1.45560     5.55157
 F     5.50750    -3.19793     3.52708
 F    -5.50750     4.08001    -6.04823
 F    -5.50750     1.45559    -5.55157
 F    -5.50750     3.19793    -3.52708
 F     1.10150    -1.16884     1.00594
 F     1.10150     1.45558     0.50927
 F     1.10150    -0.28675    -1.51522
Co    -6.60900     4.36677    -7.56345
Co    -0.00000     0.00000    -5.04230
Co     2.20300    -1.45558    -2.52115
Co    -4.40600     2.91118   -10.08460
Co    -2.20300     1.45559    -7.56345
Co     4.40600    -2.91117    -0.00000
 F     3.30450    -1.74234    -1.00594
 F     3.30450     0.00000    -3.03042
 F     3.30450    -2.62442    -3.52709
 F    -3.30450     1.74235    -9.07866
 F    -3.30450     0.00001    -7.05418
 F    -3.30450     2.62443    -6.55751
 F    -1.10150     1.16884    -6.04824
 F    -1.10150    -1.45558    -5.55157
 F    -1.10150     0.28675    -3.52708
 F     5.50750    -4.08001     1.00593
 F     5.50750    -1.45559     0.50927
 F     5.50750    -3.19792    -1.51522
 F    -5.50750     4.08002   -11.09053
 F    -5.50750     1.45560   -10.59387
 F    -5.50750     3.19793    -8.56938
 F     1.10150    -1.16883    -4.03636
 F     1.10150     1.45559    -4.53303
 F     1.10150    -0.28674    -6.55752
Co    -6.60900     4.36677   -12.60575
Co    -0.00000     4.36676     2.52115
Co     2.20300     2.91117     5.04230
Co    -4.40600     7.27794    -2.52115
Co    -2.20300     5.82235     0.00001
Co     4.40600     1.45558     7.56345
 F     3.30450     2.62441     6.55751
 F     3.30450     4.36676     4.53304
 F     3.30450     1.74234     4.03636
 F    -3.30450     6.10910    -1.51520
 F    -3.30450     4.36676     0.50927
 F    -3.30450     6.99118     1.00595
 F    -1.10150     5.53559     1.51521
 F    -1.10150     2.91117     2.01188
 F    -1.10150     4.65351     4.03637
 F     5.50750     0.28675     8.56939
 F     5.50750     2.91116     8.07273
 F     5.50750     1.16883     6.04824
 F    -5.50750     8.44677    -3.52708
 F    -5.50750     5.82235    -3.03042
 F    -5.50750     7.56469    -1.00593
 F     1.10150     3.19792     3.52710
 F     1.10150     5.82234     3.03043
 F     1.10150     4.08001     1.00594
Co    -6.60900     8.73353    -5.04229
Co    -0.00000     4.36676    -2.52115
Co     2.20300     2.91118     0.00000
Co    -4.40600     7.27794    -7.56345
Co    -2.20300     5.82235    -5.04229
Co     4.40600     1.45558     2.52115
 F     3.30450     2.62442     1.51521
 F     3.30450     4.36676    -0.50926
 F     3.30450     1.74234    -1.00594
 F    -3.30450     6.10911    -6.55750
 F    -3.30450     4.36676    -4.53303
 F    -3.30450     6.99118    -4.03635
 F    -1.10150     5.53560    -3.52709
 F    -1.10150     2.91118    -3.03042
 F    -1.10150     4.65351    -1.00593
 F     5.50750     0.28675     3.52709
 F     5.50750     2.91117     3.03043
 F     5.50750     1.16883     1.00594
 F    -5.50750     8.44677    -8.56938
 F    -5.50750     5.82236    -8.07272
 F    -5.50750     7.56469    -6.04823
 F     1.10150     3.19793    -1.51520
 F     1.10150     5.82235    -2.01187
 F     1.10150     4.08001    -4.03636
Co    -6.60900     8.73353   -10.08459
