  120
 
Co     0.00000     0.00000     0.00000
Co    -1.49687    -0.36463    -4.01766
 C    -1.38703     4.44409    -3.76528
 O    -1.81844     4.71376    -5.09429
 O    -2.21865     3.50414    -3.19150
Co    -4.32716     0.06519    -0.57084
 C    -4.00735     4.48174    -1.17798
 O    -4.48486     4.15127    -2.37931
 O    -4.83972     4.34091    -0.12510
 O    -2.45390    -6.09276    -1.93438
 O    -3.24683     1.24748    -1.78641
 O    -5.14899    -7.33159     0.51137
 O    -5.54757     0.72350     1.11436
 O    -3.01969     4.44600     3.79991
 C     0.01650     4.44567    -0.04081
 O    -0.35851     4.28619    -1.38804
 O    -0.58558     3.53036     0.80209
 O     1.39374     4.16117    -0.10106
Co     1.51908   -11.39529    -0.26204
 C     2.13035    -6.69208    -0.64011
 C     2.46054     1.16357    -1.06378
 O     1.57621    -7.05764    -1.77744
 O     1.37947    -6.07988     0.16417
 O     3.37664    -6.98731    -0.39084
 O     2.87181     1.02299     0.25665
 O     2.97657     2.36245    -1.54396
 O     1.04370     1.41421    -0.93328
 O    -7.18929    -1.98283     0.80711
Co    -2.56520     0.34383     3.38447
 C    -2.24701     4.03761     2.77230
 O    -2.85736     4.63401     1.49933
 O    -1.01590     4.71944     2.89266
Co    -0.85529   -11.46209     2.26469
 C    -0.14900    -7.65805     2.60180
 C    -0.31699     1.73254     2.26090
 O    -0.85291    -7.65287     1.37040
 O    -1.19585    -7.70651     3.58014
 O     0.45931    -6.42749     2.84268
 O     0.05675     1.63935     3.52373
 O     0.57009     1.24204     1.38323
 O    -1.61489     1.44026     2.01977
Co    -4.13647    -5.23999    -2.59101
Co    -3.80561     2.48302    -3.48211
 C    -3.81368    -1.84258    -3.10863
 C    -3.65337   -10.24975    -3.46235
 O    -4.25093    -1.60642    -4.34620
 O    -4.68090    -1.56399    -2.12845
 O    -2.52361    -1.51536    -2.85804
 O    -3.74808   -10.47373    -2.13644
 O    -3.60355    -9.02422    -3.79121
 O    -5.68904   -10.62089    -3.58080
Co    -1.65727    -8.39166    -3.47079
 C    -1.76120    -3.81641    -3.76205
 O    -0.92985    -4.19540    -4.73945
 O    -3.05857    -4.12704    -3.84982
Co    -6.49264    -5.90007    -0.12724
Co    -6.36488     3.16961    -0.00276
 C    -6.36736    -1.87382    -0.28737
 C    -6.93609   -10.17376     0.19118
 O    -6.89794    -0.80509    -1.11840
 O    -5.15249    -1.53309     0.24542
 O    -6.39863    -9.98522     1.34989
 O    -6.17776   -10.17665    -0.88199
 O    -8.19523   -10.29327     0.09597
Co    -4.70294    -8.85999    -0.93015
 C    -4.27925    -4.01411    -0.16616
 O    -3.38847    -3.73002    -1.21862
 O    -5.46618    -4.31725    -0.88302
 O    -0.08965     3.98717    -3.84028
 O    -5.48639    -6.72835     2.63325
 O    -2.74201     4.16427    -0.88565
Co    -2.42781   -11.65979    -1.46971
 C    -2.12660    -7.42159    -1.85686
 C    -1.96404     1.29405    -1.56383
 O    -3.01409    -7.95619    -0.91313
 O    -0.89994    -7.27962    -1.04474
 O    -1.56388     1.53228    -0.34349
 O    -1.10346     1.13762    -2.47059
Co     0.00020    -5.49109    -1.97241
Co     0.60128     2.83713    -2.32432
 C     0.42701    -1.66696    -2.36315
 C     0.01541   -10.23505    -2.66936
 O    -0.05242    -1.65562    -3.60501
 O    -0.48738    -1.33862    -1.41303
 O     1.63738    -1.20109    -2.08658
 O     0.39981   -10.19041    -1.29253
 O     0.37617    -8.98060    -3.16071
 O    -1.40056   -10.18231    -2.56844
Co    -5.13365   -11.37631     2.06504
 C    -4.66708    -7.00187     1.66585
 C    -5.20329     1.96894     0.94229
 O    -3.38765    -7.05792     1.86279
 O    -3.84366     1.40988     2.96564
 O    -3.92718     2.02596     0.55923
Co    -2.30145    -6.35631     0.29463
Co    -2.31744     2.94984     0.82980
 C    -2.15192    -1.86610     0.42986
 C    -2.85143   -10.34001     0.92072
 O    -2.64210    -0.87915    -0.45714
 O    -3.01949    -2.05828     1.44206
 O    -0.94158    -1.40987     1.01264
 O    -2.24496    -9.95976     2.09036
 O    -2.01358   -10.33602    -0.14244
 O    -4.07691    -9.98704     0.65900
Co    -0.40572    -8.91741     0.01860
 C    -0.29946    -3.88446     0.16196
 O     0.23879    -3.90010     1.36573
 O     0.54527    -3.68298    -0.88567
 O    -1.19771    -4.75100    -0.27680
Co     2.22706    -2.87674    -0.86624
Co    -2.89884    -8.52210     3.30014
 C    -2.78121    -3.77395     3.73100
 O    -2.31584    -4.75723     4.65062
 O    -1.85616    -3.64429     2.75181
 O    -3.98014    -4.20465     3.14019
Co    -0.42123    -2.52614     2.63317
 O    -1.21811    -3.90704    -2.52888
 O    -3.85355    -5.11471     0.51372
Co    -1.89227    -2.66137    -1.25432
Co    -4.48785    -3.17219     1.51139
