   54
 
 I     0.00000     0.00000     0.00000
 I    -3.24927     1.74194    -0.49989
Co    -0.32005     2.53938     0.20168
 I     6.11637    -2.57640    -2.30175
 I     2.94384    -0.81857    -3.34607
Co     5.32515    -0.15491    -2.53609
 I    -1.78488    -3.24556    -0.63769
 I    -4.87956    -1.53703    -1.23647
Co    -2.44546    -0.73216    -0.50047
 I     3.61458    -5.96157    -3.18961
 I     0.48194    -4.25886    -4.12681
Co     3.29958    -3.38697    -3.24233
 I    -3.46880    -6.51750    -0.77827
 I    -6.56411    -4.83565    -1.83150
Co    -4.19557    -4.06874    -1.10655
 I     1.81078    -9.30797    -3.70990
 I    -1.12591    -7.56889    -4.84832
Co     1.23070    -6.73661    -3.95715
 I     2.06844     0.59117     3.76038
 I    -0.85077     2.33327     2.76882
Co     1.46942     3.17023     3.73837
 I     7.77568    -2.02589     1.05650
 I     4.69895    -0.35939     0.45516
Co     7.09923     0.53167     0.95877
 I    -0.04515    -2.75675     3.09131
 I    -2.96614    -0.96339     2.04465
Co    -0.47385    -0.21503     2.90903
 I     6.22801    -5.35357     0.25549
 I     3.02982    -3.57475    -0.64719
Co     5.41072    -2.86731     0.17859
 I    -2.03137    -6.00143     2.55476
 I    -4.99515    -4.24523     1.84202
Co    -2.50596    -3.46828     2.36164
 I     3.71044    -8.71550    -0.53959
 I     0.47693    -6.93391    -1.45904
Co     3.34538    -6.13258    -0.61272
 I     3.90169     1.07406     7.01055
 I     0.61325     2.74825     6.21439
Co     3.39666     3.66614     7.17277
 I     9.59662    -1.63088     4.29307
 I     6.70583     0.63507     3.54986
Co     9.24153     0.96476     4.18622
 I     2.18821    -2.22468     6.01962
 I    -0.96035    -0.50712     5.84633
Co     1.49421     0.28286     6.30887
 I     7.90627    -5.34925     3.63426
 I     4.87401    -3.23470     2.75714
Co     7.21950    -2.38272     3.58105
 I     0.47530    -5.51912     5.71591
 I    -2.81051    -3.71742     5.37836
Co    -0.31103    -3.04899     5.69815
 I     5.90708    -8.36826     2.46619
 I     3.02756    -6.34546     1.98917
Co     5.49742    -5.80169     2.72652
