  108
 
Co     0.00000     0.00000     0.00000
Co     0.38179    -2.49054    -0.29562
Co    -3.44278    -1.95673    -1.57388
Co    -0.80048    -3.53026     9.59505
Co    -0.16492    -1.24522     9.70178
Co     0.67334    -2.53223    11.09076
Co     4.58079     6.50909   -17.43250
Co     3.26255     1.24259    -9.26161
Co     2.71960     5.53334   -22.20401
Co    -1.14298     4.96042   -23.58464
Co     3.39205     2.83107    -8.13002
Co    -1.44250    -2.61312    -1.90083
 N     2.84183    -2.62656    13.18863
 N     0.34165     3.37557   -13.23141
 N     3.59023     4.44002   -14.65697
 N     1.35656     0.30103    -0.99992
 N    -2.13700    -1.49488    -3.04358
 N    -0.51846    -3.25876    12.62785
 N    -2.42688    -6.15618    15.20954
 N    -1.81660    -3.90450    15.74382
 N     0.56095    -3.56299    14.49618
 N     4.34569     5.87057   -18.25646
 N     2.99904     1.33785   -18.75778
 N     0.71226     4.15613   -19.87619
 N     3.04180     5.70798   -10.39800
 N     4.26470     2.74405   -10.17136
 N     1.68568     2.25527   -12.17238
 N    -1.23005     0.28308    -2.96632
 N    -0.42237    -3.35723    -8.63372
 N    -1.49718    -1.15305    -7.71111
 N    -0.67946     0.17437    -2.78441
 N     1.19420    -3.25862    -0.50073
 N     0.21720    -3.10097    -2.43314
 N    -0.83457    -2.24932     3.30360
 N    -1.06630    -1.02237     5.84952
 N     1.51770    -1.47646     3.95821
 O     0.10139    -0.67077    -4.81914
 O     0.55220    -1.69545    -3.31145
 O     1.01139    -4.18916    -2.98516
 O     1.61920     1.07134    -1.89634
 O     0.14499    -1.21268    -1.85166
 O     0.23989     2.28485    -1.59376
 O     1.61793    -3.44039     9.70099
 O    -2.31776    -5.35883    11.00594
 O     1.17076     0.61080    10.59664
 O    -0.19709    -2.62939    12.96870
 O    -0.83265    -4.38775    11.50879
 O     0.93698    -2.81270     9.08189
 O     2.24937     3.12869   -15.17285
 O     4.04878     5.09914   -13.73393
 O     2.96043     4.20190   -12.75057
 O    -0.09440     4.45039   -13.79121
 O     6.24500     6.23341   -10.45316
 O     3.31392    -1.38631   -11.88593
 O    -0.85502    -0.33611    -6.70483
 O     1.46597     0.25840    -3.75427
 O    -0.81220    -2.25860    -7.36078
 O    -1.28585    -3.58864    -0.84818
 O    -0.74453     1.02243    -1.78992
 O     2.66942    -3.66547     1.40432
 O     1.57888    -1.26842     9.05723
 O    -0.41176    -2.45555     4.55425
 O    -0.86871    -0.81741     7.39338
 O     0.35027    -4.27824    13.36050
 O    -2.40338    -5.42225    13.44998
 O    -1.49276    -1.27166    12.02933
 O     1.81134     4.56156   -17.09661
 O     5.26151     4.26185   -17.49929
 O     4.33783     2.26826   -15.92647
 O     2.14386     2.67895   -13.53691
 O     3.63636     6.83066   -12.35934
 O     3.78034     1.59627   -11.25853
 O     1.58934    -2.36865    14.63999
 O    -0.91561    -6.87320    14.79986
 O    -2.87877    -2.79328    14.33878
 O     2.29904     3.66409   -16.69704
 O     4.73253     7.63624   -22.25458
 O     3.44988     0.84620   -17.56195
 O     2.04794     3.60393   -11.77296
 O     2.96042     4.41648   -10.07232
 O     3.41966     2.99634   -10.63434
 O     2.39020     1.90213    -3.23923
 O     0.21388     0.75714    -5.26645
 O     2.57029     3.30845    -6.21044
 O     0.52756    -1.71306     1.52411
 O     1.40764    -0.58739    -0.27671
 O     0.65004    -4.58137     0.69339
 O    -0.03053    -1.01093     3.40667
 O    -2.01737    -2.28980     2.66500
 O    -0.17123    -0.40754     5.03342
 O    -3.31130    -4.95118    15.85122
 O    -0.97869    -4.61703    17.85603
 O     1.44868    -4.32683    15.47968
 O     3.58927     5.12833   -20.02102
 O     1.86259     1.91621   -18.09721
 O     0.03353     7.19516   -22.29795
 O     2.11294     5.63876   -11.50356
 O     4.22467     3.68990    -6.09777
 O     1.59237     2.89324    -9.39998
 O     2.30435     1.15964    -7.19070
 O    -0.23744    -2.40923   -10.78526
 O    -1.75753    -0.63966    -8.94560
 O     0.28150     0.21072     1.05016
 O     1.66643    -2.96389     0.93718
 O    -1.83248    -1.82613     4.88755
 O    -0.12572    -3.11694     2.57742
 O    -1.77937     0.04037     5.55303
 O     2.85611    -1.33889     5.20831
