   96
 
Co     0.00000     0.00000     0.00000
Br     0.02981     0.66360    -2.54017
Br    -2.62559    -0.00000    -0.00000
Co     3.58028     4.28142    -2.54017
Br     3.61009     4.94502    -5.08034
Br     0.95469     4.28142    -2.54017
Co     2.59578    -2.54746    -0.63504
Br     2.62559    -1.88385    -3.17521
Br    -0.02981    -2.54746    -0.63504
Co     6.17606     1.73396    -3.17521
Br     6.20587     2.39756    -5.71538
Br     3.55047     1.73396    -3.17521
Co     5.19156    -5.09492    -1.27008
Br     5.22137    -4.43131    -3.81025
Br     2.56597    -5.09492    -1.27008
Co     8.77184    -0.81350    -3.81025
Br     8.80165    -0.14989    -6.35042
Br     6.14625    -0.81350    -3.81025
Co     7.78734    -7.64238    -1.90513
Br     7.81715    -6.97877    -4.44529
Br     5.16175    -7.64238    -1.90513
Co    11.36762    -3.36096    -4.44529
Br    11.39743    -2.69735    -6.98546
Br     8.74203    -3.36096    -4.44529
Co     0.00000     1.88385     3.17521
Br     0.02981     2.54746     0.63504
Br    -2.62559     1.88385     3.17521
Co     3.58028     6.16527     0.63504
Br     3.61009     6.82888    -1.90513
Br     0.95469     6.16527     0.63504
Co     2.59578    -0.66360     2.54017
Br     2.62559     0.00000     0.00000
Br    -0.02981    -0.66360     2.54017
Co     6.17606     3.61781     0.00000
Br     6.20587     4.28142    -2.54017
Br     3.55047     3.61781     0.00000
Co     5.19156    -3.21106     1.90513
Br     5.22137    -2.54746    -0.63504
Br     2.56597    -3.21106     1.90513
Co     8.77184     1.07036    -0.63504
Br     8.80165     1.73396    -3.17521
Br     6.14625     1.07035    -0.63504
Co     7.78734    -5.75852     1.27008
Br     7.81715    -5.09492    -1.27008
Br     5.16175    -5.75852     1.27008
Co    11.36762    -1.47710    -1.27008
Br    11.39743    -0.81350    -3.81025
Br     8.74203    -1.47710    -1.27008
Co     0.00000     3.76771     6.35042
Br     0.02981     4.43131     3.81025
Br    -2.62559     3.76771     6.35042
Co     3.58028     8.04913     3.81025
Br     3.61009     8.71273     1.27008
Br     0.95469     8.04913     3.81025
Co     2.59578     1.22025     5.71538
Br     2.62559     1.88385     3.17521
Br    -0.02981     1.22025     5.71538
Co     6.17606     5.50167     3.17521
Br     6.20587     6.16527     0.63504
Br     3.55047     5.50167     3.17521
Co     5.19156    -1.32721     5.08034
Br     5.22137    -0.66360     2.54017
Br     2.56597    -1.32721     5.08034
Co     8.77184     2.95421     2.54017
Br     8.80165     3.61781     0.00000
Br     6.14625     2.95421     2.54017
Co     7.78734    -3.87467     4.44529
Br     7.81715    -3.21106     1.90513
Br     5.16175    -3.87467     4.44529
Co    11.36762     0.40675     1.90513
Br    11.39743     1.07036    -0.63504
Br     8.74203     0.40675     1.90513
Co     0.00000     5.65156     9.52563
Br     0.02981     6.31517     6.98546
Br    -2.62559     5.65156     9.52563
Co     3.58028     9.93298     6.98546
Br     3.61009    10.59658     4.44529
Br     0.95469     9.93298     6.98546
Co     2.59578     3.10410     8.89059
Br     2.62559     3.76771     6.35042
Br    -0.02981     3.10410     8.89059
Co     6.17606     7.38552     6.35042
Br     6.20587     8.04913     3.81025
Br     3.55047     7.38552     6.35042
Co     5.19156     0.55664     8.25555
Br     5.22137     1.22025     5.71538
Br     2.56597     0.55664     8.25555
Co     8.77184     4.83806     5.71538
Br     8.80165     5.50167     3.17521
Br     6.14625     4.83806     5.71538
Co     7.78734    -1.99081     7.62050
Br     7.81715    -1.32721     5.08034
Br     5.16175    -1.99081     7.62050
Co    11.36762     2.29060     5.08034
Br    11.39743     2.95421     2.54017
Br     8.74203     2.29060     5.08034
