  216
 
Cu     0.00000     0.00000     0.00000
Cu    -5.69929    -0.04527     0.40842
 O     1.16858     1.94757     0.51604
 O    -1.46929    -1.83356    -0.47193
 O    -4.36676     1.74979     1.26367
 O    -7.20651    -1.67696     0.32626
 F     1.15437    -0.71932    -1.36430
 F    -0.40718     0.87638    -1.73870
 F    -4.83564    -1.04731    -1.09895
 F    -1.80524    -4.87115    -1.06361
 H     2.12714     1.98611     0.39864
 H     1.03181     2.17285     1.45812
 H    -2.40026    -1.81485    -0.23087
 H    -1.10801    -2.67305    -0.14777
 H    -3.51327     2.09847     0.96916
 H    -4.21332     1.48899     2.20453
 H    -7.78323    -1.58273     1.12199
 H    -6.78597    -2.53861     0.48063
Cu    -0.63114     0.08177     3.17333
Cu    -6.28514    -0.12770     3.54101
 O     0.92002     1.80641     3.19374
 O    -2.50150    -1.18506     3.96709
 O    -4.29315     0.79839     3.76769
 O    -7.86847    -1.69102     2.92588
 F     0.29425    -0.87959     1.71489
 F    -1.13508     0.89263     1.44398
 F    -5.32972    -1.02978     2.06955
 F    -2.00171    -4.71223     2.17180
 H     1.79102     1.38028     3.24175
 H     0.89695     2.38778     3.97385
 H    -2.31243    -1.44623     4.89981
 H    -2.91341    -1.95379     3.56185
 H    -3.60389     0.10839     3.87929
 H    -4.15288     1.42655     4.51974
 H    -8.76800    -1.62322     3.28465
 H    -7.56016    -2.57175     3.18304
Cu    -0.42116     0.26386     6.36826
Cu    -6.82423    -0.13036     6.72215
 O     0.71122     2.28777     6.58083
 O    -1.73685    -1.58800     6.50289
 O    -3.97078     2.45089     5.84465
 O    -8.13641    -1.69986     7.17053
 F     0.21718    -0.67648     4.75259
 F    -1.17391     1.13775     4.70441
 F    -6.00273    -1.11482     5.24540
 F    -2.40180    -4.67222     5.22009
 H     1.61787     2.50828     6.32639
 H     0.64378     2.59084     7.50398
 H    -2.30594    -1.50763     7.29325
 H    -1.19079    -2.37403     6.73831
 H    -3.52609     2.05509     6.60832
 H    -3.30839     3.10868     5.54825
 H    -8.61225    -1.57047     8.01637
 H    -7.62527    -2.51904     7.31813
Cu     6.10668     5.65419     0.11498
Cu     0.73140     5.68868    -0.49360
 O     7.56826     7.47600     0.32275
 O     4.50805     4.17656     0.05833
 O     2.50347     7.10797    -0.26275
 O    -0.35900     3.74458    -0.76116
 F     6.83563     4.64447    -1.40935
 F     5.51341     6.51236    -1.58187
 F     1.79393     4.88694    -1.94701
 F     4.32768     0.94356    -1.12085
 H     8.50428     7.22458     0.34408
 H     7.43710     7.96224     1.15912
 H     3.91016     4.24124     0.82411
 H     4.94234     3.30053     0.18934
 H     3.29329     6.55284    -0.36004
 H     2.57328     7.45618     0.64253
 H    -1.25076     3.68297    -0.39123
 H     0.17114     3.04810    -0.31231
Cu     5.72775     5.76613     3.27746
Cu     0.23559     5.77277     2.67467
 O     7.23299     7.54289     3.27338
 O     4.13263     4.28297     3.36615
 O     2.12814     7.10368     2.88316
 O    -1.13777     4.02205     2.85374
 F     6.47735     4.73590     1.82795
 F     5.16015     6.62541     1.54973
 F     1.27294     4.89937     1.22449
 F     3.81281     0.89066     2.07108
 H     8.16198     7.31225     3.42724
 H     7.02179     8.18887     3.96373
 H     3.53441     4.37144     4.12635
 H     4.55390     3.40907     3.48861
 H     2.84297     6.45303     2.78396
 H     2.25512     7.44462     3.78629
 H    -1.62251     3.91781     3.68911
 H    -0.70094     3.17384     2.71557
Cu     5.35389     5.90771     6.46247
Cu    -0.06445     5.86390     5.86008
 O     6.55370     7.98454     6.89875
 O     3.64154     4.45028     6.51826
 O     1.75221     7.26095     6.03389
 O    -1.27381     4.02372     6.07192
 F     6.32155     4.98243     5.00190
 F     4.72771     6.62636     4.73344
 F     0.89633     4.98179     4.36974
 F     3.44812     1.02516     5.21776
 H     7.46107     8.24470     6.68379
 H     6.43233     8.26119     7.82314
 H     3.18700     4.53523     7.38419
 H     4.01216     3.55360     6.54650
 H     2.50803     6.65337     5.97861
 H     1.86016     7.67797     6.90652
 H    -1.56147     3.99366     7.01308
 H    -0.61571     3.30033     6.04647
Cu     4.33238    -5.53038     0.73425
Cu    -1.30999    -5.84145     0.65284
 O     5.61377    -3.68299     1.00153
 O     2.39640    -6.53707     0.54708
 O     0.50338    -4.64250     0.55716
 O    -2.82391    -7.39203     1.28193
 F     5.24612    -6.41139    -0.76073
 F     3.61897    -4.77029    -1.00936
 F    -0.55030    -6.81747    -0.88692
 F     2.00499   -10.80688     0.48478
 H     6.57462    -3.71148     0.89602
 H     5.47755    -3.24446     1.85812
 H     2.26370    -7.07428     1.35841
 H     2.41989    -7.13567    -0.21862
 H     1.24834    -5.30120     0.54882
 H     0.62789    -4.17411     1.41655
 H    -2.91561    -7.41589     2.25589
 H    -2.49431    -8.27205     1.06402
Cu     3.85529    -5.74963     3.88599
Cu    -1.18876    -5.47617     3.82696
 O     4.94074    -3.60609     4.37758
 O     2.46907    -7.54018     3.03241
 O     0.52583    -3.79317     3.10062
 O    -2.46706    -7.39791     3.94552
 F     4.85612    -6.51774     2.37924
 F     3.45520    -4.67657     2.29690
 F    -0.49787    -6.52023     2.35603
 F     1.61408   -10.69234     3.67186
 H     5.87837    -3.40320     4.24875
 H     4.77951    -3.35545     5.30699
 H     1.60064    -7.76088     3.37937
 H     3.00256    -8.36169     3.08394
 H     1.42494    -3.80688     3.46409
 H     0.26285    -2.86812     3.18467
 H    -2.95740    -7.34210     4.79071
 H    -1.98044    -8.22855     4.05240
Cu     3.32023    -5.55199     7.08638
Cu    -1.88852    -5.45509     6.98886
 O     4.74444    -3.73617     7.32531
 O     2.02436    -7.43366     7.77123
 O    -0.44130    -3.73079     7.46348
 O    -3.29670    -7.31679     6.49781
 F     4.22586    -6.56684     5.63610
 F     2.79539    -4.80670     5.31978
 F    -0.66777    -6.17279     5.60344
 F     1.25940   -10.55759     6.87389
 H     5.68141    -3.97949     7.29891
 H     4.64877    -3.29213     8.18800
 H     1.37745    -7.76166     7.13364
 H     2.71170    -8.12628     7.83356
 H     0.46960    -3.68837     7.14251
 H    -0.35500    -3.77522     8.44631
 H    -4.24708    -7.23551     6.65314
 H    -3.00895    -8.07725     7.03136
Cu    10.18311     0.02749     0.46570
Cu     4.78038    -0.02281     0.58359
 O    11.85298     1.56927     0.52562
 O     9.24949    -2.01188     0.67337
 O     5.95686     2.09839     0.93784
 O     3.38335    -1.70159     0.59235
 F    11.29100    -0.79168    -0.92831
 F     9.70125     0.82735    -1.29172
 F     5.60725    -0.99973    -0.89574
 F     8.58379    -4.91834    -0.36270
 H    12.66126     1.03359     0.41784
 H    11.95626     1.95975     1.40859
 H     8.77433    -2.10575     1.51607
 H     9.92636    -2.70613     0.70822
 H     6.91032     2.29141     0.88563
 H     5.71863     2.36995     1.84024
 H     2.85403    -1.78144     1.40857
 H     3.87146    -2.53857     0.55347
Cu     9.82475     0.25232     3.63582
Cu     4.40838     0.02453     3.76193
 O    11.51060     1.87326     3.81908
 O     8.84245    -1.78881     3.93053
 O     5.63207     2.17066     4.08522
 O     3.11951    -1.74914     3.70647
 F    10.92436    -0.52999     2.21446
 F     9.19989     0.96802     1.91537
 F     5.33991    -0.83679     2.28708
 F     8.27819    -4.72566     2.78610
 H    12.37135     1.43207     3.73784
 H    11.51619     2.23742     4.72337
 H     8.36454    -1.81156     4.77983
 H     9.44162    -2.54501     3.98716
 H     6.59992     2.21937     3.99723
 H     5.48090     2.41055     5.02031
 H     2.56455    -1.76491     4.50418
 H     3.73248    -2.51097     3.81954
Cu     9.72345     0.26772     6.83686
Cu     3.99788     0.15475     6.93496
 O    11.03944     2.11996     7.11051
 O     8.65682    -1.76783     6.79932
 O     5.51308     2.00547     7.04181
 O     2.60793    -1.56982     6.97303
 F    10.71723    -0.38328     5.27762
 F     8.94898     1.10800     5.17638
 F     4.90291    -0.78301     5.46533
 F     7.82231    -4.68585     5.98801
 H    11.98983     1.94609     7.17581
 H    10.83417     2.54642     7.96514
 H     8.02974    -1.81823     7.54067
 H     9.29020    -2.48204     6.98080
 H     6.44440     1.72439     7.05654
 H     5.40941     2.51134     7.86295
 H     2.13969    -1.59880     7.83279
 H     3.13143    -2.38579     6.96627
