   96
 
Cu     0.00000     0.00000     0.00000
Cu     2.99487     0.00000     0.00000
 W     1.61794    -0.08076    -3.15171
 W     1.37693     0.08076     3.15173
 O     1.51755    -0.17616    -1.30684
 O     1.47732     0.17616     1.30684
 O    -0.17727    -2.33017     0.22551
 O     3.17214     2.33017    -0.22551
 O     0.40744     2.35782    -0.50739
 O    -1.22506    -0.09842    -1.54748
 O    -1.42937     0.60877     1.15131
 O     4.42424    -0.60877    -1.15131
Cu     3.81249    -2.25940     2.05488
Cu     6.80736    -2.25940     2.05488
 W     5.43043    -2.34016    -1.09684
 W     5.18941    -2.17864     5.20660
 O     5.33004    -2.43556     0.74804
 O     5.28980    -2.08324     3.36171
 O     3.63522    -4.58957     2.28038
 O     6.98463     0.07077     1.82937
 O     4.21993     0.09841     1.54749
 O     2.58742    -2.35782     0.50740
 O     2.38312    -1.65063     3.20619
 O     8.23673    -2.86817     0.90356
Cu    -3.51988    -3.57685     2.99706
Cu    -0.52501    -3.57685     2.99706
 W    -1.90194    -3.65761    -0.15465
 W    -2.14296    -3.49609     6.14879
 O    -2.00233    -3.75301     1.69023
 O    -2.04257    -3.40069     4.30390
 O    -3.69715    -5.90702     3.22257
 O    -0.34774    -1.24668     2.77156
 O    -3.11244    -1.21904     2.48967
 O    -4.74495    -3.67527     1.44958
 O    -4.94925    -2.96808     4.14838
 O     0.90436    -4.18562     1.84575
Cu     0.29260    -5.83625     5.05194
Cu     3.28747    -5.83625     5.05194
 W     1.91054    -5.91701     1.90023
 W     1.66953    -5.75549     8.20367
 O     1.81016    -6.01241     3.74510
 O     1.76992    -5.66009     6.35878
 O     0.11533    -8.16643     5.27745
 O     3.46474    -3.50608     4.82643
 O     0.70005    -3.47844     4.54455
 O    -0.93246    -5.93467     3.50446
 O    -1.13676    -5.22748     6.20325
 O     4.71684    -6.44502     3.90063
Cu     0.11009     3.49775     3.15171
Cu     3.10497     3.49775     3.15171
 W     1.72803     3.41699     0.00000
 W     1.48702     3.57851     6.30344
 O     1.62765     3.32159     1.84488
 O     1.58741     3.67391     4.45855
 O    -0.06717     1.16758     3.37722
 O     3.28223     5.82792     2.92621
 O     0.51754     5.85557     2.64432
 O    -1.11497     3.39933     1.60423
 O    -1.31927     4.10652     4.30303
 O     4.53433     2.88898     2.00040
Cu     3.92258     1.23835     5.20659
Cu     6.91745     1.23835     5.20659
 W     5.54052     1.15759     2.05488
 W     5.29951     1.31911     8.35832
 O     5.44013     1.06219     3.89975
 O     5.39990     1.41451     6.51343
 O     3.74531    -1.09183     5.43210
 O     7.09472     3.56852     4.98109
 O     4.33002     3.59616     4.69920
 O     2.69752     1.13993     3.65911
 O     2.49321     1.84712     6.35791
 O     8.34682     0.62958     4.05528
Cu    -3.40979    -0.07910     6.14878
Cu    -0.41492    -0.07910     6.14878
 W    -1.79185    -0.15986     2.99706
 W    -2.03286     0.00166     9.30051
 O    -1.89224    -0.25526     4.84194
 O    -1.93247     0.09706     7.45561
 O    -3.58706    -2.40928     6.37428
 O    -0.23765     2.25107     5.92327
 O    -3.00235     2.27871     5.64139
 O    -4.63485    -0.17752     4.60130
 O    -4.83916     0.52967     7.30009
 O     1.01445    -0.68787     4.99746
Cu     0.40270    -2.33851     8.20365
Cu     3.39757    -2.33851     8.20365
 W     2.02064    -2.41926     5.05194
 W     1.77962    -2.25774    11.35538
 O     1.92025    -2.51467     6.89682
 O     1.88001    -2.16234     9.51049
 O     0.22543    -4.66868     8.42916
 O     3.57483    -0.00833     7.97815
 O     0.81014     0.01931     7.69627
 O    -0.82237    -2.43692     6.65617
 O    -1.02667    -1.72974     9.35497
 O     4.82693    -2.94728     7.05234
