  120
 
Cu     0.00000     0.00000     0.00000
Cu    -5.60127    -0.95688    -0.45402
Cu    -4.66150    -0.90811    -2.81341
Cu     0.90383     0.03798    -2.37314
 O    -5.56422    -0.22041    -4.63504
 O     1.72758     1.75012    -3.49010
 O    -0.86860    -1.68021     1.15102
 O    -4.62170    -1.64166     1.12986
 O    -3.62033    -1.71761    -1.14368
 O     0.00691    -1.59770    -1.21389
 O     0.95701    -0.75717     1.79406
 O    -6.44161    -2.67475     0.63628
 H    -6.33664    -0.63065    -5.10439
 H     2.53722     2.26470    -3.28273
 H    -1.72034    -2.13744     0.96060
 H    -3.76642    -1.20982     1.34523
 H    -2.74776    -1.36251    -0.91170
 H    -0.85220    -2.00899    -1.44625
 H     1.79314    -0.43011     2.20185
 H    -7.26634    -3.17175     0.44928
Cu     1.94770    -2.32480    -2.08726
Cu    -3.64530    -3.25341    -2.38785
Cu    -2.75884    -3.36554    -4.78189
Cu     2.90158    -2.40353    -4.45998
 O    -3.75547    -2.81613    -6.36918
 O     3.76023    -0.79911    -5.63914
 O     1.06906    -3.84150    -1.13272
 O    -2.64069    -3.95241    -0.69597
 O    -1.70979    -4.08310    -3.19738
 O     2.10693    -4.11397    -3.35351
 O     2.96988    -2.92020    -0.53362
 O    -4.53031    -4.85112    -1.21186
 H    -4.60094    -3.27524    -6.49339
 H     4.63825    -0.38324    -5.47879
 H     0.21388    -4.18112    -1.43324
 H    -1.80500    -3.56326    -0.41499
 H    -0.86943    -3.67239    -2.95293
 H     1.28228    -4.58492    -3.61906
 H     3.82012    -2.44142    -0.43497
 H    -5.41627    -5.25567    -1.35598
Cu    -0.16426     2.34237    -2.81796
Cu    -5.78096     1.33650    -3.11967
Cu    -4.78614     1.26658    -5.48192
Cu     0.84267     2.24820    -5.11298
 O    -5.82197     1.76206    -6.97000
 O     1.67247     3.80187    -6.31809
 O    -1.07340     0.79199    -1.66254
 O    -4.72917     0.70832    -1.57741
 O    -3.80991     0.79470    -3.95784
 O    -0.10854     0.72999    -3.97230
 O     0.89702     1.58785    -1.15576
 O    -6.52612    -0.28751    -2.19894
 H    -6.67102     1.26201    -7.07392
 H     2.57707     4.15708    -6.23060
 H    -1.95098     0.44667    -1.90161
 H    -3.89211     1.13770    -1.32676
 H    -2.96928     1.25876    -3.76146
 H    -0.97469     0.33234    -4.19009
 H     1.77344     1.98216    -0.99774
 H    -7.30230    -0.73882    -2.57407
Cu     1.83762    -0.05985    -4.74634
Cu    -3.69042    -1.04585    -5.13912
Cu    -2.91297    -1.13049    -7.53661
Cu     2.68090    -0.13786    -7.12694
 O    -3.98362    -0.41660    -9.30478
 O     3.45617     1.49151    -8.13706
 O     0.91425    -1.56711    -3.66361
 O    -2.83404    -1.53688    -3.46132
 O    -1.93092    -1.78632    -5.72627
 O     1.89485    -1.72616    -6.16186
 O     2.86465    -0.84398    -3.15375
 O    -4.66240    -2.54872    -3.94305
 H    -4.81282    -0.75182    -9.65995
 H     4.18466     2.00558    -7.74346
 H     0.06923    -1.96106    -3.91031
 H    -2.01499    -1.06906    -3.19236
 H    -1.11952    -1.37063    -5.36332
 H     1.05306    -2.11817    -6.42797
 H     3.72794    -0.50009    -2.87942
 H    -5.55321    -2.96943    -4.02913
Cu    -0.34486     4.50841    -5.48824
Cu    -6.02752     3.50904    -5.87221
Cu    -5.01441     3.44472    -8.15332
Cu     0.59430     4.44379    -7.86443
 O    -6.06482     4.21904    -9.81548
 O     1.37459     6.09028    -8.83914
 O    -1.12752     3.03260    -4.60342
 O    -5.03401     2.95614    -4.12068
 O    -4.02128     2.75141    -6.37421
 O    -0.16631     2.77978    -6.83080
 O     0.66552     4.03938    -3.98892
 O    -6.83554     1.90594    -4.70460
 H    -6.95290     3.84600    -9.96626
 H     2.16000     6.58572    -8.54301
 H    -1.93343     2.60442    -4.94712
 H    -4.24554     3.42641    -3.80157
 H    -3.20471     3.17277    -6.05473
 H    -0.94886     2.29590    -7.13891
 H     1.50360     4.54952    -3.87941
 H    -7.71587     1.50719    -4.80829
Cu     1.63429     2.14313    -7.49766
Cu    -3.90598     1.17884    -7.87893
Cu    -3.09970     1.10190   -10.26499
Cu     2.50523     2.09163    -9.85707
 O    -4.12679     1.87302   -11.82883
 O     3.44992     3.61156   -10.98917
 O     0.80026     0.51332    -6.30175
 O    -2.82819     0.52204    -6.33002
 O    -2.05189     0.47303    -8.73884
 O     1.62330     0.50436    -8.72460
 O     2.71550     1.44991    -5.71553
 O    -4.69336    -0.43460    -6.88204
 H    -4.98142     1.49743   -12.08147
 H     4.34458     3.99059   -10.84674
 H    -0.05734     0.08538    -6.46765
 H    -1.95796     0.90045    -6.13407
 H    -1.17402     0.87984    -8.57783
 H     0.75800     0.12824    -8.93539
 H     3.54041     1.78434    -5.33515
 H    -5.42749    -0.93251    -7.28730
