  168
 
 S     0.00000     0.00000     0.00000
 O    -3.99060    -0.96805     1.38118
 O    -3.79172     1.46582     1.37917
 H    -4.26725    -1.89917     1.66170
 H    -3.90350    -0.95757     0.38060
 H    -3.91871     2.38196     1.71915
 H    -3.73335     1.50746     0.37914
 S     5.30616     1.12696     3.78553
 O     3.99023     1.36274     3.04132
 O    -3.68450     0.46360     4.22040
 O     5.17158     0.01671     4.74816
 O     5.40805     2.50947     4.70158
Cu     2.58610     0.65982     1.93495
 O     3.68504     0.56549     0.20089
 H     4.71767     0.74920     0.21617
 H     3.53220    -0.22573    -0.41873
 O     3.00527    -1.13124     2.19165
 H     3.68032    -1.57277     1.51312
 H     2.07962    -1.77365     2.07008
 O     1.39893    -0.11878     0.68926
 O    -1.05866     0.03244     1.03445
 O     0.01725     1.23745    -0.88496
 O    -0.12521    -1.23690    -0.87424
 O     1.10495     0.18999     3.25399
 H     0.20161    -0.19055     2.91262
 H     0.83750     0.94256     3.91722
 O     2.12273     2.33295     1.81799
 H     0.84998     3.21748     2.65007
 H     2.85681     2.93619     2.19939
 O    -1.24309     1.20606     3.74175
 H    -1.08967     2.15818     3.50052
 H    -1.49133     1.15917     4.70769
 O    -1.32127    -1.21874     3.46343
 H    -1.31912    -2.18372     3.16784
 H    -1.32454    -1.20626     4.45146
Cu    -2.56584     0.15286     2.48047
 O    -7.00714    -1.60896    -0.80626
 H    -7.55577    -0.97863    -1.41061
 H    -6.05768    -1.62387    -1.21239
 O     1.43326    -3.05472     2.10886
 H     2.03811    -3.64757     2.68507
 H     0.49976    -3.08226     2.56106
 S    -0.59484    -5.00161    -3.69807
 O    -4.26113    -5.73893    -2.26613
 O    -4.08808    -3.30812    -1.98708
 H    -4.51321    -6.64253    -1.93101
 H    -4.02449    -5.80761    -3.22798
 H    -4.08570    -2.34577    -1.69118
 H    -4.16689    -3.32244    -2.97090
 S     4.62803    -3.95259     0.09455
 O     3.20825    -3.84880    -0.56424
 O    -4.51773    -4.65114     0.27909
 O     4.61441    -5.17230     0.99589
 O     4.78520    -2.70602     0.94055
Cu     2.10942    -4.58915    -1.89268
 O     3.70714    -3.98336    -3.01444
 H     4.56950    -3.60565    -2.56532
 H     4.04414    -4.51478    -3.78390
 O     2.56746    -6.27684    -1.75182
 H     3.74247    -7.08427    -2.61717
 H     1.78320    -6.87771    -2.01715
 O     0.79759    -5.24755    -3.10002
 O    -1.68372    -5.01683    -2.72509
 O    -0.57100    -3.88556    -4.65988
 O    -0.79154    -6.38450    -4.60590
 O     0.94738    -4.50212    -0.17725
 H    -0.08060    -4.67971    -0.18557
 H     1.11264    -3.72262     0.46105
 O     1.61392    -2.82316    -2.13856
 H     1.04939    -2.36404    -1.37582
 H     2.51552    -2.14880    -2.22469
 O    -1.46205    -3.59287     0.03758
 H    -1.16880    -2.67850    -0.28423
 H    -1.53036    -3.56709     1.03739
 O    -1.66446    -6.00272     0.10829
 H    -1.53322    -6.92882    -0.19599
 H    -1.66794    -5.99339     1.11437
Cu    -2.88371    -4.72887    -1.03840
 O    -7.50830    -6.26057    -4.60580
 H    -8.04271    -6.38950    -5.46851
 H    -6.53572    -6.27901    -4.83525
 O     0.72252    -8.34877    -2.19526
 H     1.29243    -9.12206    -1.87111
 H    -0.06042    -8.26868    -1.57941
 S     0.88939     5.24523    -3.66812
 O    -3.16668     4.20718    -2.39282
 O    -2.96908     6.63157    -2.38882
 H    -3.40596     3.28711    -2.04455
 H    -3.09272     4.16205    -3.39251
 H    -3.10868     7.54981    -2.06223
 H    -2.97793     6.64228    -3.39219
 S     6.21393     6.31983     0.03706
 O     4.90050     6.58913    -0.70797
 O    -2.75379     5.64418     0.49614
 O     6.06620     5.19314     0.97666
 O     6.31627     7.68251     0.97670
Cu     3.52064     5.88464    -1.82644
 O     4.62728     5.72001    -3.56551
 H     5.65544     5.89514    -3.57508
 H     4.44077     4.94890    -4.20238
 O     3.93527     4.08889    -1.58036
 H     4.57907     3.64460    -2.28064
 H     2.99632     3.45830    -1.67274
 O     2.32813     5.11871    -3.05595
 O    -0.08252     5.31965    -2.54440
 O     0.90444     6.46937    -4.57099
 O     0.70024     4.01334    -4.51942
 O     2.01187     5.47100    -0.51417
 H     1.07187     5.28362    -0.89030
 H     1.86554     6.16611     0.24994
 O     3.03864     7.55535    -1.92457
 H     1.80698     8.39204    -1.03762
 H     3.78141     8.16210    -1.55433
 O    -0.36221     6.34462    -0.11089
 H    -0.19422     7.28862    -0.37075
 H    -0.56164     6.30989     0.86827
 O    -1.47729     3.55761    -0.18769
 H    -1.01612     2.73718    -0.52836
 H    -1.25936     3.66576     0.76308
Cu    -1.75412     5.30775    -1.28764
 O    -6.02563     3.60095    -4.52809
 H    -6.51217     4.27852    -5.10862
 H    -5.06292     3.56111    -4.90085
 O     2.34215     2.17759    -1.59443
 H     2.93089     1.60441    -0.98371
 H     1.38552     2.13719    -1.18157
 S     0.30808     0.16272    -7.39585
 O    -3.34186    -0.57789    -6.05947
 O    -3.21133     1.88006    -5.74939
 H    -3.53286    -1.51018    -5.75789
 H    -3.08099    -0.59857    -7.01844
 H    -3.14530     2.85131    -5.48579
 H    -3.33439     1.84572    -6.72956
 S     5.55500     1.24017    -3.67244
 O     4.11779     1.33017    -4.29991
 O    -3.59650     0.51146    -3.41789
 O     5.56961     0.02057    -2.77197
 O     5.71164     2.48927    -2.82856
Cu     3.01592     0.58074    -5.61162
 O     4.60097     1.24097    -6.73867
 H     5.50482     1.55918    -6.31919
 H     4.84608     0.82874    -7.59915
 O     3.50715    -1.10136    -5.47530
 H     4.64318    -1.90326    -6.34845
 H     2.72328    -1.71400    -5.70830
 O     1.69430    -0.09921    -6.78622
 O    -0.80102     0.10920    -6.44803
 O     0.33316     1.30156    -8.32717
 O     0.15678    -1.19027    -8.35785
 O     1.81506     0.77540    -3.94026
 H     0.79633     0.57975    -3.93439
 H     1.99996     1.47669    -3.23222
 O     2.48248     2.33355    -5.84620
 H     1.93902     2.76438    -5.07340
 H     3.40035     3.01991    -5.94059
 O    -0.62553     1.61015    -3.68912
 H    -0.33306     2.53556    -3.97466
 H    -0.66722     1.58595    -2.68818
 O    -0.77567    -0.82820    -3.68790
 H    -0.64544    -1.74327    -4.02089
 H    -0.74548    -0.84459    -2.68419
Cu    -2.01166     0.45970    -4.78911
 O    -6.61933    -1.10589    -8.36220
 H    -7.14779    -1.22361    -9.21946
 H    -5.64724    -1.09804    -8.59126
 O     1.67943    -3.18810    -5.87608
 H     2.22073    -3.96313    -5.50827
 H     0.87504    -3.07382    -5.28820
