   96
 
Cu     0.00000     0.00000     0.00000
Cu     6.28426    -0.34479     0.29621
Cu     2.54882     1.27396     2.56816
Cu     4.36265    -0.67077    -2.89901
 S     3.78016     1.75296    -0.48353
 S    -0.71822     2.23932     2.41994
 S    -3.01153    -1.31940     0.53987
 S     1.48026    -1.83595    -2.37142
 O     2.86877     1.23346     0.57910
 O    -0.49049     3.63972     1.95890
 O    -1.88907    -0.69678    -0.21832
 O     1.41092    -3.15494    -1.67820
 O     4.76611     0.69004    -0.90342
 O     0.35250     1.29086     1.94753
 O    -4.09422    -0.30838     0.83162
 O     0.37675    -0.90041    -1.95629
 O     0.99131    -1.39719     0.91724
 O    -0.72427     2.25166     3.93035
 O     2.54392     3.15478     3.06809
 O     2.80624    -1.20168    -2.01825
 O    -0.44604     1.69069    -0.77872
 O     1.39309    -2.01629    -3.86443
 O     2.51975    -0.63148     2.68643
 O    -2.04020     1.72712     1.91461
Cu     4.13527     1.97845     5.88679
Cu    10.52537     1.64421     6.26544
Cu     6.66341     3.24575     8.39663
Cu     8.54329     1.34791     2.99053
 S     7.97196     3.73885     5.38829
 S     3.46267     4.24303     8.34391
 S     1.14660     0.68402     6.46017
 S     5.63490     0.17997     3.48288
 O     7.04115     3.21218     6.43031
 O     3.70892     5.64429     7.89909
 O     2.25286     1.29450     5.65814
 O     5.59121    -1.13046     4.18674
 O     8.96611     2.68137     4.98532
 O     4.53366     3.28891     7.87362
 O     0.08744     1.70577     6.77617
 O     4.49513     1.09209     3.87732
 O     5.11358     0.60820     6.79599
 O     3.44495     4.24366     9.85356
 O     6.67750     5.08092     8.96443
 O     6.93430     0.85522     3.84000
 O     3.78261     3.67091     5.12754
 O     5.54550    -0.01973     1.99148
 O     6.66199     1.34627     8.55266
 O     2.14764     3.74231     7.81348
Cu     1.98167     3.56266    -2.61578
Cu     8.37142     3.23868    -2.27004
Cu     4.53448     4.83839    -0.06685
Cu     6.37053     2.91271    -5.48081
 S     5.78543     5.31314    -3.11758
 S     1.28279     5.81696    -0.19665
 S    -1.00987     2.24466    -2.05980
 S     3.47239     1.73036    -4.99844
 O     4.87604     4.79265    -2.05296
 O     1.54647     7.21922    -0.62489
 O     0.11670     2.85448    -2.82762
 O     3.39156     0.40872    -4.31396
 O     6.76965     4.25508    -3.55074
 O     2.34072     4.85534    -0.67707
 O    -2.06952     3.27237    -1.75841
 O     2.36988     2.66966    -4.58845
 O     2.99309     2.17728    -1.69046
 O     1.25308     5.79528     1.31412
 O     4.50717     6.69490     0.44048
 O     4.79791     2.35586    -4.63681
 O     1.54306     5.25768    -3.41907
 O     3.39101     1.55527    -6.49534
 O     4.51652     2.93887     0.08261
 O    -0.04196     5.33818    -0.72640
Cu     6.17365     5.57733     3.28808
Cu    12.59770     5.19870     3.68668
Cu     8.69357     6.81052     5.78785
Cu    10.54027     4.93092     0.40585
 S     9.92208     7.29466     2.74447
 S     5.47032     7.80986     5.71980
 S     3.19041     4.25505     3.86899
 S     7.62977     3.75336     0.87658
 O     9.01956     6.76894     3.81507
 O     5.74792     9.21575     5.30969
 O     4.30540     4.87364     3.08635
 O     7.57862     2.43369     1.56308
 O    10.89602     6.24169     2.29262
 O     6.52072     6.84479     5.22050
 O     2.15083     5.27863     4.22107
 O     6.50082     4.66835     1.28325
 O     7.21137     4.18266     4.17180
 O     5.45323     7.76847     7.22793
 O     8.68814     8.64585     6.31423
 O     8.93686     4.41356     1.23337
 O     5.74481     7.27098     2.48650
 O     7.54433     3.57411    -0.61977
 O     8.69058     4.92707     5.97993
 O     4.14448     7.35169     5.17996
