  108
 
 O     0.00000     0.00000     0.00000
 O    -2.13640     2.00415     6.69015
 N     3.21124     1.62310     0.10663
 N     1.66406     0.05288    -2.99464
 O     2.89318     0.42347     0.04295
 O     2.08892     1.21364    -3.10307
 O     1.70736     2.35655     3.17464
 O    -3.92964    -0.40435     3.61883
 O     3.40682     3.68348     3.16805
 O    -5.56595    -1.80738     3.49489
 O     4.22368     1.96792     0.75146
 O     0.62573    -0.29227    -3.59790
 O     0.89899     1.12459     5.98244
 O    -3.01967     0.73911     0.62514
 N     2.88341     2.59935     3.48656
 N    -5.08518    -0.68267     3.26415
 O    -2.99889     2.82211    -0.42679
 O     0.78917    -0.90264     7.14578
Cu    -0.71688     0.53286     6.93493
Cu    -1.41837     1.47137    -0.25531
 O    -0.56343     1.63916     8.54189
 O    -1.52113     0.43231    -1.90991
 O     3.54440     1.73958     4.12125
 O    -5.78312     0.19544     2.69310
 O     0.00709     2.23218    -1.40327
 O    -2.24199    -0.03441     8.07447
 O    -1.40361     2.53052     1.38363
 O    -0.78183    -0.60294     5.34722
 O     2.54621     2.48240    -0.51504
 O     2.24581    -0.75956    -2.23861
 H     0.90412     0.03748    -0.37750
 H    -3.05450     1.94892     7.02064
 H    -0.30057    -0.94217     0.13753
 H    -1.86432     2.93733     6.50201
 H     0.83078     1.88551     5.32822
 H    -2.92417    -0.00517     1.29846
 H    -3.73564     2.62757    -1.09471
 H     1.58411    -0.72274     7.74650
 H    -2.79434     3.80861    -0.47766
 H     0.47342    -1.83142     7.33665
 H    -0.44690     2.64361     8.34941
 H    -1.61148    -0.58471    -1.77506
 H     1.71780     1.26174     6.58839
 H    -3.78721     0.52646    -0.02158
 H    -1.36418     1.57421     9.16350
 H    -0.73736     0.55441    -2.53734
 H    -0.19935     3.06423    -1.92069
 H    -2.13572    -0.73137     8.78879
 H    -1.31576     3.53776     1.23611
 H    -0.92621    -1.60227     5.53544
 H     0.99919     2.16597    -1.22319
 H    -3.20228    -0.06084     7.72914
 H    -2.22623     2.40398     1.98356
 H     0.03281    -0.55925     4.73876
 O     4.11288    -3.23650     3.22250
 O     1.96566    -1.23435     9.94845
 N     7.34060    -1.65245     3.40588
 N     5.76194    -3.20328     0.34007
 O     6.87646    -2.78853     3.57791
 O     6.03765    -2.00561     0.53146
 O     5.93029    -0.91927     6.38111
 O     0.26764    -3.67197     6.88994
 O     7.64067     0.39073     6.42514
 O    -1.37118    -5.07719     6.80505
 O     8.36561    -1.30109     4.03140
 O     4.73197    -3.51946    -0.28876
 O     5.05985    -2.08731     9.34334
 O     1.11146    -2.49280     4.01681
 N     7.08957    -0.67554     6.75423
 N    -0.89758    -3.94982     6.57206
 O     1.11929    -0.39824     3.00344
 O     4.91327    -4.10815    10.51032
Cu     3.39424    -2.70700    10.20793
Cu     2.67966    -1.77833     3.07662
 O     3.53341    -1.62459    11.82828
 O     2.54869    -2.81737     1.41338
 O     7.70004    -1.50699     7.47068
 O    -1.61154    -3.06528     6.02766
 O     4.15902    -1.07809     1.95832
 O     1.90529    -3.34840    11.35374
 O     2.71404    -0.78280     4.76693
 O     3.34040    -3.89988     8.67145
 O     6.81271    -0.87289     2.57775
 O     6.50360    -4.09602     0.80548
 H     5.02506    -3.16123     2.89065
 H     1.06474    -1.26171    10.34644
 H     3.85852    -4.17714     3.41749
 H     2.28109    -0.29545     9.83305
 H     4.99092    -1.33749     8.67249
 H     1.19961    -3.26511     4.64821
 H     0.34310    -0.55616     2.37324
 H     5.66852    -3.88863    11.15076
 H     1.35192     0.57797     2.96005
 H     4.58728    -5.03324    10.74147
 H     3.65071    -0.62195    11.64425
 H     2.45589    -3.83387     1.53007
 H     5.81114    -1.87909    10.01382
 H     0.28031    -2.62135     3.42389
 H     2.73256    -1.69916    12.44808
 H     3.33815    -2.69201     0.78993
 H     4.02596    -0.36187     1.27232
 H     2.06569    -4.09112    12.01361
 H     2.81096     0.22950     4.69253
 H     3.17856    -4.88401     8.92289
 H     5.15093    -1.15334     2.17962
 H     0.94244    -3.37971    11.03802
 H     1.90840    -0.93751     5.37033
 H     4.17679    -3.90471     8.07792
