  168
 
Cu     0.00000     0.00000     0.00000
Cu    -4.24501     7.21877     3.52184
 I     5.82362     0.16535     2.29704
 I     2.53479     1.90779     3.54690
 I    -3.48327     1.40909     3.13244
 I    -6.80783     3.13908     4.31683
 I     8.87115    -2.61145     2.35527
 I    -0.45222     4.11863     4.04842
 I    -0.49257    -0.81788     2.61675
 I     4.16893    -2.83411    -0.16263
 N    -6.29995     6.90566     3.39406
 N    -3.91166     5.20162     3.06543
 N    -2.24162     7.39582     4.06056
 N    -4.71684     9.05612     4.42509
 N    -2.01727    -0.17769    -0.50699
 N     0.46463    -1.82042    -0.90886
 N     2.05567     0.32352     0.15802
 N    -0.33624     2.01243     0.45806
 H    -6.72823     7.53283     2.72518
 H    -3.60933     4.66404     3.86711
 H    -1.97815     6.76246     4.80638
 H    -5.20055     9.67798     3.78117
 H    -2.32367     0.49119    -1.20717
 H     0.87137    -2.47608    -0.25758
 H     2.51053    -0.38057     0.73484
 H    -0.67638     2.54855    -0.33273
 H    -6.79419     7.06753     4.27097
 H    -3.19594     5.07049     2.35769
 H    -1.60895     7.18858     3.29168
 H    -5.33760     8.97792     5.23142
 H    -2.62704    -0.02666     0.29642
 H     1.13718    -1.73465    -1.67012
 H     2.53854     0.30024    -0.73424
 H    -1.03400     2.12847     1.18759
 H    -6.58417     5.97449     3.11712
 H    -4.72079     4.72271     2.68904
 H    -1.96064     8.31805     4.36747
 H    -3.92801     9.58394     4.77625
 H    -2.29003    -1.08518    -0.85899
 H    -0.31823    -2.29728    -1.33868
 H     2.32593     1.21116     0.56117
 H     0.47491     2.50498     0.80779
Cu    -3.32781     3.89654    -3.12528
Cu    -7.59508    11.09161     0.39466
 I     2.56298     4.03524    -0.83874
 I    -0.71701     5.76721     0.37653
 I    -6.87820     5.36596     0.02042
 I   -10.15319     7.07397     1.21829
 I     5.60757     1.27532    -0.78946
 I    -3.72767     7.98890     0.89518
 I    -3.83972     3.12824    -0.49199
 I     0.79797     1.06092    -3.30940
 N    -9.65523    10.78732     0.27613
 N    -7.23153     9.08526    -0.08083
 N    -5.58773    11.26835     0.93019
 N    -8.03808    12.93709     1.28737
 N    -5.33366     3.72170    -3.63670
 N    -2.88792     2.05222    -4.02049
 N    -1.26943     4.19514    -3.00157
 N    -3.66602     5.91465    -2.65482
 H   -10.11739    11.46467    -0.32291
 H    -6.83857     8.55860     0.69158
 H    -5.30980    10.62342     1.66402
 H    -8.61876    13.50489     0.68911
 H    -5.61997     4.38140    -4.34800
 H    -2.44498     1.42330    -3.35522
 H    -0.84110     3.57455    -2.32916
 H    -3.89148     6.47583    -3.46605
 H   -10.12218    10.86017     1.17971
 H    -6.57306     8.97718    -0.85258
 H    -4.96180    11.07842     0.15226
 H    -8.53933    12.85681     2.16699
 H    -5.94720     3.88901    -2.83880
 H    -2.23970     2.11038    -4.80193
 H    -0.78122     4.02290    -3.88050
 H    -4.44271     6.04276    -2.01380
 H    -9.94191     9.88089    -0.07352
 H    -8.05255     8.57723    -0.38264
 H    -5.31303    12.18773     1.24954
 H    -7.23713    13.51153     1.51544
 H    -5.61316     2.81121    -3.97714
 H    -3.67768     1.54571    -4.39941
 H    -0.98160     5.12811    -2.73565
 H    -2.88503     6.36784    -2.19766
Cu    -4.89786    -5.85253    -3.10070
Cu    -9.17760     1.41490     0.43773
 I     0.95311    -5.64560    -0.75276
 I    -2.37589    -3.93492     0.45329
 I    -8.32573    -4.42736     0.04132
 I   -11.65464    -2.69389     1.33000
 I     3.99148    -8.41365    -0.67202
 I    -5.37019    -1.66247     0.99329
 I    -5.38560    -6.65384    -0.47211
 I    -0.73611    -8.70694    -3.22703
 N   -11.23494     1.10397     0.32344
 N    -8.84231    -0.60231    -0.03518
 N    -7.17268     1.58030     0.96866
 N    -9.64888     3.23141     1.37138
 N    -6.91862    -6.02212    -3.58774
 N    -4.44913    -7.69900    -3.97105
 N    -2.83881    -5.52896    -2.95744
 N    -5.23467    -3.83847    -2.64367
 H   -11.68285     1.77419    -0.28578
 H    -8.51850    -1.13971     0.75809
 H    -6.91312     0.96731     1.73408
 H   -10.05509     3.89011     0.72182
 H    -7.21169    -5.37337    -4.31067
 H    -3.98959    -8.32866    -3.31555
 H    -2.38411    -6.21072    -2.35317
 H    -5.57173    -3.29920    -3.43559
 H   -11.70192     1.19407     1.22473
 H    -8.13922    -0.72102    -0.75769
 H    -6.55173     1.32658     0.20080
 H   -10.31526     3.15132     2.13489
 H    -7.52309    -5.83375    -2.78793
 H    -3.81509    -7.62743    -4.76584
 H    -2.35539    -5.59555    -3.85208
 H    -5.92826    -3.71123    -1.91219
 H   -11.52319     0.19481    -0.01378
 H    -9.65230    -1.08791    -0.39823
 H    -6.86539     2.50447     1.24219
 H    -8.85925     3.70208     1.79643
 H    -7.20662    -6.93836    -3.90386
 H    -5.23780    -8.21530    -4.33810
 H    -2.56240    -4.62473    -2.59752
 H    -4.41656    -3.35452    -2.29748
Cu    -8.20887    -1.93239    -6.20643
Cu   -12.53348     5.29309    -2.67142
 I    -2.37615    -1.74736    -3.84887
 I    -5.68939    -0.06712    -2.66918
 I   -11.74297    -0.48446    -3.06797
 I   -15.04185     1.23429    -1.81925
 I     0.67433    -4.47006    -3.82329
 I    -8.66867     2.22128    -2.17698
 I    -8.74780    -2.70770    -3.57721
 I    -4.10132    -4.80372    -6.31995
 N   -14.59104     4.98604    -2.80116
 N   -12.18989     3.27965    -3.15487
 N   -10.53312     5.46530    -2.13196
 N   -12.98300     7.13105    -1.77841
 N   -10.21796    -2.11681    -6.72949
 N    -7.74210    -3.76792    -7.09918
 N    -6.14679    -1.61086    -6.07855
 N    -8.54796     0.07957    -5.75510
 H   -15.04628     5.66369    -3.40880
 H   -11.81100     2.74493    -2.37993
 H   -10.23817     4.78760    -1.43645
 H   -13.38929     7.77818    -2.44741
 H   -10.48972    -1.49145    -7.47736
 H    -7.26354    -4.37571    -6.45026
 H    -5.69981    -2.27091    -5.46235
 H    -8.87689     0.61072    -6.55122
 H   -15.06436     5.06683    -1.90222
 H   -11.52172     3.17330    -3.91287
 H    -9.91406     5.32683    -2.92728
 H   -13.65585     7.06141    -1.02049
 H   -10.84357    -1.90936    -5.95646
 H    -7.12440    -3.69527    -7.90785
 H    -5.66746    -1.69886    -6.97420
 H    -9.24626     0.20561    -5.02802
 H   -14.87877     4.08074    -3.14973
 H   -13.00858     2.77820    -3.47128
 H   -10.26682     6.36820    -1.76218
 H   -12.20196     7.61931    -1.35715
 H   -10.49223    -3.04502    -7.02523
 H    -8.53123    -4.29937    -7.44348
 H    -5.87211    -0.69531    -5.74379
 H    -7.73454     0.57095    -5.40667
