  216
 
Cu     0.00000     0.00000     0.00000
Cu    -4.89579     0.00000     0.00000
 O     1.46584     1.27182     0.00000
 O    -1.46584    -1.27182     0.00000
 O    -3.42995     1.27182     0.00000
 O    -6.36163    -1.27182     0.00000
 F     1.04889    -1.20890    -1.02388
 F    -0.68649     0.79122    -2.22964
 F    -3.84690    -1.20890    -1.02388
 F    -1.37697    -4.05564    -2.22964
 H     2.36927     1.03181    -0.29509
 H     1.35565     2.20006     0.29509
 H    -2.36927    -1.03182     0.29509
 H    -1.35565    -2.20006    -0.29509
 H    -2.52652     1.03182    -0.29509
 H    -3.54014     2.20006     0.29509
 H    -7.26506    -1.03181     0.29509
 H    -6.25144    -2.20006    -0.29509
Cu    -0.36239     0.41768     3.25352
Cu    -5.25819     0.41768     3.25352
 O     1.10344     1.68950     3.25352
 O    -1.82823    -0.85413     3.25352
 O    -3.79235     1.68950     3.25352
 O    -6.72402    -0.85413     3.25352
 F     0.68649    -0.79122     2.22964
 F    -1.04889     1.20890     1.02388
 F    -4.20930    -0.79122     2.22964
 F    -1.73937    -3.63795     1.02388
 H     2.00687     1.44950     2.95843
 H     0.99326     2.61774     3.54861
 H    -2.73166    -0.61413     3.54861
 H    -1.71805    -1.78238     2.95843
 H    -2.88892     1.44950     2.95843
 H    -3.90253     2.61774     3.54861
 H    -7.62745    -0.61413     3.54861
 H    -6.61384    -1.78238     2.95843
Cu    -0.72479     0.83536     6.50704
Cu    -5.62058     0.83536     6.50704
 O     0.74105     2.10718     6.50704
 O    -2.19063    -0.43645     6.50704
 O    -4.15474     2.10718     6.50704
 O    -7.08642    -0.43645     6.50704
 F     0.32410    -0.37354     5.48316
 F    -1.41128     1.62658     4.27740
 F    -4.57169    -0.37354     5.48316
 F    -2.10176    -3.22027     4.27740
 H     1.64448     1.86718     6.21195
 H     0.63086     3.03543     6.80213
 H    -3.09406    -0.19645     6.80213
 H    -2.08044    -1.36470     6.21195
 H    -3.25131     1.86718     6.21195
 H    -4.26493     3.03542     6.80213
 H    -7.98985    -0.19645     6.80213
 H    -6.97623    -1.36470     6.21195
Cu     5.58627     4.84685     0.00000
Cu     0.69048     4.84685     0.00000
 O     7.05211     6.11867     0.00000
 O     4.12043     3.57504     0.00000
 O     2.15632     6.11867     0.00000
 O    -0.77536     3.57504     0.00000
 F     6.63516     3.63795    -1.02388
 F     4.89978     5.63807    -2.22964
 F     1.73937     3.63795    -1.02388
 F     4.20930     0.79122    -2.22964
 H     7.95554     5.87867    -0.29509
 H     6.94193     7.04692     0.29509
 H     3.21700     3.81504     0.29509
 H     4.23062     2.64679    -0.29509
 H     3.05975     5.87867    -0.29509
 H     2.04614     7.04692     0.29509
 H    -1.67879     3.81504     0.29509
 H    -0.66517     2.64679    -0.29509
Cu     5.22388     5.26454     3.25352
Cu     0.32809     5.26454     3.25352
 O     6.68972     6.53635     3.25352
 O     3.75804     3.99272     3.25352
 O     1.79393     6.53635     3.25352
 O    -1.13775     3.99272     3.25352
 F     6.27276     4.05564     2.22964
 F     4.53739     6.05575     1.02388
 F     1.37697     4.05564     2.22964
 F     3.84691     1.20890     1.02388
 H     7.59315     6.29635     2.95843
 H     6.57953     7.46460     3.54861
 H     2.85461     4.23272     3.54861
 H     3.86823     3.06447     2.95843
 H     2.69736     6.29635     2.95843
 H     1.68374     7.46460     3.54861
 H    -2.04118     4.23272     3.54861
 H    -1.02757     3.06447     2.95843
Cu     4.86148     5.68222     6.50704
Cu    -0.03431     5.68222     6.50704
 O     6.32732     6.95403     6.50704
 O     3.39564     4.41040     6.50704
 O     1.43153     6.95403     6.50704
 O    -1.50015     4.41040     6.50704
 F     5.91037     4.47332     5.48316
 F     4.17499     6.47344     4.27740
 F     1.01458     4.47332     5.48316
 F     3.48451     1.62658     4.27740
 H     7.23075     6.71403     6.21195
 H     6.21714     7.88228     6.80213
 H     2.49222     4.65040     6.80213
 H     3.50583     3.48215     6.21195
 H     2.33496     6.71403     6.21195
 H     1.32135     7.88228     6.80213
 H    -2.40358     4.65040     6.80213
 H    -1.38996     3.48215     6.21195
Cu     4.20531    -4.84685    -0.00000
Cu    -0.69048    -4.84685     0.00000
 O     5.67115    -3.57504    -0.00000
 O     2.73947    -6.11867    -0.00000
 O     0.77536    -3.57504     0.00000
 O    -2.15632    -6.11867     0.00000
 F     5.25419    -6.05575    -1.02388
 F     3.51882    -4.05564    -2.22964
 F     0.35840    -6.05575    -1.02388
 F     2.82833    -8.90249    -2.22964
 H     6.57458    -3.81504    -0.29509
 H     5.56096    -2.64679     0.29509
 H     1.83604    -5.87867     0.29509
 H     2.84965    -7.04692    -0.29509
 H     1.67879    -3.81504    -0.29509
 H     0.66517    -2.64679     0.29509
 H    -3.05975    -5.87867     0.29509
 H    -2.04614    -7.04692    -0.29509
Cu     3.84291    -4.42917     3.25352
Cu    -1.05288    -4.42917     3.25352
 O     5.30875    -3.15736     3.25352
 O     2.37707    -5.70099     3.25352
 O     0.41296    -3.15736     3.25352
 O    -2.51872    -5.70099     3.25352
 F     4.89180    -5.63807     2.22964
 F     3.15642    -3.63795     1.02388
 F    -0.00399    -5.63807     2.22964
 F     2.46594    -8.48481     1.02388
 H     6.21218    -3.39736     2.95843
 H     5.19857    -2.22911     3.54861
 H     1.47364    -5.46099     3.54861
 H     2.48726    -6.62924     2.95843
 H     1.31639    -3.39736     2.95843
 H     0.30278    -2.22911     3.54861
 H    -3.42215    -5.46099     3.54861
 H    -2.40853    -6.62924     2.95843
Cu     3.48052    -4.01149     6.50704
Cu    -1.41527    -4.01149     6.50704
 O     4.94636    -2.73968     6.50704
 O     2.01468    -5.28331     6.50704
 O     0.05057    -2.73968     6.50704
 O    -2.88111    -5.28331     6.50704
 F     4.52940    -5.22039     5.48316
 F     2.79403    -3.22027     4.27740
 F    -0.36639    -5.22039     5.48316
 F     2.10354    -8.06713     4.27740
 H     5.84979    -2.97968     6.21195
 H     4.83617    -1.81143     6.80213
 H     1.11125    -5.04331     6.80213
 H     2.12486    -6.21156     6.21195
 H     0.95400    -2.97968     6.21195
 H    -0.05962    -1.81143     6.80213
 H    -3.78454    -5.04331     6.80213
 H    -2.77093    -6.21156     6.21195
Cu     9.79158    -0.00000    -0.00000
Cu     4.89579     0.00000     0.00000
 O    11.25742     1.27182    -0.00000
 O     8.32574    -1.27182    -0.00000
 O     6.36163     1.27182     0.00000
 O     3.42995    -1.27182     0.00000
 F    10.84047    -1.20890    -1.02388
 F     9.10509     0.79122    -2.22964
 F     5.94468    -1.20890    -1.02388
 F     8.41461    -4.05564    -2.22964
 H    12.16085     1.03181    -0.29509
 H    11.14724     2.20006     0.29509
 H     7.42231    -1.03182     0.29509
 H     8.43593    -2.20006    -0.29509
 H     7.26506     1.03182    -0.29509
 H     6.25145     2.20006     0.29509
 H     2.52652    -1.03182     0.29509
 H     3.54014    -2.20006    -0.29509
Cu     9.42919     0.41768     3.25352
Cu     4.53340     0.41768     3.25352
 O    10.89503     1.68950     3.25352
 O     7.96335    -0.85414     3.25352
 O     5.99924     1.68950     3.25352
 O     3.06756    -0.85413     3.25352
 F    10.47807    -0.79122     2.22964
 F     8.74270     1.20890     1.02388
 F     5.58228    -0.79122     2.22964
 F     8.05221    -3.63795     1.02388
 H    11.79846     1.44950     2.95843
 H    10.78484     2.61774     3.54861
 H     7.05992    -0.61413     3.54861
 H     8.07353    -1.78238     2.95843
 H     6.90266     1.44950     2.95843
 H     5.88905     2.61774     3.54861
 H     2.16413    -0.61413     3.54861
 H     3.17774    -1.78238     2.95843
Cu     9.06679     0.83536     6.50704
Cu     4.17100     0.83536     6.50704
 O    10.53263     2.10718     6.50704
 O     7.60095    -0.43645     6.50704
 O     5.63684     2.10718     6.50704
 O     2.70516    -0.43645     6.50704
 F    10.11568    -0.37354     5.48316
 F     8.38030     1.62658     4.27740
 F     5.21989    -0.37354     5.48316
 F     7.68982    -3.22027     4.27740
 H    11.43606     1.86718     6.21195
 H    10.42245     3.03542     6.80213
 H     6.69752    -0.19645     6.80213
 H     7.71114    -1.36470     6.21195
 H     6.54027     1.86718     6.21195
 H     5.52666     3.03542     6.80213
 H     1.80173    -0.19645     6.80213
 H     2.81535    -1.36470     6.21195
