  288
 
 H     0.00000     0.00000     0.00000
 C    -2.20267    -2.48515    -4.16395
 C    -1.63002    -1.80839    -3.04585
 C    -1.83548    -2.11776    -5.49328
 C    -3.52283    -3.84395    -2.62325
 C    -2.99160    -3.17719    -1.55675
 C    -2.00752    -2.16229    -1.74246
 C    -1.39281    -1.49913    -0.64001
 C    -0.46729    -0.51377    -0.84139
 C    -2.40443    -2.78058    -6.59019
 C    -3.33078    -3.83701    -6.35385
 C    -3.66634    -4.20018    -5.08132
 H    -4.26966    -4.62896    -2.48585
 H    -3.31635    -3.40755    -0.54108
 H    -1.68376    -1.79857     0.36881
 H    -3.75440    -4.36343    -7.20826
 H    -4.35510    -5.02657    -4.89990
 C    -0.67323    -0.77129    -3.25805
 C    -0.88069    -1.07907    -5.70459
 C    -0.09714    -0.11666    -2.15983
 C    -2.02437    -2.39411    -7.90859
 C    -0.30749    -0.40110    -4.58742
 C    -0.50204    -0.72687    -7.00770
 C     0.83061     0.93929    -2.39479
 C    -1.10468    -1.40291    -8.10851
 H    -2.48264    -2.91843    -8.74943
 C     0.61947     0.62945    -4.79702
 C     0.47469     0.29515    -7.19473
 C     1.16551     1.30497    -3.66737
 H     1.25811     1.46177    -1.53948
 H    -0.80511    -1.10975    -9.11680
 C     1.01069     0.95983    -6.12869
 H     0.78941     0.52835    -8.21371
 H     1.85987     2.12924    -3.84569
 H     1.75046     1.75156    -6.27119
 C    -3.12536    -3.51883    -3.95382
 C    -6.61153    -5.89021    -4.91282
 C    -7.49801    -4.82343    -4.70984
 C    -8.04599    -4.12720    -5.82921
 C    -7.85846    -4.43997    -3.38348
 C    -6.24019    -6.24474    -6.24376
 C    -6.74799    -5.56124    -7.31173
 C    -7.68312    -4.50005    -7.13069
 C    -8.26246    -3.81026    -8.23567
 C    -9.14541    -2.78541    -8.03859
 C    -7.31693    -5.12089    -2.28421
 C    -6.41828    -6.20347    -2.51161
 C    -6.08563    -6.57981    -3.78157
 H    -5.53945    -7.07126    -6.38042
 H    -6.44306    -5.81348    -8.32865
 H    -7.97633    -4.12155    -9.24294
 H    -9.58348    -2.24785    -8.88160
 H    -6.01744    -6.73801    -1.65082
 H    -5.41212    -7.42195    -3.95596
 C    -8.96398    -3.05390    -5.62275
 C    -8.77928    -3.36923    -3.17757
 C    -9.51113    -2.37709    -6.72254
 C    -7.69638    -4.72586    -0.96857
 C    -9.32274    -2.66956    -4.29643
 C    -9.15755    -3.00900    -1.87685
 C   -10.40402    -1.28974    -6.49333
 C    -8.58863    -3.70924    -0.77293
 H    -7.26088    -5.26814    -0.12779
 C   -10.21269    -1.60562    -4.09231
 C   -10.10144    -1.95541    -1.69573
 C   -10.72894    -0.90911    -5.22277
 H   -10.81255    -0.75547    -7.35112
 H    -8.88974    -3.41320     0.23376
 C   -10.60190    -1.26630    -2.76271
 H   -10.42079    -1.71727    -0.67916
 H   -11.38819    -0.05624    -5.04704
 H   -11.31577    -0.45169    -2.62451
 H     0.19243    -4.94386     0.10851
 C    -2.08913    -7.32831    -4.07275
 C    -1.49547    -6.67587    -2.95136
 C    -1.70052    -6.96947    -5.39802
 C    -3.44294    -8.66487    -2.54243
 C    -2.87433    -8.03770    -1.47138
 C    -1.86976    -7.04247    -1.65148
 C    -1.23170    -6.41036    -0.54466
 C    -0.29581    -5.43343    -0.73702
 C    -2.26914    -7.62724    -6.49813
 C    -3.22692    -8.65800    -6.27137
 C    -3.59371    -9.00235    -5.00223
 H    -4.21075    -9.43049    -2.40924
 H    -3.17975    -8.28505    -0.45370
 H    -1.52035    -6.72815     0.45892
 H    -3.64995    -9.17915    -7.13002
 H    -4.30587    -9.80997    -4.82336
 C    -0.52360    -5.65134    -3.15483
 C    -0.72625    -5.94687    -5.60239
 C     0.06084    -5.01178    -2.05174
 C    -1.86045    -7.25751    -7.81267
 C    -0.15787    -5.27193    -4.48080
 C    -0.33175    -5.60072    -6.90277
 C     0.97312    -3.94134    -2.28014
 C    -0.92907    -6.27612    -8.00773
 H    -2.30579    -7.78854    -8.65540
 C     0.75975    -4.23174    -4.68323
 C     0.64837    -4.57936    -7.08035
 C     1.29412    -3.55537    -3.54991
 H     1.39387    -3.41822    -1.42216
 H    -0.62166    -5.98913    -9.01619
 C     1.15896    -3.89986    -6.01181
 H     0.98455    -4.35307    -8.09446
 H     1.96844    -2.71503    -3.72473
 H     1.88809    -3.09713    -6.14647
 C    -3.04423    -8.33362    -3.87109
 C    -6.45172   -10.87905    -4.83608
 C    -7.41776    -9.88022    -4.65417
 C    -8.01220    -9.24993    -5.78835
 C    -7.81222    -9.50228    -3.33598
 C    -6.02571   -11.20795    -6.15690
 C    -6.57661   -10.58291    -7.23843
 C    -7.61212    -9.61440    -7.08203
 C    -8.25808    -9.00863    -8.19997
 C    -9.22013    -8.05368    -8.02244
 C    -7.22345   -10.12000    -2.22310
 C    -6.26909   -11.15756    -2.43107
 C    -5.90409   -11.52852    -3.69294
 H    -5.24587   -11.96551    -6.27445
 H    -6.22952   -10.81395    -8.24769
 H    -7.95871    -9.32756    -9.20115
 H    -9.70683    -7.57685    -8.87572
 H    -5.85267   -11.66731    -1.56284
 H    -5.18953   -12.33769    -3.85428
 C    -9.01609    -8.25272    -5.60224
 C    -8.81286    -8.50210    -3.15041
 C    -9.60793    -7.63811    -6.71516
 C    -7.61092    -9.70518    -0.91560
 C    -9.40970    -7.87391    -4.28398
 C    -9.20784    -8.13354    -1.85702
 C   -10.56590    -6.60344    -6.50784
 C    -8.56905    -8.74640    -0.73937
 H    -7.12553   -10.18495    -0.06366
 C   -10.37574    -6.87491    -4.10196
 C   -10.23184    -7.15415    -1.69821
 C   -10.92579    -6.22844    -5.24529
 H   -10.99210    -6.10047    -7.37574
 H    -8.87166    -8.43022     0.26040
 C   -10.79067    -6.53741    -2.78023
 H   -10.56011    -6.91009    -0.68584
 H   -11.63522    -5.41422    -5.08355
 H   -11.56635    -5.77739    -2.65810
 H     3.37727    -0.09904    -8.83317
 C     1.15374    -2.48362   -13.04788
 C     1.73775    -1.83960   -11.91519
 C     1.50967    -2.07945   -14.37051
 C    -0.14007    -3.89639   -11.53348
 C     0.40413    -3.26287   -10.45269
 C     1.37847    -2.23491   -10.61810
 C     2.00010    -1.60000    -9.50284
 C     2.91211    -0.59803    -9.68499
 C     0.92873    -2.70714   -15.48177
 C     0.00107    -3.76644   -15.26689
 C    -0.32489    -4.16482   -14.00225
 H    -0.87604    -4.69404   -11.41088
 H     0.09832    -3.53221    -9.44039
 H     1.72421    -1.93279    -8.49954
 H    -0.42926    -4.26614   -16.13337
 H    -1.02176    -4.98842   -13.84055
 C     2.69208    -0.79615   -12.10719
 C     2.46853    -1.04058   -14.56232
 C     3.27257    -0.16719   -10.99553
 C     1.29658    -2.28608   -16.79303
 C     3.05197    -0.39524   -13.43021
 C     2.84116    -0.65915   -15.85941
 C     4.19903     0.89454   -11.21012
 C     2.22522    -1.29952   -16.97464
 H     0.82236    -2.78339   -17.64142
 C     3.98452     0.63402   -13.61988
 C     3.82765     0.35679   -16.02625
 C     4.53267     1.28511   -12.47605
 H     4.62784     1.39909   -10.34367
 H     2.52057    -0.98208   -17.97674
 C     4.37564     0.98860   -14.94616
 H     4.13875     0.61165   -17.04131
 H     5.22495     2.11430   -12.63911
 H     5.12809     1.77099   -15.07441
 C     0.23333    -3.52338   -12.85898
 C    -3.24972    -5.91988   -13.75526
 C    -4.14106    -4.85547   -13.56172
 C    -4.70279    -4.18286   -14.68925
 C    -4.49317    -4.45305   -12.23771
 C    -2.89255    -6.29644   -15.08458
 C    -3.42205    -5.64269   -16.16068
 C    -4.35652    -4.57975   -15.98895
 C    -4.94919    -3.91194   -17.10056
 C    -5.83249    -2.88614   -16.91177
 C    -3.94613    -5.11853   -11.13115
 C    -3.03908    -6.19620   -11.34940
 C    -2.71028    -6.58718   -12.61646
 H    -2.18269    -7.11616   -15.21440
 H    -3.13652    -5.92111   -17.17651
 H    -4.67183    -4.24115   -18.10459
 H    -6.28904    -2.37100   -17.75886
 H    -2.62602    -6.71220   -10.48268
 H    -2.03258    -7.42731   -12.78389
 C    -5.61801    -3.10548   -14.49194
 C    -5.41369    -3.38025   -12.04063
 C    -6.17654    -2.44917   -15.59880
 C    -4.32591    -4.71125    -9.81915
 C    -5.96309    -2.69762   -13.16777
 C    -5.78445    -3.00110   -10.74244
 C    -7.06027    -1.35200   -15.37927
 C    -5.21126    -3.68728    -9.63153
 H    -3.89732    -5.25249    -8.97390
 C    -6.84834    -1.62757   -12.97359
 C    -6.72728    -1.94465   -10.57183
 C    -7.37352    -0.94983   -14.11227
 H    -7.46963    -0.82791   -16.24331
 H    -5.50151    -3.37566    -8.62611
 C    -7.22610    -1.26567   -11.64592
 H    -7.04931    -1.69889    -9.55748
 H    -8.03282    -0.09463   -13.94565
 H    -7.93021    -0.44152   -11.51392
 H     3.55287    -5.00002    -8.72845
 C     1.27070    -7.31857   -12.94996
 C     1.87132    -6.69272   -11.81645
 C     1.65079    -6.93068   -14.27060
 C    -0.06026    -8.70061   -11.44004
 C     0.51546    -8.09919   -10.35734
 C     1.51048    -7.09151   -10.52154
 C     2.14924    -6.47752    -9.40432
 C     3.07164    -5.48437    -9.58153
 C     1.07339    -7.56021   -15.38248
 C     0.11190    -8.59086   -15.17260
 C    -0.24686    -8.96385   -13.90890
 H    -0.81744    -9.47914   -11.31774
 H     0.22207    -8.37620    -9.34334
 H     1.87145    -6.81917    -8.40463
 H    -0.31584    -9.08953   -16.04196
 H    -0.96660    -9.76795   -13.74679
 C     2.84001    -5.66178   -12.00420
 C     2.62933    -5.90949   -14.45969
 C     3.42368    -5.04000   -10.89033
 C     1.47934    -7.16841   -16.69156
 C     3.20286    -5.25956   -13.32532
 C     3.02432    -5.54429   -15.75504
 C     4.33407    -3.96399   -11.10205
 C     2.42399    -6.19724   -16.87167
 H     1.02361    -7.67675   -17.54263
 C     4.12520    -4.22034   -13.51084
 C     4.01097    -4.52675   -15.91540
 C     4.65605    -3.55992   -12.36587
 H     4.75352    -3.45409   -10.23510
 H     2.74007    -5.90214   -17.87453
 C     4.52731    -3.87183   -14.83462
 H     4.34641    -4.28309   -16.92536
 H     5.32399    -2.71232   -12.52801
 H     5.26728    -3.07745   -14.95661
 C     0.31800    -8.32929   -12.76468
 C    -3.09153   -10.89927   -13.66830
 C    -4.06250    -9.90288   -13.50013
 C    -4.66790    -9.30016   -14.64414
 C    -4.45336    -9.50288   -12.18608
 C    -2.67645   -11.25460   -14.98623
 C    -3.24552   -10.66324   -16.07756
 C    -4.28074    -9.69299   -15.93392
 C    -4.93689    -9.11433   -17.06024
 C    -5.90199    -8.16074   -16.89484
 C    -3.86432   -10.10330   -11.06364
 C    -2.90432   -11.13879   -11.25711
 C    -2.53722   -11.52509   -12.51427
 H    -1.88976   -12.00634   -15.09504
 H    -2.91437   -10.92507   -17.08425
 H    -4.64284    -9.45376   -18.05625
 H    -6.40311    -7.70985   -17.75362
 H    -2.48444   -11.63157   -10.38015
 H    -1.81902   -12.33350   -12.66455
 C    -5.67167    -8.30043   -14.47095
 C    -5.45335    -8.49938   -12.01391
 C    -6.27421    -7.71338   -15.59311
 C    -4.25334    -9.67205    -9.76181
 C    -6.05525    -7.89286   -13.15748
 C    -5.84289    -8.10678   -10.72548
 C    -7.22832    -6.67260   -15.39980
 C    -5.20391    -8.70302    -9.59890
 H    -3.77535   -10.14773    -8.90330
 C    -7.01861    -6.88875   -12.98918
 C    -6.86510    -7.12284   -10.58050
 C    -7.57874    -6.26978   -14.14334
 H    -7.65814    -6.18709   -16.27563
 H    -5.49941    -8.36773    -8.60271
 C    -7.42335    -6.52101   -11.67173
 H    -7.19420    -6.86569    -9.57121
 H    -8.29124    -5.45584   -13.99606
 H    -8.19044    -5.75044   -11.55937
