   54
 
Cs     0.00000     0.00000     0.00000
 I     4.09323     0.00000     0.00000
Cs     2.72882     3.85913     0.00000
 I     6.82205     3.85913     0.00000
Cs     5.45764     7.71827     0.00000
 I     9.55087     7.71827     0.00000
Cs    -2.72882     1.92957    -3.34211
 I     1.36441     1.92957    -3.34211
Cs     0.00000     5.78870    -3.34211
 I     4.09323     5.78870    -3.34211
Cs     2.72882     9.64783    -3.34211
 I     6.82205     9.64783    -3.34211
Cs    -5.45764     3.85913    -6.68421
 I    -1.36441     3.85913    -6.68421
Cs    -2.72882     7.71827    -6.68421
 I     1.36441     7.71827    -6.68421
Cs     0.00000    11.57740    -6.68421
 I     4.09323    11.57740    -6.68421
Cs    -2.72882     1.92957     3.34211
 I     1.36441     1.92957     3.34211
Cs     0.00000     5.78870     3.34211
 I     4.09323     5.78870     3.34211
Cs     2.72882     9.64783     3.34211
 I     6.82205     9.64783     3.34211
Cs    -5.45764     3.85913     0.00000
 I    -1.36441     3.85913    -0.00000
Cs    -2.72882     7.71827    -0.00000
 I     1.36441     7.71827    -0.00000
Cs     0.00000    11.57740    -0.00000
 I     4.09323    11.57740    -0.00000
Cs    -8.18646     5.78870    -3.34211
 I    -4.09323     5.78870    -3.34211
Cs    -5.45764     9.64783    -3.34211
 I    -1.36441     9.64783    -3.34211
Cs    -2.72882    13.50697    -3.34211
 I     1.36441    13.50697    -3.34211
Cs    -5.45764     3.85913     6.68421
 I    -1.36441     3.85913     6.68421
Cs    -2.72882     7.71827     6.68421
 I     1.36441     7.71827     6.68421
Cs     0.00000    11.57740     6.68421
 I     4.09323    11.57740     6.68421
Cs    -8.18646     5.78870     3.34211
 I    -4.09323     5.78870     3.34211
Cs    -5.45764     9.64783     3.34211
 I    -1.36441     9.64783     3.34211
Cs    -2.72882    13.50697     3.34211
 I     1.36441    13.50697     3.34211
Cs   -10.91528     7.71827     0.00000
 I    -6.82205     7.71827     0.00000
Cs    -8.18646    11.57740    -0.00000
 I    -4.09323    11.57740    -0.00000
Cs    -5.45764    15.43653    -0.00000
 I    -1.36441    15.43653    -0.00000
