  144
 
Au     0.00000     0.00000     0.00000
 C     2.13996     0.00981     0.01730
 C    -2.20010     0.20731     0.00079
 C    -4.67111     0.97304     0.05803
 N     3.29923     0.10325     0.03320
 N    -3.31163     0.56116     0.02665
Au    -0.22620     3.56037     0.03019
 C    -2.33765     3.86882     0.04530
 C     1.97365     3.46433     0.02796
 C     4.53553     3.82349     0.04937
 N    -3.47110     4.12922     0.05874
 N     3.12866     3.62667     0.03789
Au     0.16903     5.26319    -3.10094
 C     2.30017     5.07114    -3.11571
 C    -2.04305     5.26235    -3.08083
 C    -4.56841     4.69579    -3.08205
 N     3.44546     4.86845    -3.12303
 N    -3.18072     5.00312    -3.07936
Au    -0.25387     1.72829    -3.12664
 C    -2.38541     1.60822    -3.12496
 C     1.94534     1.64066    -3.12642
 C     4.43177     0.92769    -3.08870
 N    -3.53896     1.45930    -3.12154
 N     3.06739     1.32233    -3.10821
 H    -4.74144     2.08615     0.10074
 H    -5.19935     0.63280    -0.85939
 H    -5.17679     0.56735     0.96225
 H     5.06135     2.84351     0.05420
 H     4.84983     4.40437    -0.85126
 H     4.83388     4.40480     0.95546
 H    -4.72180     3.59360    -2.99654
 H    -5.07622     5.17806    -2.21843
 H    -5.03818     5.03275    -4.03292
 H     5.09647     1.81784    -3.07592
 H     4.63741     0.30510    -2.18415
 H     4.66341     0.30801    -3.98836
Au    -0.02171    -0.04422     6.27619
 C     2.11696    -0.04931     6.28216
 C    -2.22259     0.16087     6.28213
 C    -4.69027     0.93666     6.36496
 N     3.27683     0.03746     6.28511
 N    -3.33413     0.51387     6.31681
Au    -0.20611     3.51281     6.30746
 C    -2.31673     3.81803     6.31423
 C     1.99172     3.40297     6.30745
 C     4.55138     3.77728     6.32314
 N    -3.45141     4.07364     6.31688
 N     3.14646     3.56690     6.31375
Au     0.15152     5.22246     3.17912
 C     2.28380     5.03880     3.18536
 C    -2.06224     5.19716     3.18640
 C    -4.58315     4.61017     3.20390
 N     3.42909     4.83591     3.19168
 N    -3.19686     4.92487     3.19497
Au    -0.23996     1.68593     3.15338
 C    -2.37069     1.55168     3.16127
 C     1.96204     1.60298     3.15496
 C     4.45369     0.90707     3.18857
 N    -3.52388     1.39958     3.16838
 N     3.08603     1.29141     3.17111
 H    -4.75502     2.04622     6.25572
 H    -5.27024     0.47680     5.53583
 H    -5.14535     0.66532     7.34478
 H     5.08897     2.80435     6.31825
 H     4.85595     4.36912     5.42658
 H     4.84619     4.35449     7.23305
 H    -4.73092     3.50473     3.25228
 H    -5.07710     5.05910     4.09337
 H    -5.06866     4.97983     2.27332
 H     5.11103     1.80218     3.21245
 H     4.66366     0.27642     4.08682
 H     4.69265     0.29902     2.28290
Au    -0.33991    -7.07657    -0.05876
 C     1.79702    -7.04609    -0.04420
 C    -2.54318    -6.89843    -0.06158
 C    -5.02485    -6.17064     0.03017
 N     2.95483    -6.93632    -0.03224
 N    -3.65998    -6.56333    -0.02271
Au    -0.48808    -3.52273    -0.03160
 C    -2.60400    -3.22632    -0.01395
 C     1.71520    -3.60823    -0.03255
 C     4.25204    -3.10088     0.01049
 N    -3.74247    -2.98867     0.00214
 N     2.85930    -3.38092    -0.01249
Au    -0.09474    -1.82612    -3.15683
 C     2.03366    -2.02118    -3.16469
 C    -2.30333    -1.82616    -3.14517
 C    -4.83765    -2.34644    -3.11134
 N     3.18123    -2.21071    -3.16667
 N    -3.44528    -2.06381    -3.12999
Au    -0.58167    -5.35026    -3.19034
 C    -2.71277    -5.46045    -3.18580
 C     1.61735    -5.44368    -3.18920
 C     4.12651    -6.06867    -3.11835
 N    -3.86660    -5.60790    -3.18089
 N     2.74963    -5.72186    -3.15713
 H    -5.10822    -5.05673     0.02208
 H    -5.57655    -6.56380    -0.85170
 H    -5.49699    -6.54199     0.96726
 H     4.84044    -4.04358     0.01067
 H     4.53626    -2.49284    -0.88195
 H     4.50911    -2.50716     0.92181
 H    -5.01009    -3.44744    -3.03905
 H    -5.31877    -1.86895    -2.23022
 H    -5.32069    -1.98584    -4.04607
 H     4.75770    -5.15388    -3.11155
 H     4.34573    -6.66883    -2.20200
 H     4.39057    -6.69102    -4.00632
Au    -0.36274    -7.12057     6.21651
 C     1.77504    -7.09696     6.22259
 C    -2.56565    -6.94823     6.21444
 C    -5.04187    -6.20607     6.32503
 N     2.93307    -6.98820     6.22309
 N    -3.68148    -6.61110     6.25956
Au    -0.47224    -3.56894     6.24486
 C    -2.58842    -3.27871     6.25868
 C     1.73054    -3.66220     6.24270
 C     4.26724    -3.15420     6.28265
 N    -3.72777    -3.04525     6.26455
 N     2.87560    -3.43983     6.26070
Au    -0.11185    -1.86617     3.12200
 C     2.01737    -2.05150     3.12648
 C    -2.32116    -1.89304     3.12655
 C    -4.85166    -2.43139     3.17761
 N     3.16514    -2.23980     3.13146
 N    -3.46033    -2.14314     3.14827
Au    -0.56912    -5.39295     3.08995
 C    -2.69977    -5.51511     3.10057
 C     1.63367    -5.48258     3.09151
 C     4.14760    -6.09160     3.16159
 N    -3.85334    -5.66273     3.10942
 N     2.76780    -5.75350     3.12250
 H    -5.12380    -5.10135     6.18883
 H    -5.63559    -6.69662     5.52431
 H    -5.47306    -6.45850     7.32054
 H     4.86060    -4.09349     6.26972
 H     4.54321    -2.53295     5.39720
 H     4.52419    -2.57070     7.20029
 H    -5.02115    -3.53537     3.19368
 H    -5.31537    -2.00280     4.09306
 H    -5.35081    -2.02085     2.27270
 H     4.77165    -5.17182     3.17728
 H     4.36867    -6.69960     4.07251
 H     4.41717    -6.70472     2.26814
