  192
 
 O     0.00000     0.00000     0.00000
 C    -3.11500     1.37400     3.57900
 H    -3.88400    -0.28900     4.51600
 H    -2.57500     3.25100     2.92300
 N    -3.15300     2.74200     3.61700
 O    -3.88400     4.69000     4.51600
 O    -2.44400     0.75400     2.77400
 N    -4.61600     2.74200     5.41500
 C    -4.65300     1.37400     5.45300
 H    -5.19400     3.25100     6.10900
 O    -5.32500     0.75400     6.25800
 C    -3.88400     3.47600     4.51600
 N    -3.88400     0.73800     4.51600
 C    -0.01000     0.10800     4.51600
 C     0.75900    -1.99400     3.57900
 H    -0.01000    -3.65700     4.51600
 H     1.30000    -0.11700     2.92300
 N    -0.01000    -2.63000     4.51600
 N     0.72100    -0.62600     3.61700
 O    -0.01000     1.32200     4.51600
 O     1.43100    -2.61400     2.77400
 N    -0.74100    -0.62600     5.41500
 C    -0.77900    -1.99400     5.45300
 H    -1.31900    -0.11700     6.10900
 O    -1.45100    -2.61400     6.25800
 C     3.87400    -2.15400     0.00000
 C     3.10500    -0.05200     0.93700
 H     3.87400     1.61100     0.00000
 H     2.56500    -1.92900     1.59300
 N     3.87400     0.58400     0.00000
 N     3.14300    -1.42000     0.89900
 O     3.87400    -3.36800     0.00000
 O     2.43300     0.56800     1.74200
 N     4.60500    -1.42000    -0.89900
 C     4.64300    -0.05200    -0.93700
 H     5.18400    -1.92900    -1.59300
 O     5.31500     0.56800    -1.74200
 C     0.00000     1.21400     0.00000
 C    -0.77000     3.31600     0.93700
 H     0.00000     4.97900     0.00000
 H    -1.31000     1.43900     1.59300
 N     0.00000     3.95200     0.00000
 N    -0.73200     1.94800     0.89900
 O    -1.44100     3.93600     1.74200
 N     0.73100     1.94800    -0.89900
 C     0.76900     3.31600    -0.93700
 H     1.30900     1.43900    -1.59300
 O     1.44000     3.93600    -1.74200
 O     0.00000     6.73600     0.00000
 C    -3.11500     8.11000     3.57900
 H    -3.88400     6.44700     4.51600
 H    -2.57500     9.98700     2.92300
 N    -3.15300     9.47800     3.61700
 O    -3.88400    11.42600     4.51600
 O    -2.44400     7.49000     2.77400
 N    -4.61600     9.47800     5.41500
 C    -4.65300     8.11000     5.45300
 H    -5.19400     9.98700     6.10900
 O    -5.32500     7.49000     6.25800
 C    -3.88400    10.21200     4.51600
 N    -3.88400     7.47400     4.51600
 C    -0.01000     6.84400     4.51600
 C     0.75900     4.74200     3.57900
 H    -0.01000     3.07900     4.51600
 H     1.30000     6.61900     2.92300
 N    -0.01000     4.10600     4.51600
 N     0.72100     6.11000     3.61700
 O    -0.01000     8.05800     4.51600
 O     1.43100     4.12200     2.77400
 N    -0.74100     6.11000     5.41500
 C    -0.77900     4.74200     5.45300
 H    -1.31900     6.61900     6.10900
 O    -1.45100     4.12200     6.25800
 C     3.87400     4.58200     0.00000
 C     3.10500     6.68400     0.93700
 H     3.87400     8.34700     0.00000
 H     2.56500     4.80700     1.59300
 N     3.87400     7.32000     0.00000
 N     3.14300     5.31600     0.89900
 O     3.87400     3.36800     0.00000
 O     2.43300     7.30400     1.74200
 N     4.60500     5.31600    -0.89900
 C     4.64300     6.68400    -0.93700
 H     5.18400     4.80700    -1.59300
 O     5.31500     7.30400    -1.74200
 C     0.00000     7.95000     0.00000
 C    -0.77000    10.05200     0.93700
 H     0.00000    11.71500     0.00000
 H    -1.31000     8.17500     1.59300
 N     0.00000    10.68800     0.00000
 N    -0.73200     8.68400     0.89900
 O    -1.44100    10.67200     1.74200
 N     0.73100     8.68400    -0.89900
 C     0.76900    10.05200    -0.93700
 H     1.30900     8.17500    -1.59300
 O     1.44000    10.67200    -1.74200
 O     7.74900     0.00000     0.00000
 C     4.63400     1.37400     3.57900
 H     3.86500    -0.28900     4.51600
 H     5.17400     3.25100     2.92300
 N     4.59600     2.74200     3.61700
 O     3.86500     4.69000     4.51600
 O     5.30500     0.75400     2.77400
 N     3.13300     2.74200     5.41500
 C     3.09600     1.37400     5.45300
 H     2.55500     3.25100     6.10900
 O     2.42400     0.75400     6.25800
 C     3.86500     3.47600     4.51600
 N     3.86500     0.73800     4.51600
 C     7.73900     0.10800     4.51600
 C     8.50800    -1.99400     3.57900
 H     7.73900    -3.65700     4.51600
 H     9.04900    -0.11700     2.92300
 N     7.73900    -2.63000     4.51600
 N     8.47000    -0.62600     3.61700
 O     7.73900     1.32200     4.51600
 O     9.18000    -2.61400     2.77400
 N     7.00800    -0.62600     5.41500
 C     6.97000    -1.99400     5.45300
 H     6.43000    -0.11700     6.10900
 O     6.29800    -2.61400     6.25800
 C    11.62300    -2.15400     0.00000
 C    10.85400    -0.05200     0.93700
 H    11.62300     1.61100     0.00000
 H    10.31400    -1.92900     1.59300
 N    11.62300     0.58400     0.00000
 N    10.89200    -1.42000     0.89900
 O    11.62300    -3.36800     0.00000
 O    10.18200     0.56800     1.74200
 N    12.35400    -1.42000    -0.89900
 C    12.39200    -0.05200    -0.93700
 H    12.93300    -1.92900    -1.59300
 O    13.06400     0.56800    -1.74200
 C     7.74900     1.21400     0.00000
 C     6.97900     3.31600     0.93700
 H     7.74900     4.97900     0.00000
 H     6.43900     1.43900     1.59300
 N     7.74900     3.95200     0.00000
 N     7.01700     1.94800     0.89900
 O     6.30800     3.93600     1.74200
 N     8.48000     1.94800    -0.89900
 C     8.51800     3.31600    -0.93700
 H     9.05800     1.43900    -1.59300
 O     9.18900     3.93600    -1.74200
 O     7.74900     6.73600     0.00000
 C     4.63400     8.11000     3.57900
 H     3.86500     6.44700     4.51600
 H     5.17400     9.98700     2.92300
 N     4.59600     9.47800     3.61700
 O     3.86500    11.42600     4.51600
 O     5.30500     7.49000     2.77400
 N     3.13300     9.47800     5.41500
 C     3.09600     8.11000     5.45300
 H     2.55500     9.98700     6.10900
 O     2.42400     7.49000     6.25800
 C     3.86500    10.21200     4.51600
 N     3.86500     7.47400     4.51600
 C     7.73900     6.84400     4.51600
 C     8.50800     4.74200     3.57900
 H     7.73900     3.07900     4.51600
 H     9.04900     6.61900     2.92300
 N     7.73900     4.10600     4.51600
 N     8.47000     6.11000     3.61700
 O     7.73900     8.05800     4.51600
 O     9.18000     4.12200     2.77400
 N     7.00800     6.11000     5.41500
 C     6.97000     4.74200     5.45300
 H     6.43000     6.61900     6.10900
 O     6.29800     4.12200     6.25800
 C    11.62300     4.58200     0.00000
 C    10.85400     6.68400     0.93700
 H    11.62300     8.34700     0.00000
 H    10.31400     4.80700     1.59300
 N    11.62300     7.32000     0.00000
 N    10.89200     5.31600     0.89900
 O    11.62300     3.36800     0.00000
 O    10.18200     7.30400     1.74200
 N    12.35400     5.31600    -0.89900
 C    12.39200     6.68400    -0.93700
 H    12.93300     4.80700    -1.59300
 O    13.06400     7.30400    -1.74200
 C     7.74900     7.95000     0.00000
 C     6.97900    10.05200     0.93700
 H     7.74900    11.71500     0.00000
 H     6.43900     8.17500     1.59300
 N     7.74900    10.68800     0.00000
 N     7.01700     8.68400     0.89900
 O     6.30800    10.67200     1.74200
 N     8.48000     8.68400    -0.89900
 C     8.51800    10.05200    -0.93700
 H     9.05800     8.17500    -1.59300
 O     9.18900    10.67200    -1.74200
