  168
 
 O     0.00000     0.00000     0.00000
 C     8.44916     0.36731    -2.51477
 C     9.54268     2.63971    -2.36954
 H     6.97771     2.33238    -1.17159
 H     6.05279     2.91248    -2.69723
 H     8.51651    -0.64520    -3.02300
 H     8.48192     0.24730    -1.38226
 H     9.64377     2.57282    -1.24210
 H    10.37186     3.27558    -2.81765
 N     8.20175     3.23920    -2.66964
 N     7.15155     1.04126    -2.84850
 N     9.60370     1.24275    -2.89897
 N     8.08360     4.39109    -3.40974
 N     6.50574     0.70014    -4.03794
 N    10.24215     1.01039    -4.13122
 O     9.11967     4.98480    -3.69189
 O     6.95477     4.77007    -3.68303
 O     6.78602    -0.37251    -4.53442
 O     5.64894     1.47816    -4.43982
 O    10.13266    -0.11388    -4.58284
 O    10.90318     1.92262    -4.59064
 C     6.99745     2.42712    -2.30658
 C     9.92400    -2.58149   -14.38885
 C    11.09790    -1.95274   -12.22447
 C    12.45703    -2.26887   -14.31893
 H     9.98784    -3.69481   -14.16338
 H     9.01500    -2.34048   -15.01913
 H    10.98838    -1.31488   -11.29237
 H    11.24801    -3.04336   -11.94029
 H    12.63531    -3.35951   -14.06121
 H    13.32276    -1.84204   -14.91584
 N    11.18208    -2.19648   -15.10455
 N     9.85918    -1.87988   -13.06807
 N    12.29249    -1.53487   -13.02695
 N    11.13869    -1.60362   -16.34675
 N     9.00463    -0.78989   -12.91045
 N    12.71634    -0.19403   -12.95079
 O    12.19782    -1.20204   -16.81286
 O    10.05460    -1.57401   -16.90947
 O     9.09285    -0.16117   -11.87521
 O     8.18182    -0.60573   -13.80049
 O    12.41434     0.39933   -11.93258
 O    13.39694     0.22344   -13.86806
 C     1.14587     1.09790    -2.20947
 C     3.00727     0.30364    -3.72246
 C     3.37142     0.32641    -1.21997
 H     1.50186     2.17720    -2.29505
 H     0.02801     1.04440    -2.04389
 H     3.21543    -0.29120    -4.66630
 H     3.41075     1.36482    -3.82405
 H     3.81800     1.36797    -1.23890
 H     3.80201    -0.28502    -0.36332
 N     1.88646     0.46933    -1.06952
 N     1.53175     0.41623    -3.48320
 N     3.68531    -0.31297    -2.53511
 N     1.21766    -0.10204    -0.01453
 N     0.68935    -0.56336    -4.01317
 N     3.96530    -1.69153    -2.56217
 O     1.89693    -0.62404     0.86353
 O     1.11701    -1.22026    -4.94124
 O    -0.44137    -0.62519    -3.54676
 O     4.05817    -2.19495    -3.66603
 O     4.16352    -2.23497    -1.49173
 C     4.05347    -3.80919   -14.39365
 C     5.61069    -2.02847   -13.46140
 C     6.30491    -4.44363   -13.36496
 H     4.48137    -3.71196   -15.44344
 H     2.96663    -4.12670   -14.41840
 H     5.61822    -1.05038   -12.88713
 H     6.13104    -1.90134   -14.46422
 H     6.84327    -4.34686   -14.35888
 H     6.79896    -5.22384   -12.70555
 N     4.88368    -4.81901   -13.66300
 N     4.20396    -2.46732   -13.74698
 N     6.34243    -3.09946   -12.71273
 N     4.31084    -5.94307   -13.11210
 N     3.17003    -1.95728   -12.96636
 N     6.38532    -3.02835   -11.30521
 O     5.02716    -6.65294   -12.41698
 O     3.14683    -6.17186   -13.40475
 O     3.38705    -0.92685   -12.36094
 O     2.09878    -2.55240   -13.01763
 O     6.26048    -1.91661   -10.82815
 O     6.61108    -4.06299   -10.70841
 C     7.24823     1.10002    -8.68619
 C     5.57252     3.00195    -8.55942
 C     4.74086     0.64593    -8.87043
 H     7.37760     1.22788    -9.80964
 H     8.19130     0.69855    -8.20469
 H     5.36080     3.98410    -8.03255
 H     5.61128     3.15762    -9.68573
 H     4.74299     0.76878    -9.99828
 H     3.93945    -0.08651    -8.53926
 N     6.10299     0.15830    -8.47486
 N     6.90425     2.45099    -8.14186
 N     4.49450     1.99842    -8.28427
 N     6.25780    -0.98524    -7.72159
 N     7.44837     2.86272    -6.92664
 N     3.77295     2.10053    -7.07868
 O     5.24887    -1.64114    -7.49194
 O     7.39517    -1.28545    -7.39316
 O     7.04092     3.90825    -6.46199
 O     8.34970     2.17043    -6.46640
 O     3.72691     3.21135    -6.58538
 O     3.21034     1.09736    -6.68474
 C     6.14389    -4.08379    -5.75709
 C     5.18599    -4.72758    -8.00508
 C     3.67283    -4.70080    -5.98263
 H     5.93878    -2.98163    -5.95733
 H     7.03923    -4.22470    -5.07987
 H     5.41916    -5.29399    -8.96104
 H     4.93925    -3.64061    -8.23973
 H     3.35271    -3.63062    -6.17308
 H     2.85008    -5.28645    -5.46001
 N     4.91329    -4.67583    -5.13903
 N     6.37362    -4.72246    -7.08953
 N     3.99115    -5.30942    -7.31020
 N     4.92540    -5.18966    -3.86675
 N     7.29933    -5.76433    -7.19219
 N     3.69875    -6.67179    -7.50880
 O     3.86780    -5.63557    -3.43297
 O     5.97742    -5.13385    -3.24810
 O     7.33264    -6.37557    -8.24074
 O     8.05701    -5.92083    -6.24186
 O     4.13880    -7.16899    -8.52836
 O     2.97390    -7.20575    -6.69014
 C    13.06826     2.29488    -8.70740
 C    11.02587     2.98465    -7.36660
 C    10.84876     2.80898    -9.87251
 H    12.83308     1.18723    -8.59176
 H    14.18254     2.47376    -8.80244
 H    10.70160     3.59540    -6.46707
 H    10.69199     1.90352    -7.24787
 H    10.49077     1.73599    -9.79885
 H    10.42160     3.32134   -10.79171
 N    12.34771     2.78115    -9.92816
 N    12.52061     2.97514    -7.49260
 N    10.40562     3.50586    -8.62692
 N    13.03201     3.33856   -10.98351
 N    13.24849     3.99767    -6.88664
 N    10.07784     4.87483    -8.69823
 O    12.36564     3.78970   -11.90698
 O    14.25264     3.29307   -10.94077
 O    12.70501     4.60836    -5.98861
 O    14.40666     4.14450    -7.26154
 O     9.87314     5.42525    -7.63327
 O     9.95962     5.35611    -9.80861
 C    12.03002    -2.82185    -5.81095
 C    10.68624    -4.72630    -6.79106
 C     9.87607    -2.35555    -7.10429
 H    11.47768    -2.90753    -4.81808
 H    13.08446    -2.43813    -5.66695
 H    10.78541    -5.73126    -7.30984
 H    10.08926    -4.83274    -5.82730
 H     9.22806    -2.40098    -6.17570
 H     9.43687    -1.64345    -7.87459
 N    11.24075    -1.89686    -6.68453
 N    12.03572    -4.18994    -6.41532
 N     9.95738    -3.74222    -7.65615
 N    11.80739    -0.76506    -7.21887
 N    13.14940    -4.60466    -7.14767
 N    10.00633    -3.90927    -9.05358
 O    11.10677    -0.09002    -7.96698
 O    12.94346    -0.48602    -6.86804
 O    13.05309    -5.64658    -7.76400
 O    14.16054    -3.91987    -7.04298
 O    10.24112    -5.03650    -9.44595
 O     9.73669    -2.93815    -9.73432
