  296
 
Sb     0.00000     0.00000     0.00000
 C    13.47148     0.00000     0.00000
 C    13.07359     1.47199     0.00000
 C    11.86285     1.65502    -0.92056
 C    11.33739     3.11881    -0.80861
 C     9.10741     0.48255     2.20812
 C    10.32816     0.23663     3.11936
 C    10.58839     1.51694     3.93466
 O     8.98929    -0.72133     0.18197
 O    13.49857    -0.63568     1.13341
 O    13.78095    -0.46679    -1.13838
 O    10.16399     3.09343    -0.56446
 O    11.92541     4.18539    -0.86353
 O    12.57673     2.12197     1.16013
 O    10.86557     0.68238    -0.81441
 O     7.94632    -1.49500     1.83206
 O    11.70463     2.08270     3.86735
 O     9.50561     2.08928     4.35689
 O     9.34228     1.69056     1.56915
 O    11.44152    -0.23239     2.48995
Sb     9.03800     1.31849    -0.33706
Sb    13.08151     0.86944     2.65821
 C     8.70954    -0.76388     1.33868
 C     9.96634    -8.67958     0.05893
 C    14.72828    -7.91570    -1.27975
 C    14.33031    -6.44311    -1.27896
 C    13.11964    -6.26068    -2.20031
 C    12.59419    -4.79689    -2.08836
 C    10.36421    -7.43316     0.92837
 C    11.58496    -7.67907     1.83961
 C    11.84518    -6.39876     2.65490
 O    10.24609    -8.63703    -1.09778
 O    14.75537    -8.55138    -0.14634
 O    15.03775    -8.38249    -2.41814
 O    11.42078    -4.82228    -1.84422
 O    13.18213    -3.72971    -2.14248
 O    13.83352    -5.79373    -0.11962
 O    12.12236    -7.23332    -2.09416
 O     9.20311    -9.41070     0.55231
 O    12.96142    -5.83300     2.58760
 O    10.76240    -5.82642     3.07713
 O    10.59907    -6.22514     0.28939
 O    12.69832    -8.14809     1.21020
Sb    10.29480    -6.59721    -1.61682
Sb    14.33831    -7.04626     1.37846
 C     7.90204    -3.41997    -1.90259
 C     2.93194    -3.04425    -1.44591
 C     2.98413    -2.62369    -2.91065
 C     3.94497    -1.43858    -3.04898
 C     4.14073    -1.09748    -4.55783
 C     7.39208    -4.05276    -3.24695
 C     6.43411    -5.24544    -3.04479
 C     6.03921    -5.78845    -4.43072
 O     7.42385    -2.37614    -1.58669
 O     3.24454    -4.26824    -1.14001
 O     2.54240    -2.13915    -0.64675
 O     5.31414    -1.07210    -4.80197
 O     3.32854    -0.93680    -5.45275
 O     3.51616    -3.46622    -3.92177
 O     5.13754    -1.53509    -2.32765
 O     8.88315    -3.88167    -1.47278
 O     4.83033    -5.84703    -4.75595
 O     7.02277    -5.81761    -5.27335
 O     6.78578    -3.22735    -4.18176
 O     5.36213    -5.00280    -2.23891
Sb     6.83071    -1.43547    -3.37441
Sb     3.57181    -5.28184    -3.04524
 C     8.24650    -4.27041     6.16176
 C     3.27640    -3.89469     6.61844
 C     3.32859    -3.47413     5.15370
 C     4.28943    -2.28902     5.01537
 C     4.48519    -1.94792     3.50652
 C     7.73654    -4.90321     4.81739
 C     6.77857    -6.09588     5.01956
 C     6.38367    -6.63889     3.63363
 O     7.76831    -3.22658     6.47766
 O     3.58900    -5.11868     6.92433
 O     2.88686    -2.98959     7.41760
 O     5.65859    -1.92254     3.26238
 O     3.67300    -1.78724     2.61160
 O     3.86062    -4.31666     4.14258
 O     5.48200    -2.38553     5.73670
 O     9.22760    -4.73211     6.59157
 O     5.17478    -6.69747     3.30839
 O     7.36723    -6.66805     2.79100
 O     7.13024    -4.07779     3.88259
 O     5.70659    -5.85324     5.82543
Sb     7.17517    -2.28591     4.68994
Sb     3.91627    -6.13228     5.01911
 C    20.83189    -1.28124     2.91346
 C    16.22136    -3.21765     2.70142
 C    16.47700    -3.58806     4.15830
 C    17.76974    -4.40606     4.23908
 C    18.13835    -4.65522     5.73352
 C    20.21506    -0.83200     4.28660
 C    18.91946    -0.00643     4.14198
 C    18.44214     0.39449     5.55018
 O    20.69439    -2.42536     2.61328
 O    16.11398    -1.96022     2.39028
 O    16.09979    -4.20600     1.91531
 O    19.26982    -4.30514     5.91881
 O    17.46461    -5.05797     6.66639
 O    16.76391    -2.61213     5.14850
 O    18.83271    -3.94212     3.46016
 O    21.59325    -0.53569     2.43916
 O    17.29484     0.06925     5.93558
 O    19.40628     0.74093     6.34308
 O    19.94913    -1.79950     5.24368
 O    17.94105    -0.58247     3.38925
Sb    20.51989    -3.49108     4.42061
Sb    16.19716    -0.87976     4.28503
 C    20.48743    -0.43080    -5.15089
 C    15.87690    -2.36721    -5.36293
 C    16.13247    -2.73701    -3.90525
 C    17.42528    -3.55562    -3.82527
 C    17.79389    -3.80478    -2.33083
 C    19.87060     0.01844    -3.77775
 C    18.57500     0.84401    -3.92237
 C    18.09768     1.24493    -2.51417
 O    20.34993    -1.57492    -5.45107
 O    15.76952    -1.10978    -5.67406
 O    15.75533    -3.35556    -6.14904
 O    18.92529    -3.45410    -2.14474
 O    17.12007    -4.20692    -1.39716
 O    16.41945    -1.76169    -2.91584
 O    18.48825    -3.09168    -4.60419
 O    21.24879     0.31475    -5.62519
 O    16.95038     0.91969    -2.12877
 O    19.06182     1.59137    -1.72127
 O    19.60468    -0.94906    -2.82067
 O    17.59659     0.26797    -4.67510
Sb    20.17535    -2.64004    -3.64294
Sb    15.85270    -0.02932    -3.77932
 C    -3.33618    -7.74277     0.26870
 C     1.48251    -6.94596     1.36274
 C     1.57256    -8.46810     1.37060
 C     0.52973    -9.01824     2.34870
 C     0.49081   -10.57396     2.25116
 C    -2.60727    -8.80564    -0.62952
 C    -1.57444    -8.19262    -1.59830
 C    -0.96245    -9.33084    -2.43587
 O    -3.00024    -7.68502     1.40968
 O     1.25019    -6.34371     0.23457
 O     1.68414    -6.39591     2.48807
 O    -0.64066   -10.92404     2.06587
 O     1.38873   -11.39848     2.26814
 O     1.25048    -9.25149     0.23138
 O    -0.72853    -8.41303     2.30015
 O    -4.31543    -7.29550    -0.18020
 O     0.27750    -9.51278    -2.42873
 O    -1.82736   -10.22047    -2.80837
 O    -1.96991    -9.87157    -0.01281
 O    -0.63757    -7.38900    -1.02045
Sb    -2.28132    -9.59980     1.90911
Sb     1.25679    -7.91570    -1.27976
 C    -4.59298     0.17293     1.54845
 C     0.22572     0.96974     2.64249
 C     0.31577    -0.55240     2.65035
 C    -0.72706    -1.10254     3.62845
 C    -0.76598    -2.65826     3.53091
 C    -3.86406    -0.88994     0.65023
 C    -2.83124    -0.27692    -0.31855
 C    -2.21924    -1.41514    -1.15611
 O    -4.25704     0.23068     2.68944
 O    -0.00660     1.57199     1.51432
 O     0.42735     1.51979     3.76783
 O    -1.89746    -3.00834     3.34563
 O     0.13193    -3.48278     3.54789
 O    -0.00631    -1.33579     1.51113
 O    -1.98532    -0.49733     3.57990
 O    -5.57222     0.62020     1.09956
 O    -0.97930    -1.59708    -1.14898
 O    -3.08416    -2.30477    -1.52861
 O    -3.22670    -1.95587     1.26694
 O    -1.89436     0.52670     0.25930
Sb    -3.53811    -1.68409     3.18887
 K     8.37452    -3.50346    -6.59563
 K     8.71897    -4.35390     1.46871
 K    -4.81685    -3.48586    -7.89691
 K    -4.47240    -4.33630     0.16743
 K    14.99697    -2.77474    -0.19127
 K    13.74018     5.14096     1.08849
 K     2.05667    -3.82919     1.50039
 K     1.71221    -2.97875    -6.56396
 K    11.10439    -2.37007    -0.65473
 K     9.84760     5.54563     0.62502
 K     5.61920    -2.42680     0.56654
 K     5.27474    -1.57636    -7.49781
 K    18.86207    -2.96655     0.55371
 K    17.60528     4.94915     1.83347
 K    -1.47845    -5.44383     2.15352
 K    -1.82299    -4.59279    -5.91003
 O    13.30407    -0.48746    -3.47427
 O    13.64853    -1.33791     4.59008
 O     2.59982     0.17794    -0.08819
 O     3.85661    -7.73776    -1.36794
 O    15.26007     2.37646    -5.44876
 O    15.60453     1.52601     2.61559
 O    -0.25917     2.25750    -1.93973
 O     0.99762    -5.65820    -3.21948
 O    10.20771    -2.20833    -3.81966
 O    10.55217    -3.05877     4.24469
 O     5.89483     0.81146     1.10001
 O     7.15162    -7.10424    -0.17974
 O    -5.49045   -10.12695     0.63504
 O    -6.74724    -2.21125     1.91479
 O    -2.11909    -5.85539     5.35849
 O    -2.46355    -5.00495    -2.70586
 O    12.53295    -2.36439    -5.44006
 O    12.87741    -3.21484     2.62429
 O     3.41897     1.79188     2.08114
 O     4.67577    -6.12382     0.80138
 O    16.43992     1.08815    -7.66913
 O    16.78437     0.23771     0.39522
 O    -1.48706     3.80879     0.07710
 O    -0.23026    -4.10691    -1.20265
 H    12.37699    -0.69237    -3.44215
 H    13.93644     2.02949    -0.36439
 H    12.24667     1.55044    -1.93537
 H     8.24980     0.64836     2.86013
 H    10.03879    -0.54074     3.82650
 H    13.73465    -1.33426    -3.48086
 H    12.72145    -1.54281     4.62220
 H    15.19317    -5.88539    -1.64299
 H    13.50375    -6.36540    -3.21500
 H     9.50660    -7.26734     1.58038
 H    11.29558    -8.45645     2.54675
 H    14.07911    -2.18470     4.58348
 H     1.67273    -0.02697    -0.05607
 H     1.96867    -2.34570    -3.19288
 H     3.42447    -0.58573    -2.61329
 H     8.29046    -4.44176    -3.72623
 H     7.00807    -6.02639    -2.54601
 H     3.03040    -0.66885    -0.09478
 H     2.92953    -7.94267    -1.33582
 H     2.31313    -3.19615     4.87147
 H     3.76892    -1.43617     5.45106
 H     8.63492    -5.29220     4.33812
 H     7.35253    -6.87683     5.51834
 H     4.28719    -8.58455    -1.37454
 H    14.33299     2.17155    -5.41664
 H    15.61750    -4.17148     4.48841
 H    17.52564    -5.38347     3.82292
 H    20.96633    -0.17428     4.72375
 H    19.19060     0.91211     3.62153
 H    15.69065     1.52966    -5.45535
 H    14.67744     1.32111     2.64771
 H    15.27289    -3.32015    -3.57483
 H    17.18089    -4.53289    -4.24157
 H    20.62187     0.67616    -3.34060
 H    18.84614     1.76255    -4.44282
 H    16.03510     0.67922     2.60900
 H    -1.18625     2.05259    -1.90761
 H     2.58468    -8.72016     1.68711
 H     0.91052    -8.78910     3.34399
 H    -3.39930    -9.24018    -1.23940
 H    -2.13016    -7.55298    -2.28397
 H     0.17141     1.41070    -1.94632
 H     0.07054    -5.86311    -3.18736
 H     1.32789    -0.80446     2.96687
 H    -0.34627    -0.87340     4.62374
 H    -4.65609    -1.32448     0.04035
 H    -3.38695     0.36273    -1.00421
 H     1.42820    -6.50500    -3.22607
 H     9.28063    -2.41323    -3.78754
 H    10.63829    -3.05512    -3.82625
 H     9.62509    -3.26368     4.27681
 H    10.98275    -3.90556     4.23810
 H     4.96774     0.60656     1.13213
 H     6.32540    -0.03533     1.09342
 H     6.22454    -7.30915    -0.14763
 H     7.58220    -7.95103    -0.18634
 H    -6.41753   -10.33185     0.66716
 H    -5.05987   -10.97374     0.62845
 H    -7.67432    -2.41615     1.94691
 H    -6.31666    -3.05804     1.90820
 H    -3.04617    -6.06030     5.39061
 H    -1.68851    -6.70218     5.35190
 H    -3.39063    -5.20986    -2.67374
 H    -2.03297    -5.85174    -2.71245
 H    11.60587    -2.56930    -5.40794
 H    12.96353    -3.21119    -5.44665
 H    11.95033    -3.41974     2.65641
 H    13.30799    -4.06163     2.61770
 H     2.49189     1.58698     2.11326
 H     3.84955     0.94509     2.07454
 H     3.74869    -6.32872     0.83350
 H     5.10635    -6.97061     0.79479
 H    15.51283     0.88324    -7.63701
 H    16.87050     0.24136    -7.67572
 H    15.85729     0.03280     0.42734
 H    17.21495    -0.60908     0.38863
 H    -2.41414     3.60388     0.10922
 H    -1.05648     2.96199     0.07051
 H    -1.15735    -4.31182    -1.17053
 H     0.20031    -4.95371    -1.20924
