   64
 
 C     0.00000     0.00000     0.00000
 C     1.54448     0.00000     0.00000
 C    -2.05931     2.91230     0.00000
 C    -0.51483     2.91230     0.00000
 C    -2.05931     0.72807     1.26106
 C    -0.51483     0.72807     1.26106
 C    -4.11861     3.64037     1.26106
 C    -2.57413     3.64037     1.26106
 C    -2.05931    -1.45615     2.52213
 C    -0.51483    -1.45615     2.52213
 C    -4.11861     1.45615     2.52213
 C    -2.57413     1.45615     2.52213
 C    -4.11861    -0.72808     3.78319
 C    -2.57413    -0.72808     3.78319
 C    -6.17792     2.18422     3.78319
 C    -4.63344     2.18422     3.78319
 C    -2.05931     0.72808    -1.26106
 C    -0.51483     0.72808    -1.26106
 C    -4.11861     3.64037    -1.26106
 C    -2.57413     3.64037    -1.26106
 C    -2.05931    -1.45615    -0.00000
 C    -0.51483    -1.45615    -0.00000
 C    -4.11861     1.45615    -0.00000
 C    -2.57413     1.45615    -0.00000
 C    -4.11861    -0.72807     1.26106
 C    -2.57413    -0.72807     1.26106
 C    -6.17792     2.18422     1.26106
 C    -4.63344     2.18422     1.26106
 C    -4.11861    -2.91230     2.52212
 C    -2.57413    -2.91230     2.52212
 C    -6.17792    -0.00000     2.52213
 C    -4.63344    -0.00000     2.52213
 C    -2.05931    -1.45615    -2.52213
 C    -0.51483    -1.45615    -2.52213
 C    -4.11861     1.45615    -2.52213
 C    -2.57413     1.45615    -2.52213
 C    -4.11861    -0.72807    -1.26106
 C    -2.57413    -0.72807    -1.26106
 C    -6.17792     2.18422    -1.26106
 C    -4.63344     2.18422    -1.26106
 C    -4.11861    -2.91230     0.00000
 C    -2.57413    -2.91230     0.00000
 C    -6.17792    -0.00000    -0.00000
 C    -4.63344    -0.00000     0.00000
 C    -6.17792    -2.18423     1.26106
 C    -4.63344    -2.18422     1.26106
 C    -8.23723     0.72807     1.26106
 C    -6.69275     0.72807     1.26106
 C    -4.11861    -0.72808    -3.78319
 C    -2.57413    -0.72808    -3.78319
 C    -6.17792     2.18422    -3.78320
 C    -4.63344     2.18422    -3.78320
 C    -4.11862    -2.91230    -2.52213
 C    -2.57414    -2.91230    -2.52213
 C    -6.17792    -0.00000    -2.52214
 C    -4.63344    -0.00000    -2.52214
 C    -6.17792    -2.18422    -1.26108
 C    -4.63344    -2.18422    -1.26107
 C    -8.23723     0.72807    -1.26109
 C    -6.69275     0.72807    -1.26108
 C    -6.17793    -4.36845    -0.00001
 C    -4.63345    -4.36845    -0.00000
 C    -8.23724    -1.45615    -0.00002
 C    -6.69276    -1.45615    -0.00001
