  128
 
 H     0.00000     0.00000     0.00000
 O     0.35372    -5.37140     0.06945
 H     1.28171    -4.91945     0.01242
Al    -0.18175     2.62488     0.03391
Al    -0.72627    -4.48290     1.61607
 O     3.10401     3.55514     1.57795
 O    -1.31676     1.06914     0.04303
 O     0.85953     2.07428     1.57809
Al     1.43452    -2.35344     0.07105
 O     0.95705    -0.37212     0.04925
Al     2.02626     0.52669    -1.49193
 O    -1.87918    -1.49854    -1.46707
 O     2.59588    -3.89228     0.07186
 O     0.39229    -2.93351    -1.46531
 H     2.15445     3.13793     1.58002
 H    -0.93453    -1.91453    -1.48921
 H     4.39015     0.07203     0.00484
 O     4.73071    -5.33784     0.08781
 H     5.67148    -4.91059     0.06513
Al     4.18818     2.66894     0.03588
Al     3.64450    -4.44812     1.61798
 O     7.48912     3.59674     1.54666
 O     3.06000     1.10808     0.04066
 O     5.24107     2.11895     1.56787
Al     5.80825    -2.31869     0.07236
 O     5.33079    -0.33286     0.05160
Al     6.39553     0.56094    -1.49201
 O     2.49421    -1.46223    -1.47558
 O     6.96972    -3.85737     0.07331
 O     4.76922    -2.89997    -1.46490
 H     6.55583     3.16294     1.48900
 H     3.42451    -1.89836    -1.49703
 H     0.00874     0.03982    -3.03415
 O     0.35839    -5.37247    -2.98970
 H     1.28350    -4.91918    -3.01405
Al    -0.17904     2.62369    -3.03638
Al    -0.73573    -4.49730    -1.45680
 O     3.11053     3.54072    -1.50634
 O    -1.31132     1.06379    -3.02907
 O     0.86613     2.06435    -1.49962
Al     1.43092    -2.35957    -3.00258
 O     0.95876    -0.37081    -3.01665
Al     2.02793     0.52166    -4.56429
 O    -1.87848    -1.50489    -4.53809
 O     2.59748    -3.89582    -3.00019
 O     0.39275    -2.94085    -4.53759
 H     2.17087     3.10714    -1.52180
 H    -0.93145    -1.91657    -4.55591
 H     4.39581     0.07531    -3.05078
 O     4.73154    -5.34529    -2.98697
 H     5.67364    -4.91402    -3.00469
Al     4.19392     2.65955    -3.03926
Al     3.64604    -4.45974    -1.45880
 O     7.48675     3.57711    -1.52251
 O     3.06564     1.09960    -3.03324
 O     5.24240     2.10069    -1.50398
Al     5.80702    -2.32810    -3.00253
 O     5.33465    -0.33998    -3.02004
Al     6.40321     0.55595    -4.56826
 O     2.49519    -1.46734    -4.54411
 O     6.96949    -3.86329    -3.00133
 O     4.76682    -2.90644    -4.53936
 H     6.55959     3.11744    -1.56207
 H     3.42592    -1.90235    -4.56005
 H     0.01346     0.03685    -6.07720
 O     0.35861    -5.37959    -6.05312
 H     1.28348    -4.92386    -6.01423
Al    -0.17889     2.62226    -6.10757
Al    -0.73509    -4.50588    -4.52554
 O     3.11026     3.53620    -4.58068
 O    -1.30798     1.05925    -6.09818
 O     0.86644     2.06024    -4.56965
Al     1.43074    -2.36670    -6.07317
 O     0.96110    -0.37770    -6.09349
Al     2.02541     0.52325    -7.63891
 O    -1.87857    -1.50892    -7.61157
 O     2.59858    -3.90017    -6.06624
 O     0.39321    -2.94613    -7.60448
 H     2.17056     3.09415    -4.56200
 H    -0.93099    -1.91840    -7.58333
 H     4.39755     0.07127    -6.05512
 O     4.73222    -5.34990    -6.06009
 H     5.67505    -4.92168    -6.02903
Al     4.19354     2.65655    -6.10927
Al     3.64480    -4.46754    -4.52922
 O     7.48400     3.57249    -4.58505
 O     3.06496     1.09528    -6.10144
 O     5.24383     2.09340    -4.57017
Al     5.80950    -2.33465    -6.07562
 O     5.33478    -0.34408    -6.08884
Al     6.40029     0.55529    -7.63964
 O     2.49454    -1.46962    -7.62217
 O     6.97213    -3.86980    -6.06976
 O     4.76857    -2.90780    -7.60781
 H     6.55940     3.10761    -4.56288
 H     3.42282    -1.90890    -7.59432
 H     0.01048     0.03169    -9.16692
 O     0.35527    -5.39309    -9.12950
 H     1.28670    -4.94661    -9.08555
Al    -0.18733     2.61513    -9.18287
Al    -0.73240    -4.51012    -7.59934
 O     3.10787     3.53576    -7.65766
 O    -1.31374     1.05665    -9.17439
 O     0.86345     2.05870    -7.64167
Al     1.43219    -2.37148    -9.14731
 O     0.95733    -0.38110    -9.16807
Al     2.02479     0.51714   -10.70984
 O    -1.88043    -1.50765   -10.68626
 O     2.59434    -3.91004    -9.13775
 O     0.39371    -2.94774   -10.68092
 H     2.17103     3.10042    -7.64549
 H    -0.92767    -1.90343   -10.65789
 H     4.39413     0.05988    -9.09479
 O     4.73393    -5.34725    -9.13735
 H     5.68596    -4.92982    -9.12217
Al     4.19345     2.65661    -9.18565
Al     3.64847    -4.46829    -7.60403
 O     7.48312     3.57012    -7.65157
 O     3.06407     1.09509    -9.17137
 O     5.24083     2.09276    -7.64078
Al     5.81340    -2.33984    -9.14879
 O     5.33451    -0.34788    -9.15432
Al     6.39121     0.55469   -10.71454
 O     2.49555    -1.47479   -10.69469
 O     6.97959    -3.87343    -9.14567
 O     4.76885    -2.91250   -10.67994
 H     6.55411     3.11493    -7.61594
 H     3.43461    -1.89096   -10.66149
