  228
 
Mg     0.00000     0.00000     0.00000
 C   -12.60640     1.45418     1.03184
 C   -13.70436     2.43622     1.34671
 H   -12.24681     1.52532    -0.00026
 H   -12.90458     0.42860     1.24889
 H   -14.58646     2.24790     0.68572
 H   -14.03228     2.32784     2.40283
 H   -13.36205     3.48343     1.22345
 C    -8.71741     1.79313     2.11094
 C    -8.04699     0.44294     2.05531
 H    -8.35904     2.39417     2.95057
 H    -8.60997     2.33208     1.16268
 H    -6.95567     0.57424     1.86062
 H    -8.47962    -0.18469     1.24370
 H    -8.15587    -0.10177     3.01591
Mg   -10.86131     1.82012     2.22104
Mg    -5.58483    -5.03310    -1.19958
 C    -7.49008    -5.62109    -1.97381
 C    -8.64984    -4.67704    -1.78514
 H    -7.27584    -5.76452    -3.03925
 H    -7.64948    -6.58352    -1.47798
 H    -9.60255    -5.26271    -1.74290
 H    -8.55735    -4.07514    -0.85361
 H    -8.72903    -3.98358    -2.65048
 C    -3.77547    -5.20344    -0.07737
 C    -2.70585    -6.15531    -0.54691
 H    -4.24395    -5.55739     0.84781
 H    -3.38641    -4.18963     0.03544
 H    -1.74494    -5.91418    -0.03036
 H    -2.54334    -6.05874    -1.63811
 H    -2.98011    -7.20330    -0.29960
 C     1.15996    -0.44024    -1.75591
 C     2.45403    -1.11439    -1.37766
 H     0.48779    -1.09104    -2.32817
 H     1.33433     0.48826    -2.30052
 H     2.83825    -1.73229    -2.22266
 H     3.22030    -0.35163    -1.12013
 H     2.31224    -1.78673    -0.49880
 C    -1.83020     0.34136     1.07862
 C    -2.62225     1.50396     0.53244
 H    -1.49797     0.51900     2.10542
 H    -2.37531    -0.59938     0.98855
 H    -3.69755     1.40687     0.80882
 H    -2.54059     1.56324    -0.57791
 H    -2.24272     2.45780     0.95870
Mg    -6.59142     4.53985    -4.88440
 C    -5.17431     4.36241    -6.49415
 C    -4.01297     3.45752    -6.16592
 H    -5.78620     3.96698    -7.31221
 H    -4.83643     5.37793    -6.72095
 H    -3.15758     3.67729    -6.84816
 H    -3.67424     3.59873    -5.11406
 H    -4.29686     2.39278    -6.30320
 C    -7.83270     5.47175    -3.39301
 C    -9.25489     5.87231    -3.68484
 H    -7.18550     6.34473    -3.22536
 H    -7.79167     4.78632    -2.54320
 H    -9.73271     6.26081    -2.75204
 H    -9.84528     5.00192    -4.04063
 H    -9.28950     6.68356    -4.44382
 O   -11.38074     1.08626     4.16696
 O   -11.39304    -2.02161     2.74030
 O    -9.70481    -1.61308    -0.45090
 C   -11.95172    -0.25592     4.25838
 C   -10.84094    -1.20226     3.80505
 C   -10.49744    -2.31478     1.64547
 C   -10.75214    -1.31757     0.50992
 C    -9.78573    -0.83957    -1.66396
 C   -12.25589     2.11181     4.73587
 H   -12.23660    -0.42583     5.31961
 H   -12.82939    -0.30262     3.57701
 H   -10.56132    -1.93162     4.60110
 H    -9.96443    -0.61312     3.45491
 H    -9.43659    -2.29468     1.97189
 H   -10.81676    -3.33948     1.34558
 H   -11.74082    -1.48896     0.03660
 H   -10.62476    -0.26058     0.83229
 H   -10.84716    -0.73170    -1.98925
 H    -9.21514    -1.49840    -2.36050
 H   -13.23203     2.09000     4.20143
 H   -12.35793     1.89599     5.82510
 C    -9.08010     0.51262    -1.52583
 C   -11.51814     3.42753     4.51708
 O   -10.11190     1.52575    -1.35105
 H    -8.43802     0.52971    -0.61945
 H    -8.51444     0.75105    -2.45930
 O   -11.51290     3.64648     3.06797
 H   -10.45249     3.37181     4.86722
 H   -12.07949     4.27099     4.97770
 C    -9.58036     2.87956    -1.40003
 C   -10.73688     4.82733     2.70209
 C   -10.64697     3.77740    -0.77555
 H    -9.43178     3.11640    -2.47727
 H    -8.63792     2.94202    -0.81371
 C   -11.00291     5.10150     1.22208
 H   -11.14557     5.67205     3.30910
 H    -9.66687     4.61221     2.90629
 O   -10.04113     4.38457     0.40540
 H   -10.93255     4.61134    -1.45122
 H   -11.51988     3.16244    -0.45650
 H   -12.04525     4.80836     0.96601
 H   -10.81203     6.17673     0.99742
 O    -6.23717    -5.89289     1.91534
 O    -6.22465    -8.98680     0.40638
 O    -4.84143    -9.03516    -2.95967
 C    -6.99509    -7.11202     1.71698
 C    -5.99775    -8.27261     1.64594
 C    -5.24770    -8.68788    -0.62483
 C    -5.66352    -9.48653    -1.86480
 C    -5.35888    -7.90848    -3.70472
 C    -7.10414    -4.72575     1.85781
 H    -7.68452    -7.20675     2.58418
 H    -7.52184    -7.01950     0.74118
 H    -6.21478    -9.05292     2.41137
 H    -4.95162    -7.90740     1.72508
 H    -5.27251    -7.59516    -0.83492
 H    -4.25313    -9.02862    -0.26649
 H    -5.37151   -10.55857    -1.78929
 H    -6.74376    -9.37018    -2.09404
 H    -6.32473    -7.54357    -3.29363
 H    -5.50210    -8.35060    -4.71814
 H    -7.83648    -4.83922     1.02129
 H    -7.59799    -4.64601     2.85422
 C    -4.31013    -6.79508    -3.71614
 C    -6.20977    -3.52604     1.57062
 O    -5.03272    -5.58198    -3.32991
 H    -3.53110    -6.99278    -2.95281
 H    -3.87546    -6.65505    -4.73443
 O    -6.29043    -3.37987     0.12101
 H    -5.14751    -3.69728     1.85852
 H    -6.63656    -2.60445     2.02906
 C    -4.45414    -4.35761    -3.86808
 C    -5.70092    -2.14888    -0.37617
 C    -5.54306    -3.28307    -3.77965
 H    -4.16900    -4.53956    -4.93030
 H    -3.58263    -4.09783    -3.22786
 C    -6.26939    -2.02482    -1.78931
 H    -6.01308    -1.30193     0.27092
 H    -4.59754    -2.28731    -0.39969
 O    -5.19274    -2.41238    -2.67538
 H    -5.50894    -2.60806    -4.66716
 H    -6.54400    -3.74376    -3.63521
 H    -7.16513    -2.68053    -1.90223
 H    -6.50817    -0.97163    -2.04582
 O     0.99890     1.68434     0.78540
 O     0.20696     4.01290    -1.78709
 O    -2.25350     1.77068    -3.10957
 C     1.41758     2.65230    -0.22969
 C     0.18454     3.53740    -0.42247
 C    -0.94341     3.67437    -2.58570
 C    -0.87520     2.20771    -3.01840
 C    -2.39593     0.42491    -3.62248
 C     2.11733     1.14402     1.55662
 H     2.28227     3.22148     0.15325
 H     1.68580     2.10478    -1.16003
 H     0.23197     4.46483     0.18894
 H    -0.73186     2.94692    -0.20852
 H    -1.88111     3.87975    -2.02689
 H    -0.81753     4.37789    -3.44231
 H    -0.40353     2.09902    -4.01680
 H    -0.38033     1.58052    -2.24351
 H    -1.47093     0.08059    -4.13433
 H    -3.23769     0.55562    -4.34059
 H     2.90359     0.78400     0.84999
 H     2.47057     1.97347     2.20772
 C    -2.80375    -0.52900    -2.50276
 C     1.56426     0.02904     2.43577
 O    -1.66380    -1.39371    -2.22141
 H    -3.04893     0.02944    -1.57470
 H    -3.64972    -1.18248    -2.83660
 O     1.14795    -1.05534     1.54429
 H     0.68131     0.36791     3.03720
 H     2.38048    -0.38173     3.07637
 C    -2.03451    -2.43678    -1.27534
 C     0.34473    -2.04690     2.25597
 C    -0.75230    -3.12798    -0.81169
 H    -2.70823    -3.13544    -1.81733
 H    -2.53517    -1.97037    -0.39626
 C     0.30838    -3.30546     1.38787
 H     0.82618    -2.24888     3.23841
 H    -0.67816    -1.62317     2.36479
 O    -0.91555    -3.30132     0.62526
 H    -0.66331    -4.15647    -1.21971
 H     0.14554    -2.51151    -1.03336
 H     1.21662    -3.38094     0.74313
 H     0.17762    -4.20877     2.03083
 O    -4.98546     6.84603    -3.21162
 O    -6.27422     8.84187    -5.91625
 O    -8.54824     6.79506    -7.87476
 C    -4.93542     7.37974    -4.56276
 C    -5.92235     8.54831    -4.54787
 C    -7.53426     8.30531    -6.37271
 C    -7.27319     7.43256    -7.60942
 C    -8.52520     5.37542    -8.12451
 C    -4.11078     5.70904    -3.00380
 H    -3.88633     7.67892    -4.78207
 H    -5.26702     6.62065    -5.29769
 H    -5.45196     9.49700    -4.21008
 H    -6.81202     8.30399    -3.93000
 H    -8.03631     7.69955    -5.59309
 H    -8.12324     9.21452    -6.63490
 H    -7.07377     8.04327    -8.51774
 H    -6.47328     6.68981    -7.42493
 H    -7.52135     5.02228    -8.44981
 H    -9.27982     5.30195    -8.94687
 H    -3.71240     5.31905    -3.96817
 H    -3.29168     6.10606    -2.35837
 C    -9.02656     4.63760    -6.88208
 C    -4.88687     4.63942    -2.24243
 O    -7.96264     3.76032    -6.39245
 H    -9.24006     5.36764    -6.07510
 H    -9.90955     4.00525    -7.13654
 O    -5.38199     3.69031    -3.23857
 H    -5.75561     5.07118    -1.69581
 H    -4.20068     4.07219    -1.57071
 C    -8.49930     2.59398    -5.68459
 C    -6.04683     2.54831    -2.62486
 C    -7.35511     1.58212    -5.61531
 H    -9.35989     2.19327    -6.27455
 H    -8.80990     2.92653    -4.66908
 C    -5.91465     1.41186    -3.63714
 H    -5.53962     2.29469    -1.66853
 H    -7.11346     2.82366    -2.48021
 O    -7.20116     1.16819    -4.23693
 H    -7.63372     0.62829    -6.12028
 H    -6.41697     2.01380    -6.03122
 H    -5.13724     1.66323    -4.39188
 H    -5.69574     0.43984    -3.13812
