  416
 
Bi     0.00000     0.00000     0.00000
 F     1.04904   -10.26321     3.90279
 F     3.40302    -9.08488     4.15188
 F     4.31301    -7.40001     2.20557
 F     2.84414    -6.98836    -0.00792
 F     0.38500    -8.11299    -0.23490
 F    -3.00838    -8.85658     4.45182
 F    -3.05088    -9.79308     6.95954
 F    -1.62043   -11.97781     7.63969
 F    -0.26471   -13.36052     5.69150
 F    -0.33259   -12.51674     3.17131
 F    -1.07803    -7.39023     3.69808
 F    -1.85480    -4.82243     3.61347
 F    -3.20720    -3.87119     1.45864
 F    -3.79890    -5.54755    -0.60184
 F    -3.18327    -8.13984    -0.44724
 C     0.63764    -9.25942     1.80298
 C     1.43746    -9.48802     2.90892
 C     2.69634    -8.88192     3.05991
 C     3.16589    -8.03396     2.06111
 C     2.38818    -7.80702     0.92197
 C     1.12738    -8.40899     0.81659
 C    -1.64261   -10.63612     3.72413
 C    -2.33808    -9.96074     4.71546
 C    -2.35656   -10.42895     6.03763
 C    -1.64105   -11.57469     6.38705
 C    -0.95230   -12.27637     5.39631
 C    -0.98313   -11.80995     4.07682
 C    -2.14309    -7.86577     1.65114
 C    -1.78963    -6.98427     2.66341
 C    -2.15970    -5.63187     2.61917
 C    -2.85547    -5.13878     1.51398
 C    -3.17826    -6.00371     0.46779
 C    -2.83616    -7.35929     0.55879
Bi    -1.50192   -10.03674     1.54918
Bi   -14.70426   -10.06861     7.24041
 F   -11.44565   -11.30654     7.06367
 F    -9.06311   -10.14522     7.11813
 F    -8.85579    -7.44218     7.39022
 F   -11.07474    -5.95379     7.76067
 F   -13.51442    -7.12649     7.70970
 F   -14.77349   -11.60774     4.16200
 F   -13.94505   -14.00633     3.31387
 F   -12.64712   -15.68619     4.99403
 F   -12.36531   -14.99884     7.63179
 F   -13.25316   -12.64420     8.49893
 F   -13.01799    -9.76436     4.25250
 F   -13.34190    -8.16494     2.12206
 F   -15.22675    -6.20615     2.15520
 F   -16.88428    -5.97817     4.29956
 F   -16.71178    -7.69427     6.32241
 C   -12.57235    -9.25830     7.40971
 C   -11.41522   -10.00272     7.25831
 C   -10.14369    -9.40818     7.28005
 C   -10.03397    -8.02855     7.44132
 C   -11.18711    -7.25932     7.61701
 C   -12.44074    -7.88651     7.59044
 C   -14.02328   -12.03026     6.35742
 C   -14.19312   -12.40937     5.03399
 C   -13.75310   -13.65782     4.57051
 C   -13.11168   -14.53912     5.44171
 C   -12.95899   -14.18428     6.78347
 C   -13.42658   -12.94055     7.22488
 C   -14.87068    -8.81292     5.35532
 C   -14.00429    -8.88805     4.27184
 C   -14.13391    -8.03355     3.16660
 C   -15.11138    -7.03630     3.17041
 C   -15.96885    -6.92648     4.26434
 C   -15.84968    -7.82974     5.32799
Bi    -4.44607    -0.29078     2.70760
 F    -2.57447     2.53667     3.47781
 F    -0.02905     2.90663     4.12307
 F     1.70515     0.79682     4.12843
 F     0.86626    -1.63670     3.36833
 F    -1.74829    -2.04423     2.76748
 F    -5.98683     0.80792     5.58992
 F    -7.00158     3.18667     6.30031
 F    -6.65458     5.35330     4.72480
 F    -5.39267     5.08317     2.31307
 F    -4.44224     2.70683     1.56480
 F    -3.50596     0.19014     5.98550
 F    -3.26406    -1.47491     8.07711
 F    -3.79014    -4.12193     7.78830
 F    -4.67598    -5.05939     5.38799
 F    -5.07554    -3.39120     3.35485
 C    -2.25109     0.23159     3.07592
 C    -1.77948     1.48629     3.41956
 C    -0.43413     1.70822     3.75923
 C     0.45466     0.63740     3.74269
 C     0.00882    -0.63299     3.36852
 C    -1.34201    -0.82032     3.05289
 C    -5.18673     1.66934     3.54676
 C    -5.83542     1.82354     4.76319
 C    -6.35517     3.06541     5.15760
 C    -6.19845     4.18093     4.33479
 C    -5.54841     4.04395     3.10756
 C    -5.05751     2.78818     2.72857
 C    -4.31627    -1.53443     4.59898
 C    -3.83839    -1.07639     5.82036
 C    -3.67841    -1.93795     6.91506
 C    -3.95912    -3.29901     6.77536
 C    -4.42239    -3.77710     5.54992
 C    -4.61424    -2.88526     4.48693
Bi   -15.13006    -4.71758    -1.56301
 F   -12.58011    -2.97279    -3.17875
 F   -10.00156    -2.64790    -2.67662
 F    -8.87305    -3.80440    -0.47278
 F   -10.41262    -5.17379     1.26313
 F   -13.05429    -5.50792     0.76007
 F   -15.15623    -6.34441    -4.60116
 F   -15.16007    -5.46382    -7.12694
 F   -14.93160    -2.81918    -7.66197
 F   -14.88093    -1.02616    -5.59255
 F   -14.95350    -1.89145    -3.07486
 F   -12.92910    -6.64472    -3.38508
 F   -12.36440    -9.27276    -3.38145
 F   -13.48391   -10.90971    -1.52827
 F   -15.29199    -9.89463     0.24059
 F   -16.05745    -7.35782     0.06682
 C   -12.92006    -4.23876    -1.21358
 C   -12.11218    -3.51114    -2.06990
 C   -10.74103    -3.32533    -1.82294
 C   -10.16994    -3.89839    -0.68967
 C   -10.96922    -4.62243     0.20103
 C   -12.33218    -4.78624    -0.07834
 C   -15.04149    -4.14982    -3.74609
 C   -15.09455    -5.04276    -4.80591
 C   -15.08469    -4.59782    -6.13599
 C   -14.99509    -3.23357    -6.41468
 C   -14.96049    -2.32037    -5.35901
 C   -14.99474    -2.78985    -4.04038
 C   -14.53074    -6.90474    -1.67750
 C   -13.56366    -7.42314    -2.52929
 C   -13.22387    -8.78412    -2.51097
 C   -13.80786    -9.63442    -1.56952
 C   -14.74954    -9.12067    -0.67909
 C   -15.11917    -7.77265    -0.76863
Bi     0.58964    -6.25809     9.33122
 F    -1.98094    -6.01700     7.00479
 F    -4.39211    -7.10949     6.83698
 F    -5.27729    -8.79599     8.78903
 F    -3.73465    -9.28457    10.94262
 F    -1.26050    -8.19866    11.11323
 F     2.16106    -7.35885     6.42911
 F     2.33326    -6.30990     3.97009
 F     0.93299    -4.11049     3.31074
 F    -0.54927    -2.82342     5.23214
 F    -0.63645    -3.79009     7.70803
 F     0.30186    -8.87570     7.12252
 F     1.14966   -11.42245     7.19100
 F     2.41844   -12.38116     9.39861
 F     2.89327   -10.72473    11.50029
 F     2.21247    -8.14212    11.36303
 C    -1.54450    -7.03613     9.08972
 C    -2.36778    -6.78236     8.00732
 C    -3.64917    -7.34808     7.89768
 C    -4.10815    -8.19798     8.90056
 C    -3.29826    -8.46019    10.00938
 C    -2.02327    -7.88433    10.08227
 C     0.74058    -5.62383     7.16107
 C     1.49038    -6.25277     6.17798
 C     1.57769    -5.72779     4.88013
 C     0.87458    -4.57200     4.54269
 C     0.11846    -3.92243     5.51878
 C     0.07610    -4.45062     6.81525
 C     1.26599    -8.41414     9.22053
 C     0.97994    -9.28474     8.17853
 C     1.38606   -10.62665     8.21447
 C     2.04339   -11.12081     9.34310
 C     2.30055   -10.26641    10.41673
 C     1.92671    -8.91844    10.33464
Bi    -8.96614   -12.54583     0.87293
 F   -12.23300   -11.31961     0.93485
 F   -14.60463   -12.49888     0.83920
 F   -14.78594   -15.21440     0.64499
 F   -12.54552   -16.69379     0.38241
 F   -10.12134   -15.49874     0.44224
 F    -8.85449   -10.98026     3.94195
 F    -9.57093    -8.53242     4.75722
 F   -10.85327    -6.84700     3.08669
 F   -11.24191    -7.57486     0.47067
 F   -10.45444    -9.97611    -0.37212
 F   -10.60067   -12.80101     3.90055
 F   -10.27324   -14.42787     6.01344
 F    -8.45866   -16.44779     5.91490
 F    -6.87228   -16.72288     3.72330
 F    -7.04962   -14.98832     1.70796
 C   -11.08563   -13.36773     0.67038
 C   -12.25060   -12.62842     0.77302
 C   -13.51587   -13.23433     0.73146
 C   -13.61204   -14.61931     0.60871
 C   -12.44916   -15.38407     0.48571
 C   -11.20247   -14.74464     0.52237
 C    -9.64407   -10.57588     1.75709
 C    -9.43296   -10.17910     3.06944
 C    -9.81760    -8.90721     3.51760
 C   -10.45320    -8.02218     2.64698
 C   -10.65934    -8.39732     1.31889
 C   -10.24247    -9.66469     0.89199
 C    -8.81653   -13.81488     2.74422
 C    -9.64935   -13.71412     3.85053
 C    -9.51830   -14.58105     4.94507
 C    -8.57668   -15.61171     4.90585
 C    -7.75553   -15.74670     3.78645
 C    -7.87304   -14.83321     2.73163
 F    -1.97159    -2.76542    -0.71048
 F    -4.54297    -3.04556    -1.31966
 F    -6.19716    -0.87944    -1.33246
 F    -5.25714     1.53412    -0.58224
 F    -2.63143     1.83852     0.00477
 F     1.48549    -1.17062    -2.90660
 F     2.44879    -3.57623    -3.59147
 F     2.07663    -5.71197    -1.99959
 F     0.84217    -5.38749     0.43348
 F    -0.03052    -2.98492     1.16804
 F    -0.91365    -0.54356    -3.27599
 F    -1.26015     1.10759    -5.36163
 F    -0.90651     3.78524    -5.05627
 F    -0.06812     4.76745    -2.66638
 F     0.47705     3.10412    -0.64011
 C    -2.21422    -0.45135    -0.31314
 C    -2.73188    -1.68876    -0.65084
 C    -4.08664    -1.85834    -0.97536
 C    -4.93930    -0.75583    -0.96195
 C    -4.44457     0.49661    -0.59018
 C    -3.08420     0.63176    -0.28160
 C     0.68547    -1.98728    -0.84291
 C     1.31487    -2.17083    -2.06569
 C     1.80831    -3.42642    -2.44917
 C     1.63965    -4.53088    -1.61452
 C     1.00724    -4.36602    -0.38189
 C     0.54875    -3.09519    -0.01242
 C    -0.18032     1.22245    -1.89705
 C    -0.64494     0.73826    -3.11200
 C    -0.86502     1.59252    -4.20177
 C    -0.67084     2.96679    -4.05314
 C    -0.22949     3.47069    -2.82875
 C     0.03498     2.58965    -1.77206
Bi   -12.13289    -1.85401     1.65176
 F   -14.72097    -3.63529     3.15186
 F   -17.29461    -3.91364     2.58341
 F   -18.36368    -2.68160     0.39656
 F   -16.75887    -1.31109    -1.29107
 F   -14.13182    -1.03205    -0.72578
 F   -12.20983    -0.25647     4.73402
 F   -12.25480    -1.18900     7.24223
 F   -12.44861    -3.83000     7.72984
 F   -12.44753    -5.59448     5.61857
 F   -12.30039    -4.68496     3.12665
 F   -14.31111     0.08890     3.49082
 F   -14.98012     2.68659     3.36130
 F   -13.98585     4.25883     1.38307
 F   -12.20985     3.21844    -0.39340
 F   -11.33506     0.70953    -0.10759
 C   -14.32638    -2.33159     1.22224
 C   -15.16110    -3.06429     2.04699
 C   -16.52710    -3.22094     1.76546
 C   -17.07080    -2.61114     0.63605
 C   -16.24103    -1.88967    -0.22684
 C   -14.88086    -1.75627     0.08501
 C   -12.27700    -2.43589     3.83383
 C   -12.26533    -1.56198     4.91064
 C   -12.30017    -2.03288     6.23121
 C   -12.37573    -3.40194     6.48755
 C   -12.37642    -4.29508     5.41473
 C   -12.31160    -3.80008     4.10660
 C   -12.77589     0.31680     1.71816
 C   -13.73342     0.84181     2.57395
 C   -14.12802     2.18560     2.49080
 C   -13.61002     3.00108     1.48367
 C   -12.68215     2.47265     0.58540
 C   -12.25361     1.14726     0.73355
Bi    -5.15219   -11.58615     1.41885
 F    -3.41116   -10.82225     1.45775
 F    -5.12928    -8.36208     2.38714
 F    -5.89937    -7.11981     4.61421
 F    -6.70713    -8.55129     6.77892
 F    -5.52049   -13.49441    -0.72831
 F    -4.49681   -15.93028    -0.56231
 F    -3.17200   -16.75723     1.63647
 F    -2.88872   -15.11148     3.77081
 F    -3.72609   -12.62174     3.69648
 C    -5.66719   -10.48622     3.27170
 C    -5.57234    -9.10657     3.38314
 C    -5.94872    -8.43608     4.55705
 C    -6.37278    -9.16737     5.66640
 C    -4.68939   -12.86044     1.46556
 C    -4.88022   -13.81882     0.37063
 C    -4.35295   -15.11004     0.45869
 C    -3.50139   -14.68376     2.68520
 C    -3.96152   -13.37076     2.64104
 C    -3.66804   -15.54592     1.59502
 F    -6.96204   -12.09180     1.14727
 C    -5.64339   -10.06905    -0.10358
 C    -6.11592   -11.19437     4.38098
 C    -6.43974   -10.55964     5.58647
 C    -4.98073   -10.04662    -1.32623
 C    -6.65616    -9.14065     0.09709
 F    -6.23851   -12.51022     4.33531
 F    -6.80272   -11.26590     6.63758
 F    -3.99193   -10.88544    -1.56851
 C    -5.34913    -9.16182    -2.34925
 F    -7.32080    -9.08411     1.23623
 C    -7.02245    -8.21624    -0.89202
 F    -4.73886    -9.19187    -3.51790
 C    -6.38432    -8.25081    -2.13082
 F    -7.96959    -7.32894    -0.65680
 F    -6.76534    -7.43747    -3.09415
Bi     4.23931    -4.73303     9.65708
 F     6.02520    -4.13967     9.97324
 F     5.34679    -3.82023     6.74005
 F     5.80160    -5.06075     4.42129
 F     5.68056    -7.77419     4.27357
 F     3.00246    -5.41124    12.60700
 F     3.75114    -7.04119    14.61127
 F     5.86866    -8.70979    14.29059
 F     7.14473    -8.82176    11.89393
 F     6.44614    -7.16426     9.92154
 C     4.78213    -5.83891     7.82177
 C     5.20528    -5.13617     6.70026
 C     5.47715    -5.77095     5.48385
 C     5.39000    -7.16183     5.40058
 C     4.71520    -6.20557    11.20514
 C     4.02573    -6.22184    12.41227
 C     4.39860    -7.07000    13.46402
 C     6.14979    -7.97731    12.07558
 C     5.76468    -7.10271    11.04934
 C     5.47780    -7.93978    13.29705
 F     2.49160    -5.47668     9.51740
 C     3.77116    -3.45606     9.59166
 C     4.66877    -7.21816     7.71221
 C     4.98324    -7.88968     6.51882
 C     3.93269    -2.49299    10.68489
 C     3.08362    -2.94637     8.39626
 F     4.25745    -7.95418     8.72580
 F     4.88512    -9.20114     6.44881
 F     4.52737    -2.81404    11.80891
 C     3.41884    -1.19617    10.57491
 F     2.86315    -3.69887     7.33947
 C     2.64694    -1.62662     8.32565
 F     3.53122    -0.37403    11.59854
 C     2.78525    -0.75732     9.41308
 F     2.08031    -1.19827     7.21501
 F     2.30839     0.46135     9.34339
Bi    -8.25287    -1.33551     2.31430
 F    -6.41521    -0.85538     2.44619
 F    -7.47812    -1.70942     5.46132
 F    -8.25023    -0.54578     7.74810
 F    -9.86602     1.63411     7.69143
 F    -8.88033    -1.12115    -0.89791
 F    -8.79233     0.86682    -2.70338
 F    -8.17340     3.39232    -1.92087
 F    -7.77457     3.92487     0.71532
 F    -7.78083     1.94928     2.49835
 C    -8.80251    -0.25331     4.16609
 C    -8.31042    -0.68448     5.39250
 C    -8.68403    -0.07490     6.59640
 C    -9.52972     1.03587     6.56989
 C    -8.30603     0.32700     0.86506
 C    -8.58719     0.09422    -0.47751
 C    -8.55223     1.12107    -1.43183
 C    -8.01631     2.69099     0.31655
 C    -8.03284     1.63576     1.24074
 C    -8.24948     2.42384    -1.03142
 F   -10.11206    -1.55461     1.98356
 C    -8.00740    -2.66984     2.34363
 C    -9.66619     0.83260     4.16261
 C   -10.01342     1.50098     5.34719
 C    -7.10856    -3.34275     1.39811
 C    -8.63323    -3.54168     3.35504
 F   -10.19704     1.28809     3.04350
 F   -10.80099     2.55755     5.30717
 F    -6.48971    -2.68615     0.44523
 C    -6.91010    -4.72474     1.46219
 F    -9.45719    -3.07274     4.26654
 C    -8.36091    -4.90677     3.39224
 F    -6.13021    -5.30269     0.57076
 C    -7.52782    -5.50634     2.44056
 F    -8.90919    -5.64471     4.33680
 F    -7.33612    -6.80170     2.46191
Bi     3.81651     0.64285     0.84336
 F     5.59670     1.18569     1.21334
 F     5.68899    -1.72274    -0.39405
 F     6.04725    -2.75896    -2.83055
 F     4.99541    -1.51594    -5.01044
 F     1.91467     2.87995     2.27943
 F     1.63670     5.54176     2.02404
 F     3.05674     6.88228     0.13747
 F     4.64648     5.50779    -1.58793
 F     4.97180     2.87255    -1.29928
 C     4.27220    -0.02849    -1.21946
 C     5.09944    -1.12646    -1.41882
 C     5.32370    -1.66557    -2.68957
 C     4.76179    -1.04330    -3.80604
 C     3.47505     2.78501     0.52078
 C     2.60443     3.49753     1.33845
 C     2.44484     4.88476     1.21645
 C     4.00021     4.87266    -0.63084
 C     4.15246     3.48801    -0.46829
 C     3.16184     5.57363     0.23611
 F     1.97908     0.35687     0.42766
 C     3.79849    -0.26319     1.86051
 C     3.69366     0.55682    -2.33733
 C     3.94511     0.07384    -3.63244
 C     4.05799     0.09412     3.25867
 C     3.53603    -1.69055     1.61648
 F     2.87927     1.58734    -2.22634
 F     3.40087     0.65986    -4.67883
 F     4.29698     1.33112     3.62301
 C     4.02463    -0.87880     4.26516
 F     3.27340    -2.15728     0.41456
 C     3.57040    -2.62045     2.65192
 F     4.21467    -0.51203     5.51687
 C     3.78756    -2.22203     3.97519
 F     3.37943    -3.89566     2.37567
 F     3.75386    -3.11082     4.93781
