  232
 
 C     0.00000     0.00000     0.00000
 C     3.14214    -0.11486     0.10595
 C     2.72724     1.24199    -0.05150
 C     3.06587     1.66122    -1.37696
 C     1.55326    -2.27767    -1.96254
 C    -0.50131     1.27669    -2.69876
 C     0.73924     1.66612    -3.29885
 C     1.23133     0.54639    -4.05727
 C     0.28413    -0.52392    -3.91777
 C    -0.77931    -0.07106    -3.07917
 C     3.70967     0.55960    -2.03945
 C     3.75008    -0.54003    -1.11790
Hf     1.36591    -0.10760    -1.69915
 H    -1.15610     1.91207    -2.12749
 H     2.98394     2.66822    -1.75172
 H     1.15237     2.66081    -3.30345
 H     2.08623     0.55243    -4.71106
 H     0.31324    -1.46714    -4.43699
 H    -1.68144    -0.61640    -2.83924
 H     4.19362     0.59622    -3.00009
 H     4.24325    -1.48316    -1.27989
 H     3.08794    -0.69406     1.01413
 H     2.29710     1.87750     0.71048
 C    -1.39814    -3.52314    -4.89947
 C    -4.51699    -3.38422    -5.00733
 C    -4.15407    -4.45646    -4.13630
 C    -4.48091    -5.68866    -4.78448
 C    -2.80066    -3.38872    -7.96951
 C    -0.82368    -6.32543    -5.81959
 C    -2.05226    -7.04928    -5.95478
 C    -2.52332    -6.86724    -7.30234
 C    -1.57240    -6.03739    -7.98705
 C    -0.53031    -5.70339    -7.07083
 C    -5.06310    -5.37849    -6.06121
 C    -5.08120    -3.94851    -6.19618
Hf    -2.70793    -4.68517    -6.20304
 H    -0.18398    -6.31660    -4.95369
 H    -4.43085    -6.66464    -4.33050
 H    -2.46925    -7.72784    -5.22913
 H    -3.36401    -7.36724    -7.75149
 H    -1.58644    -5.79459    -9.03593
 H     0.36781    -5.14598    -7.29763
 H    -5.52262    -6.08123    -6.73424
 H    -5.53613    -3.39703    -7.00029
 H    -4.45792    -2.33199    -4.77858
 H    -3.76579    -4.36809    -3.13080
 C    -6.04773     0.96552    -9.28121
 C    -9.17421     1.09003    -9.38487
 C    -8.80725    -0.27931    -9.21482
 C    -9.16639    -0.67634    -7.88850
 C    -7.53383     3.21054    -7.23707
 C    -5.54772    -0.39321    -6.64245
 C    -6.79208    -0.79480    -6.05933
 C    -7.27276     0.29809    -5.25435
 C    -6.31026     1.36105    -5.34456
 C    -5.25297     0.93172    -6.20106
 C    -9.77442     0.45076    -7.23689
 C    -9.77272     1.54537    -8.16615
Hf    -7.40905     1.04783    -7.57708
 H    -4.89953    -1.00905    -7.24165
 H    -9.11988    -1.68293    -7.50647
 H    -7.21394    -1.78521    -6.09547
 H    -8.12714     0.27351    -4.59997
 H    -6.32515     2.27910    -4.78195
 H    -4.34240     1.47399    -6.41474
 H   -10.25971     0.43963    -6.27623
 H   -10.23946     2.50346    -8.01421
 H    -9.09908     1.65474   -10.30039
 H    -8.39761    -0.93391    -9.97152
 C    -4.61302     4.47645    -4.37697
 C    -1.50302     4.34498    -4.30519
 C    -1.86307     5.42206    -5.17037
 C    -1.52903     6.65017    -4.51762
 C    -3.18118     4.36547    -1.32938
 C    -5.17356     7.31279    -3.49665
 C    -3.94429     8.03256    -3.34682
 C    -3.48734     7.84567    -1.99608
 C    -4.44396     7.01126    -1.32406
 C    -5.48020     6.68604    -2.25134
 C    -0.94180     6.33068    -3.24434
 C    -0.93012     4.90007    -3.11676
Hf    -3.30109     5.66021    -3.09589
 H    -5.80522     7.30954    -4.36867
 H    -1.57449     7.62770    -4.96914
 H    -3.51789     8.71220    -4.06620
 H    -2.65054     8.34427    -1.53811
 H    -4.43816     6.76208    -0.27638
 H    -6.38419     6.13339    -2.03587
 H    -0.47354     7.02811    -2.57146
 H    -0.47221     4.33932    -2.32034
 H    -1.56842     3.29434    -4.53844
 H    -2.25344     5.33914    -6.17584
 H     0.40114    -0.61325     0.81553
 H    -0.99201    -0.36010    -0.28476
 H    -0.06198     1.04435     0.32939
 H     2.26934    -2.46213    -2.76811
 H     1.90879    -2.72573    -1.02951
 H     0.58133    -2.70983    -2.21905
 H    -0.39165    -3.47687    -5.32485
 H    -1.37075    -4.00721    -3.91541
 H    -1.80664    -2.51119    -4.79457
 H    -1.79098    -3.23915    -8.36609
 H    -3.42824    -3.88578    -8.71491
 H    -3.22612    -2.41893    -7.69855
 H    -5.04152     1.26702    -8.97768
 H    -6.02970    -0.06213    -9.66426
 H    -6.42044     1.63428   -10.06601
 H    -6.53247     3.60685    -7.03903
 H    -8.17813     3.37845    -6.36954
 H    -7.94989     3.70390    -8.11901
 H    -4.19170     3.47010    -4.48115
 H    -5.61680     4.41802    -3.94806
 H    -4.65624     4.95459    -5.36295
 H    -2.47947     4.81696    -0.62285
 H    -2.82847     3.37427    -1.63083
 H    -4.16799     4.26974    -0.86613
 C     2.60057     5.75476    -2.30256
 C     5.73997     5.64526    -2.21204
 C     5.34746     7.00406    -2.40220
 C     5.68379     7.38287    -3.73999
 C     4.11227     3.45855    -4.26621
 C     2.09773     7.01966    -5.01195
 C     3.34035     7.39422    -5.61743
 C     3.81931     6.26514    -6.37108
 C     2.86239     5.20515    -6.22283
 C     1.80580     5.67319    -5.38551
 C     6.30769     6.25514    -4.37665
 C     6.33499     5.17850    -3.42773
Hf     3.95603     5.63095    -4.00781
 H     1.44892     7.66422    -4.44434
 H     5.61371     8.38108    -4.13989
 H     3.76024     8.38585    -5.63009
 H     4.67213     6.25770    -7.02721
 H     2.87937     4.25869    -6.73619
 H     0.89751     5.13882    -5.14427
 H     6.78355     6.25848    -5.34221
 H     6.81549     4.22567    -3.56684
 H     5.68309     5.09527    -1.28659
 H     4.93532     7.66527    -1.65238
 C     1.15518     2.24585    -7.23315
 C    -1.95789     2.36711    -7.31427
 C    -1.59387     1.28884    -6.45202
 C    -1.92065     0.06134    -7.10851
 C    -0.25696     2.37854   -10.28402
 C     1.73560    -0.56726    -8.16079
 C     0.50962    -1.29553    -8.29551
 C     0.03402    -1.10967    -9.64022
 C     0.97544    -0.26782   -10.32291
 C     2.02040     0.06477    -9.40897
 C    -2.50590     0.38148    -8.38202
 C    -2.52556     1.81271    -8.50533
Hf    -0.15212     1.07034    -8.52659
 H     2.37986    -0.56199    -7.29815
 H    -1.86949    -0.91801    -6.66200
 H     0.09775    -1.97956    -7.57204
 H    -0.80510    -1.61314   -10.08812
 H     0.95416    -0.01568   -11.36936
 H     2.91564     0.62708    -9.63521
 H    -2.96761    -0.31626    -9.05854
 H    -2.98472     2.37205    -9.30159
 H    -1.89803     3.41744    -7.07843
 H    -1.20521     1.37137    -5.44606
 C    -3.47627     6.72315   -11.60355
 C    -6.59376     6.84067   -11.72639
 C    -6.22096     5.47446   -11.54681
 C    -6.58354     5.08310   -10.21997
 C    -4.98228     8.98855    -9.60253
 C    -2.99381     5.38773    -8.92684
 C    -4.24020     5.01058    -8.33226
 C    -4.71299     6.12676    -7.55694
 C    -3.74678     7.18281    -7.68036
 C    -2.69192     6.72396    -8.52537
 C    -7.20165     6.21082    -9.57823
 C    -7.20251     7.29955   -10.51484
Hf    -4.84080     6.81978    -9.90258
 H    -2.35026     4.74989    -9.50758
 H    -6.53344     4.08010    -9.82963
 H    -4.66916     4.02265    -8.34168
 H    -5.56755     6.12433    -6.90230
 H    -3.75743     8.11765    -7.14613
 H    -1.78007     7.25706    -8.75624
 H    -7.69497     6.20046    -8.62177
 H    -7.67400     8.25670   -10.37183
 H    -6.51286     7.40484   -12.64164
 H    -5.80267     4.81797   -12.29716
 C    -2.05010    10.23046    -6.68377
 C     1.05141    10.06621    -6.60104
 C     0.72363    11.16750    -7.44798
 C     1.07148    12.37540    -6.76594
 C    -0.65367    10.08497    -3.61630
 C    -2.58137    13.06488    -5.77961
 C    -1.34391    13.76623    -5.61171
 C    -0.90228    13.55939    -4.25835
 C    -1.87788    12.73387    -3.60378
 C    -2.90872    12.43098    -4.54327
 C     1.63829    12.01927    -5.49381
 C     1.62106    10.58619    -5.39458
Hf    -0.73349    11.38529    -5.38121
 H    -3.20399    13.07897    -6.65788
 H     1.04753    13.36342    -7.19549
 H    -0.90323    14.44783    -6.32027
 H    -0.06239    14.03937    -3.78651
 H    -1.88676    12.47531    -2.55858
 H    -3.82064    11.88650    -4.33972
 H     2.11015    12.69515    -4.80142
 H     2.05968    10.00234    -4.60431
 H     0.96653     9.02241    -6.85738
 H     0.34486    11.11106    -8.45953
 H     2.97467     5.10107    -1.50572
 H     1.59215     5.45096    -2.59324
 H     2.58781     6.78887    -1.93908
 H     4.79553     3.25991    -5.09590
 H     4.49330     3.00836    -3.34504
 H     3.12484     3.04235    -4.48919
 H     2.16807     2.28107    -7.64377
 H     1.16988     1.78591    -6.23773
 H     0.74444     3.26018    -7.15696
 H     0.75207     2.53208   -10.68128
 H    -0.88521     1.89420   -11.03598
 H    -0.68389     3.34456    -9.99984
 H    -2.46815     7.02328   -11.30553
 H    -3.46186     5.69442   -11.98409
 H    -3.85129     7.39119   -12.38871
 H    -3.98240     9.39542    -9.41846
 H    -5.62445     9.17134    -8.73661
 H    -5.40442     9.46313   -10.49210
 H    -1.65972     9.21039    -6.77206
 H    -3.06365    10.20643    -6.27548
 H    -2.05605    10.70150    -7.67400
 H     0.02747    10.54133    -2.89220
 H    -0.29201     9.09424    -3.90623
 H    -1.65322     9.98652    -3.18029
