  288
 
Cu     0.00000     0.00000     0.00000
Si     4.14131    -0.42391     0.20031
 O     5.45598     0.22305    -0.61568
 O     3.37401     0.57387     1.25328
 O     3.05603    -0.97247    -0.82238
Si     5.24696    -2.11883     2.58314
 O     4.63194    -1.70232     1.14809
 O     4.75119    -3.55464     2.99669
 O     4.56463    -1.19403     3.90267
Si     6.43834     0.67193    -1.79989
 O     8.00129     0.29120    -1.79950
 O     5.82470     0.18316    -3.35477
 O     6.30997     2.39190    -1.85372
Si     8.28088    -2.74787     2.10907
 O     6.89621    -1.98932     2.45564
 O     9.19961    -2.22639     5.58237
 O     8.51348    -4.10586     2.70640
Si    -7.86499     1.38139    -1.37502
 O    -9.13967     0.46453    -0.74944
 O    -7.00977     0.41895    -2.38435
 O    -6.82638     1.85837    -0.28273
Si     9.61084     0.79332    -1.58984
 O    -8.44079     2.60601    -2.29632
 O     9.59945     2.38027    -1.58042
 O    -7.86125     2.97198    -4.95815
 O    -0.19538    -0.89316    -1.81159
 H    -0.53965    -0.60656    -2.75273
 H    -0.64795    -1.82082    -1.64109
Cu     2.24186    -4.00486     5.72390
 O     1.30319    -2.42758     5.40371
 H     0.79021    -2.49803     4.51492
 H     0.89555    -1.14730     7.01522
Cu    -9.49472    -1.49012     3.88712
 O    -9.64719    -3.37735     3.40054
 H   -10.09032    -4.06712     3.92869
 H    -7.79082    -3.74250     3.21453
Cu    -3.90781     0.62067    -0.65091
 O    -3.90561     0.60947     1.34012
 H    -3.95276    -0.40224     1.58035
 H    -3.17647     1.04473     1.93373
Cu    -0.10259    -5.87659     8.02392
 O     1.14410    -5.73979     6.41964
 H     1.65795    -6.62030     6.33907
 H     0.43950    -5.80708     5.59725
Cu     4.88305     3.09713    -4.90925
 O     6.21959     4.39007    -4.58925
 H     6.99314     4.11051    -5.21452
 H     6.55655     6.41376    -4.23638
Cu   -10.01775    -3.54658     1.56258
Cu     9.68818     4.19893    -2.11406
Cu     4.37493     0.03017    -4.98546
Cu    -5.38756     2.12235     1.08317
Cu    -6.93688     1.70882    -6.14187
Cu     2.01456     1.09644     2.84303
Cu     4.32515    -5.24061     3.87064
Cu     6.78499     4.36804    -2.77309
Cu     1.79636    -1.50882    -2.25517
Cu    -7.64999     0.70706     3.47563
Cu    -5.66391    -0.33597    -3.65376
Cu     2.80701    -1.32468     5.31266
 O    -6.93749    -3.34482     2.87392
 O    -3.96359     2.50760    -0.60171
 O    -1.02683    -6.75608     6.63355
 O     2.73734    -2.12749    -8.25511
 O    -0.35239    -1.79452     0.55735
 O     3.39906    -2.85343     6.82251
 O     1.11793    -5.20507     9.36206
 O     6.30932     2.51082    -6.13112
 O     0.15178     1.90834    -0.43707
 O     1.04101    -4.56344     4.19313
 O     1.53751     6.35427    -6.51890
 O    -4.03807    -1.31407    -0.12832
 O     8.46219     3.81818    -3.47381
 O     3.56330     1.72458    -5.06961
 O     1.12702    -0.33021     1.59551
 O     4.11338    -4.95130     5.83864
 O    -7.43441    -1.24349     3.94746
 O    -4.70047     1.12742    -2.42295
Si    -5.93797    -4.45300     2.02282
 O    -4.84506    -3.48196     1.23794
 O    -6.50791     1.37675     5.06438
Si     7.15414     1.64252    -7.20784
 O    -5.38386    -5.42228     3.20242
 O     6.60141     0.13352    -7.12663
Si    -3.89398    -2.90464     0.05834
 O    -2.37588    -3.41289     0.18656
 O    -4.52253    -3.52938    -1.47868
Si    -2.03646    -6.68819     5.13741
 O     8.80210     1.67768    -6.82777
 O    10.27737     6.00341    -2.45162
Si     0.07458    -5.22827     3.10142
 O    -1.03267    -6.06880     3.94338
 O     1.27779    -0.31818     6.60146
Si    -0.73627    -3.39329     0.50595
 O    -0.33416    -4.20885     1.92024
 O     0.56573     1.97649     3.82957
 O    -9.69119    -3.86362    -0.27962
 H    -9.53749    -3.08294    -0.83423
 H   -10.69594    -5.11962    -1.44689
 H     2.98595     1.72644    -5.88989
 H     2.55612     2.84843    -3.90106
 O    -6.98742     0.37598    -4.81856
 H    -7.68568     0.71776    -4.11402
 H    -4.56107     0.80374    -6.17982
 H     4.29893    -5.83188     6.31904
 H     4.58007    -4.16925     6.43641
 O     2.74633    -3.11975    -2.06993
 H     3.34336    -3.03199    -1.27023
 H     3.59820    -4.41601    -3.37919
 H    -4.17516     1.93446    -2.78557
 H    -5.63775     1.58405    -2.06338
 O    13.36748     4.09048    -0.55629
 O     0.58298     4.25481     0.68473
 O     1.47847     2.37699    -9.85402
 O    -4.15345    -1.02705    -4.69259
 O     3.04874    -0.30412    -6.41828
 O     4.01484    -7.01075     4.36716
 O    -6.54221     2.05332     2.52612
 O     5.26237     4.51710    -1.55098
 O     1.70113    -0.32488     4.08145
Si    -4.27189     5.65596    -3.66405
 O     3.03896    -3.41372     9.58518
Si    -3.19606     4.02420    -1.13450
 O    -3.58211     4.47855    -2.65680
Si     4.01187    -2.67709     8.48804
 O     5.48933    -3.37412     8.58691
Si    -0.00949     3.45579    -0.79494
 O    -1.55064     3.90176    -0.96077
Si     1.83916    -0.89548    -7.28736
 O     1.01526     3.94688    -1.96123
Si     0.93406     0.88339    -9.83883
 O     1.26196     0.13624    -8.36941
 H     8.48671     2.81702    -3.65731
 H     5.81306     2.73828    -1.05496
 H    -6.41634     2.86652     3.09055
 H    -4.73575     1.64248     3.48843
 H     0.68050    -1.15067     2.07423
 H     2.02326    -0.74071     1.14849
 H     4.43017     4.12556    -1.98711
 H     6.49696     5.28318     0.81432
 H    -6.98427    -1.37421     4.83122
 H    -6.90897    -1.98872     3.26045
 H     4.99998    -0.32220     3.99263
 H     0.97095     0.05403     4.69986
Cu    -0.09328    -5.79113    -4.39205
Si     3.86217    -6.51718    -4.15447
 O     5.01025    -5.74899    -5.00231
 O     3.02663    -5.22668    -3.25257
 O     2.74396    -7.06702    -5.13259
Si     4.96018    -8.22424    -1.63055
 O     4.40585    -7.56529    -3.04408
 O     4.43855    -9.77836    -1.38697
 O     4.21208    -7.52915    -0.36545
Si     6.02525    -5.22582    -6.18448
 O     7.48172    -5.80805    -6.01000
 O     5.36571    -5.95367    -7.69606
 O     5.86227    -3.65999    -6.42302
Si     8.10159    -8.78670    -1.26842
 O     6.59340    -8.19359    -1.49397
 O     8.68661    -8.07415     0.24987
 O     8.03972   -10.33277    -0.86723
Si    -8.30212    -4.93097    -5.29181
 O    -9.40941    -5.91685    -4.50045
 O    -7.22871    -5.75882    -6.16762
 O    -7.40993    -4.16330    -4.15630
Si     9.15133    -5.82391    -5.70270
 O    -9.11716    -3.90992    -6.30656
 O     9.63609    -4.30566    -5.88830
 O    -8.62790    -4.19647    -8.93869
 O     0.21515    -6.09906    -6.23847
 H     0.52445    -5.20505    -6.61566
 H    -0.80414    -7.24319    -7.58523
Cu     2.16041    -9.69609     1.18344
 O     1.92222    -8.25106     0.03011
 H     2.46206    -8.45865    -0.85835
 H     1.63498    -6.88181     3.16618
Cu    -9.06904    -8.23566    -0.20553
 O   -10.46123    -9.49385    -0.30367
 H   -11.17344    -9.10436     0.33422
 H   -11.09203   -11.51510    -0.49304
Cu    -4.37286    -5.36253    -5.13774
 O    -4.75499    -5.16064    -3.28556
 H    -5.04242    -6.05276    -2.92648
 H    -3.84046    -4.19822    -1.80456
Cu    -0.41170   -11.63071     3.81207
 O    -0.21494   -13.47500     2.94073
 H     0.69255   -14.10324     2.61795
 H    -0.75846   -13.42407     2.05853
Cu     4.41540    -2.76904    -9.22022
 O     5.02085    -0.95048    -8.47154
 H     5.62627    -0.20400    -8.85040
 H     4.20532    -0.42883    -8.05092
Cu   -10.89879    -9.58640    -2.11541
Cu     9.93473    -2.50293    -6.33621
Cu     4.06146    -5.95947    -9.38103
Cu    -5.96979    -3.74771    -2.99779
Cu    -7.24141    -4.89457    -9.99966
Cu     1.41428    -4.48561    -2.11311
Cu     4.04841   -11.41334    -0.55512
Cu     6.06544    -1.72337    -6.78012
Cu     1.38619    -7.53932    -6.42959
Cu    -8.48601    -5.32338    -0.32678
Cu    -5.95048    -6.28496    -7.49125
Cu     2.88404    -7.01738     1.00976
 O    -7.58260    -8.81994    -1.69294
 O    -3.82325    -3.44552    -5.83370
 O    -1.85276   -11.65214     2.29136
 O     2.46687    -8.42041   -12.32559
 O    -0.43260    -7.73200    -3.61399
 O     3.29296    -8.67512     2.48473
 O     0.91351   -10.83786     4.99874
 O     5.76373    -3.38371   -10.48387
 O    -0.02706    -3.95299    -5.06511
 O     0.93321   -10.48340    -0.13183
 O     1.75186     0.07017   -10.96779
 O    -4.24165    -7.30013    -4.70204
 O    10.81956    -2.50406    -7.98639
 O     3.60360    -4.32353    -8.54896
 O     0.03379    -5.69155    -2.49394
 O     4.17991   -10.21184     0.96119
 O    -7.65865    -6.97864    -0.32258
 O    -4.34379    -5.43534    -7.01208
Si    -6.42145    -9.93321    -2.39640
 O    -5.14291    -9.14472    -3.07487
 O    -6.96607    -5.08775     1.01648
Si     6.67278    -3.89520   -11.67283
 O    -5.94505   -10.84589    -1.11865
 O     6.25930    -5.58083   -11.88310
Si    -4.13007    -8.80230    -4.32079
 O    -2.59986    -9.34177    -4.10468
 O    -4.84474    -9.78446    -5.64930
Si    -2.53392   -12.16639     0.74064
 O     8.30457    -3.82603   -11.37286
 O    10.13486    -0.64751    -6.83789
Si    -0.13683   -11.08979    -1.11246
 O    -1.38593   -11.77664    -0.34486
 O     1.29236    -6.34173     2.39203
Si    -1.00859    -9.39679    -3.70299
 O    -0.69468   -10.06204    -2.25597
 O     0.07600    -3.97786    -0.72123
 O   -11.33843    -9.92300    -3.96464
 H   -10.96814    -9.18781    -4.54402
 H   -10.95000   -10.88277    -4.31073
 H     2.04995    -2.83311    -8.43694
 H     3.88901    -4.37438    -7.56761
 O    -7.01012    -6.74532    -9.26141
 H    -7.79614    -7.39209    -9.31460
 H    -6.25155    -7.20893    -9.85948
 H     4.70086   -10.38626     1.83539
 H     4.64982    -9.29709     0.56778
 O     1.71665    -9.49249    -7.03002
 H     2.63512    -9.99373    -7.46443
 H     1.03797    -9.60617    -7.82585
 H    -3.59038    -5.95351    -7.45169
 H    -4.08065    -3.51618    -6.81174
 O    13.46037    -1.48355    -4.89085
 O     0.59764    -1.79092    -3.77708
 O     0.77326    -3.79637   -13.36945
 O    -4.61527    -7.15638    -8.67903
 O     2.48158    -6.53109   -10.54509
 O     3.54794   -13.18632    -0.03137
 O    -6.29879    -1.84872    -2.26744
 O     5.47662    -1.51623    -5.01034
 O     3.40527    -5.26658     2.04971
Si    -4.28401    -0.10202    -8.15813
 O     3.09523    -9.32516     5.11150
Si    -3.20604    -1.79173    -5.70531
 O    -3.50404    -1.16269    -7.19818
Si     4.07871    -8.62350     3.99793
 O     5.57545    -9.24821     3.92750
Si    -0.07439    -2.34957    -5.14311
 O    -1.65743    -1.83486    -5.27511
Si     1.44044    -7.27557   -11.44444
 O     0.76452    -1.74903    -6.46019
Si     0.16334    -5.42305   -13.78958
 O     0.63975    -6.35241   -12.52375
 H    11.33353    -1.59704    -8.02074
 H     9.72280    -3.38137    -9.32231
 H    -7.24336    -1.48068    -2.05099
 H    -5.77515    -1.76724    -1.37289
 H    -0.76320    -5.44355    -1.94446
 H    -0.02502    -7.63315    -2.69346
 H     5.10727    -2.37971    -4.66977
 H     6.56233    -0.31657    -3.83541
 H    -6.93971    -7.00515     0.37441
 H    -7.58321    -7.98214    -2.23338
 H     3.89795    -4.51588     1.52669
 H     2.44268    -4.87408     2.27723
