  184
 
 C     0.00000     0.00000     0.00000
 C     4.78601     0.06209    -0.28339
 C     6.07439     0.59368    -0.34898
 C     7.18612    -0.25521    -0.39108
 C     7.00374    -1.64145    -0.36978
 C     5.71721    -2.18274    -0.30729
 C     1.62362    -1.79950    -3.35871
 C     2.68293    -2.76581    -3.47276
 C     2.18826    -4.02133    -3.00322
 C     0.79963    -3.83765    -2.62300
 C     0.44890    -2.47359    -2.88070
 C    -0.77588     1.01915     0.55896
 C     1.08638    -4.57454     1.78768
 C     1.78319    -5.34587     0.79087
 C     3.19947    -5.25012     1.06202
 C     3.36910    -4.38750     2.18982
 C     2.06957    -3.96437     2.63297
 C    -0.46084     1.53899     1.81772
 C     0.63877     1.03590     2.52153
 C     1.41945     0.01820     1.97145
 C     1.10677    -0.51018     0.70189
 C     1.94836    -1.54570     0.13850
 C     3.25147    -1.86451    -0.18216
 C     4.59449    -1.33550    -0.26078
Ni     2.02241    -2.62292    -1.42734
Ni     2.35301    -3.35398     0.58255
 C     5.30337    -0.54249     8.92567
 C     9.64549     1.10953     7.54565
 C    10.98686     1.48341     7.63629
 C    11.69988     1.82563     6.48210
 C    11.06517     1.79983     5.23615
 C     9.72217     1.42845     5.13660
 C     7.13620    -2.84165     5.98059
 C     7.74753    -2.43620     4.74211
 C     6.71093    -2.01230     3.85567
 C     5.44241    -2.18871     4.53854
 C     5.71121    -2.73389     5.83425
 C     4.81180    -0.44143    10.22972
 C     4.13799     2.03901     4.76998
 C     4.80916     1.47869     3.62548
 C     6.01152     2.24276     3.39299
 C     6.10105     3.23628     4.41851
 C     4.95215     3.10588     5.27160
 C     4.93209     0.75774    10.93813
 C     5.54963     1.86090    10.33903
 C     6.04803     1.76767     9.03865
 C     5.92922     0.56135     8.31829
 C     6.47432     0.47975     6.97940
 C     7.60748     0.69602     6.22436
 C     9.00019     1.07711     6.29198
Ni     6.62469    -0.80588     5.58599
Ni     6.05328     1.25539     5.28700
 C    -1.72327     6.76893    -5.46245
 C    -5.80326     4.16844    -5.38219
 C    -7.17040     3.88938    -5.36711
 C    -7.62093     2.56974    -5.48167
 C    -6.69851     1.52732    -5.61516
 C    -5.32809     1.79789    -5.63692
 C    -2.25174     4.33130    -8.77359
 C    -2.60940     2.94059    -8.85346
 C    -1.49232     2.17028    -8.40756
 C    -0.42031     3.09193    -8.07779
 C    -0.88503     4.42032    -8.34018
 C    -1.60683     8.05740    -4.93416
 C    -0.09036     2.35620    -3.66821
 C    -0.29268     1.32422    -4.65221
 C    -1.52436     0.63945    -4.33421
 C    -2.09615     1.28087    -3.19137
 C    -1.21928     2.34555    -2.78703
 C    -2.12588     8.35130    -3.66945
 C    -2.76995     7.35136    -2.93282
 C    -2.89568     6.06328    -3.45587
 C    -2.37039     5.75859    -4.72817
 C    -2.52946     4.42014    -5.25920
 C    -3.45528     3.43392    -5.52628
 C    -4.86672     3.12224    -5.51850
Ni    -2.06660     3.45523    -6.83149
Ni    -1.85741     2.68978    -4.81813
 C     3.58440     6.20980     3.46180
 C    -0.95879     5.24835     2.29245
 C    -2.27412     4.81857     2.46956
 C    -3.11400     4.65325     1.36253
 C    -2.63635     4.93301     0.07868
 C    -1.32202     5.36994    -0.10750
 C     3.21900     3.27551     0.56188
 C     2.44320     3.25763    -0.64862
 C     3.04829     4.16292    -1.57418
 C     4.23103     4.72015    -0.94324
 C     4.34937     4.13979     0.35930
 C     3.97789     6.57233     4.75281
 C     2.96676     9.00800    -0.71701
 C     2.69072     8.14973    -1.84054
 C     1.25883     8.10047    -2.02451
 C     0.66043     8.88584    -0.99064
 C     1.71033     9.43818    -0.17923
 C     3.25039     7.52483     5.47225
 C     2.12104     8.11731     4.89691
 C     1.71976     7.76052     3.60885
 C     2.45017     6.80135     2.87711
 C     1.99687     6.42620     1.55403
 C     0.90014     5.97273     0.84925
 C    -0.46707     5.52564     0.99886
Ni     2.52181     5.25320     0.15345
Ni     1.84725     7.28703    -0.14182
 H    -0.24556    -0.38556    -0.99092
 H     3.92379     0.73401    -0.25172
 H     6.20553     1.67740    -0.36555
 H     8.18944     0.16362    -0.43821
 H     7.86672    -2.30545    -0.40071
 H     5.57944    -3.26356    -0.28905
 H     1.66932    -0.77027    -3.66963
 H     3.66349    -2.57694    -3.87208
 H     2.71389    -4.95781    -3.01163
 H     0.12910    -4.61949    -2.31538
 H    -0.52805    -2.03548    -2.78304
 H    -1.62617     1.41424     0.00228
 H     0.02138    -4.51766     1.91225
 H     1.32823    -5.98611     0.05544
 H     3.97406    -5.79403     0.55498
 H     4.30381    -4.14660     2.66747
 H     1.86846    -3.34927     3.48985
 H    -1.06431     2.34119     2.24396
 H     0.89216     1.44454     3.49915
 H     2.27658    -0.36898     2.51971
 H     5.20872    -1.48368     8.38271
 H     9.09090     0.84620     8.44597
 H    11.47268     1.51972     8.61522
 H    12.74667     2.11557     6.55553
 H    11.61888     2.07204     4.33825
 H     9.22855     1.41346     4.16573
 H     7.64791    -3.24976     6.83322
 H     8.79729    -2.47587     4.51669
 H     6.82933    -1.71027     2.82986
 H     4.47243    -2.04194     4.09879
 H     4.97903    -3.05793     6.55286
 H     4.33485    -1.30592    10.69229
 H     3.17365     1.74985     5.14252
 H     4.42320     0.71233     2.97579
 H     6.67249     2.12830     2.55421
 H     6.86521     3.98650     4.50463
 H     4.70869     3.74462     6.10035
 H     4.54970     0.83602    11.95532
 H     5.64456     2.79521    10.89249
 H     6.53177     2.62666     8.57592
 H    -1.31862     6.55287    -6.45224
 H    -5.45281     5.19631    -5.28795
 H    -7.89315     4.70208    -5.26514
 H    -8.68940     2.35845    -5.46322
 H    -7.04713     0.49837    -5.70145
 H    -4.61219     0.98331    -5.74153
 H    -2.86599     5.15728    -9.08328
 H    -3.54420     2.55413    -9.21741
 H    -1.41673     1.09849    -8.40351
 H     0.57930     2.81124    -7.79867
 H    -0.30401     5.32342    -8.27587
 H    -1.10904     8.83397    -5.51869
 H     0.78111     2.97676    -3.57355
 H     0.41106     1.02688    -5.41015
 H    -1.89608    -0.24126    -4.82361
 H    -2.99673     0.98443    -2.68592
 H    -1.35084     2.97637    -1.92618
 H    -2.02818     9.35508    -3.25821
 H    -3.17721     7.57821    -1.94757
 H    -3.40285     5.28850    -2.88401
 H     4.15020     5.45247     2.91649
 H    -0.30701     5.37753     3.15729
 H    -2.64802     4.62551     3.47867
 H    -4.13885     4.31396     1.50313
 H    -3.29255     4.81353    -0.78124
 H    -0.95798     5.59700    -1.11007
 H     3.03901     2.67248     1.43617
 H     1.57957     2.64042    -0.83152
 H     2.74806     4.33135    -2.59166
 H     4.94570     5.36566    -1.42038
 H     5.15918     4.28363     1.05169
 H     4.85399     6.10060     5.19779
 H     3.93885     9.31696    -0.38182
 H     3.42268     7.72782    -2.50680
 H     0.74327     7.62376    -2.83830
 H    -0.39021     9.07641    -0.87214
 H     1.57664    10.11302     0.64526
 H     3.55371     7.80225     6.48137
 H     1.55015     8.85651     5.45945
 H     0.83782     8.22001     3.16503
