  144
 
Se     0.00000     0.00000     0.00000
Cl     3.51328     0.00000     0.00000
Cl    -1.00298     5.45057     0.00000
Cl    -0.09860     2.64423    -3.73461
Cl    -0.02112    -3.17200     0.30068
Cl    -4.64507     1.51894    -7.72706
Cl    -4.56759    -4.29729    -3.69177
Cl    -1.03319    -1.12529    -3.99246
Cl    -5.54981     4.32616    -3.99277
 C    -4.90323    -1.52314    -5.33248
 N    -3.68684    -1.40550    -5.82013
 N    -5.93416    -1.81205    -6.07424
Se    -5.15214    -1.17506    -3.44193
Se    -5.57150     1.15368    -3.69276
 C    -3.70499     1.67559    -3.72503
 N    -3.09993     1.70763    -4.89299
 N    -3.08917     1.93040    -2.60595
 C    -4.98071     4.29310    -9.36777
 N    -3.76432     4.41073    -9.85542
 N    -6.01164     4.00418   -10.10953
Se    -5.22962     4.64117    -7.47722
Se    -5.64898     6.96991    -7.72805
 C    -3.78247     7.49182    -7.76032
 N    -3.17741     7.52387    -8.92828
 N    -3.16665     7.74663    -6.64124
 C    -0.66791     2.67594     1.64004
 N    -1.88430     2.55830     2.12769
 N     0.36266     2.96574     2.38149
Se    -0.41843     2.32834    -0.24984
 C    -1.86594    -0.52144     0.03294
 N    -2.47064    -0.55436     1.20122
 N    -2.48140    -0.77712    -1.08582
 C    -0.74539     8.49217    -2.39526
 N    -1.96178     8.37453    -1.90760
 N     0.28518     8.78197    -1.65381
Se    -0.49591     8.14457    -4.28514
Se    -0.07748     5.81623    -4.03529
 C    -1.94342     5.29479    -4.00235
 N    -2.54812     5.26187    -2.83407
 N    -2.55888     5.03911    -5.12111
 H    -3.01152    -1.41795    -5.05581
 H    -3.49782    -2.18234    -6.45353
 H    -6.72362    -2.05939    -5.47760
 H    -5.70651    -2.59983    -6.68086
 H    -2.11415     1.47548    -4.77160
 H    -3.53416     1.03000    -5.51961
 H    -3.69398     1.68618    -1.82175
 H    -2.23104     1.38117    -2.55741
 H    -3.08900     4.39828    -9.09110
 H    -3.57530     3.63389   -10.48882
 H    -6.80110     3.75684    -9.51290
 H    -5.78399     3.21640   -10.71615
 H    -2.19163     7.29171    -8.80689
 H    -3.61164     6.84623    -9.55490
 H    -3.77146     7.50241    -5.85704
 H    -2.30852     7.19740    -6.59270
 H    -1.83759     2.48506     3.14399
 H    -2.32396     1.72067     1.74629
 H     0.11155     2.86926     3.36538
 H     1.12901     2.32934     2.16219
 H    -1.79685    -0.80132     1.92607
 H    -3.21612    -1.25017     1.17868
 H    -3.40734    -1.15526    -0.88567
 H    -1.94414    -1.45901    -1.62134
 H    -1.91507     8.30129    -0.89131
 H    -2.40144     7.53690    -2.28900
 H     0.03407     8.68549    -0.66992
 H     1.05153     8.14557    -1.87310
 H    -1.87432     5.01491    -2.10922
 H    -3.29360     4.56606    -2.85662
 H    -3.48481     4.66097    -4.92097
 H    -2.02162     4.35722    -5.65663
Se    -4.43914    -0.36479     4.03498
Cl    -0.92586    -0.36479     4.03498
Cl    -5.44212     5.08578     4.03498
Cl    -4.53774     2.27945     0.30037
Cl    -4.46026    -3.53679     4.33566
Cl    -9.08421     1.15416    -3.69208
Cl    -9.00673    -4.66208     0.34321
Cl    -5.47233    -1.49007     0.04252
Cl    -9.98895     3.96137     0.04221
 C    -9.34238    -1.88792    -1.29750
 N    -8.12598    -1.77029    -1.78515
 N   -10.37330    -2.17684    -2.03926
Se    -9.59129    -1.53984     0.59305
Se   -10.01064     0.78890     0.34222
 C    -8.14413     1.31081     0.30995
 N    -7.53907     1.34285    -0.85801
 N    -7.52831     1.56561     1.42903
 C    -9.41985     3.92831    -5.33279
 N    -8.20346     4.04595    -5.82045
 N   -10.45078     3.63939    -6.07456
Se    -9.66877     4.27639    -3.44224
Se   -10.08812     6.60513    -3.69307
 C    -8.22161     7.12704    -3.72534
 N    -7.61655     7.15908    -4.89330
 N    -7.60579     7.38185    -2.60626
 C    -5.10705     2.31115     5.67502
 N    -6.32344     2.19352     6.16267
 N    -4.07649     2.60095     6.41647
Se    -4.85757     1.96355     3.78514
 C    -6.30508    -0.88622     4.06792
 N    -6.90978    -0.91914     5.23620
 N    -6.92054    -1.14191     2.94916
 C    -5.18453     8.12738     1.63972
 N    -6.40092     8.00975     2.12738
 N    -4.15396     8.41718     2.38117
Se    -4.93505     7.77978    -0.25016
Se    -4.51662     5.45145    -0.00031
 C    -6.38256     4.93001     0.03263
 N    -6.98726     4.89709     1.20091
 N    -6.99802     4.67432    -1.08613
 H    -7.45067    -1.78274    -1.02083
 H    -7.93696    -2.54713    -2.41855
 H   -11.16276    -2.42418    -1.44262
 H   -10.14566    -2.96462    -2.64588
 H    -6.55329     1.11069    -0.73662
 H    -7.97330     0.66521    -1.48463
 H    -8.13312     1.32139     2.21323
 H    -6.67018     1.01638     1.47757
 H    -7.52814     4.03349    -5.05612
 H    -8.01444     3.26910    -6.45384
 H   -11.24024     3.39205    -5.47792
 H   -10.22314     2.85161    -6.68117
 H    -6.63077     6.92692    -4.77191
 H    -8.05078     6.48144    -5.51992
 H    -8.21060     7.13763    -1.82206
 H    -6.74766     6.83261    -2.55772
 H    -6.27673     2.12028     7.17897
 H    -6.76310     1.35588     5.78127
 H    -4.32759     2.50447     7.40036
 H    -3.31013     1.96455     6.19717
 H    -6.23599    -1.16611     5.96105
 H    -7.65526    -1.61496     5.21366
 H    -7.84648    -1.52004     3.14930
 H    -6.38329    -1.82380     2.41364
 H    -6.35421     7.93651     3.14367
 H    -6.84058     7.17211     1.74598
 H    -4.40507     8.32070     3.36506
 H    -3.38761     7.78078     2.16188
 H    -6.31347     4.65012     1.92576
 H    -7.73274     4.20128     1.17836
 H    -7.92396     4.29619    -0.88599
 H    -6.46076     3.99243    -1.62165
