   64
 
Se     0.00000     0.00000     0.00000
Se    -1.68721    -1.92475    -0.17676
Se    -8.20948     0.45214    -1.24370
Se    -8.25717     2.91626    -1.97590
Se    -1.90354    -2.54025     2.23607
Se    -3.58883    -4.46795     2.05870
Se    -8.58575    -3.11767    -2.70911
Se    -8.63698    -0.65277    -3.44364
Br     2.01653    -0.39834     0.92373
Br    -3.66918    -1.46793    -1.14153
Br    -6.36474    -0.38675    -0.25679
Br   -10.12766     3.67132    -2.97717
Br     0.11407    -2.92957     3.16104
Br    -5.57444    -4.00768     1.10122
Br    -6.74398    -3.95096    -1.71229
Br   -10.50806     0.10205    -4.44314
Se     2.29355     6.11593    -0.77000
Se     0.60909     4.18956    -0.94559
Se    -5.91616     6.56280    -2.01527
Se    -5.96340     9.02839    -2.74836
Se     0.39062     3.57384     1.46692
Se    -1.30213     1.65117     1.28884
Se    -6.30179     2.99598    -3.47643
Se    -6.34402     5.45665    -4.21516
Br     4.30770     5.72431     0.16138
Br    -1.37845     4.64539    -1.90010
Br    -4.07531     5.72622    -1.01989
Br    -7.83885     9.78428    -3.73858
Br     2.40642     3.17951     2.39253
Br    -3.28295     2.11192     0.32244
Br    -4.45529     2.16017    -2.49155
Br    -8.21343     6.21697    -5.21312
Se     1.53269    -1.02729    -3.69648
Se    -0.15445    -2.95193    -3.87318
Se    -6.67938    -0.57362    -4.94119
Se    -6.72449     1.89012    -5.67642
Se    -0.37786    -3.57206    -1.46330
Se    -2.06180    -5.49808    -1.63922
Se    -7.05300    -4.15157    -6.40785
Se    -7.10531    -1.68610    -7.13703
Br     3.54682    -1.42906    -2.77053
Br    -2.13562    -2.49573    -4.83924
Br    -4.84025    -1.42101    -3.95044
Br    -8.59496     2.64485    -6.67712
Br     1.63723    -3.97121    -0.53830
Br    -4.04865    -5.04645    -2.59562
Br    -5.21260    -4.99128    -5.41359
Br    -8.97884    -0.93711    -8.13456
Se     3.82667     5.09013    -4.46584
Se     2.14091     3.16335    -4.64289
Se    -4.38625     5.53820    -5.71149
Se    -4.43211     8.00287    -6.44711
Se     1.91736     2.54205    -2.23352
Se     0.22542     0.62126    -2.40887
Se    -4.76722     1.96331    -7.17382
Se    -4.81215     4.42674    -7.90847
Br     5.84102     4.69758    -3.53539
Br     0.15641     3.61911    -5.60450
Br    -2.54434     4.69806    -4.71983
Br    -6.30887     8.75477    -7.43838
Br     3.93206     2.14212    -1.30760
Br    -1.75519     1.07824    -3.37602
Br    -2.92850     1.11224    -6.18727
Br    -6.68401     5.17973    -8.90733
