   72
 
Si     0.00000     0.00000     0.00000
Si    -7.31861     3.61843     0.35564
Si    -4.41322     5.71938     2.05160
 O    -3.04738     0.22702    -0.60384
 O    -8.13108     2.24413     0.02665
 O     1.59193    -0.20993     0.28056
 O    -5.62330     6.13943     1.04348
Si    -3.64846     1.48227     0.24826
Si    -8.15188     0.64668     0.35943
Si     2.86119    -1.14994    -0.12980
Si    -6.27068     7.42163     0.26896
 H    -2.56559    -1.77131    -1.31976
 H    -8.31032     4.40894     0.16611
 H    -0.01578     1.25718     0.25213
 H    -4.31813     4.50584     1.64837
 H    -6.84221     6.91631    -0.99014
 H     4.06090    -0.29896    -0.06757
 H    -9.55947     0.21824     0.31012
 H    -2.86904     1.56506     1.49443
 H    -4.81078    -1.14891    -1.52529
 H    -6.67778     3.44943     1.53893
 H    -0.28608    -0.55203    -1.20533
 H    -3.43519     6.65216     1.93854
 H    -0.49795    -0.49376     1.04700
 H    -5.03608     5.59640     3.14012
 H    -3.02673    -0.46542    -2.73825
 H    -6.64906     3.76343    -0.70202
 H    -4.88643     1.43422     0.26746
 H    -7.44138     0.40449     1.34521
 H     2.59530    -1.81141    -1.14321
 H    -5.47733     8.37334     0.27738
 H    -7.36994     0.10254    -0.39934
 H    -3.64864     2.45658    -0.48248
 H    -7.02419     7.97918     1.04652
 H     2.83295    -2.13766     0.58214
Si    -3.47800    -0.93716    -1.66039
Si     2.09811     1.15451    -3.99758
Si    -5.22050     4.77293    -3.64194
Si    -2.31511     6.87389    -1.94598
 O    -0.94927     1.38153    -4.60142
 O    -6.03297     3.39864    -3.97094
 O     3.69004     0.94458    -3.71702
 O    -3.52519     7.29394    -2.95410
Si    -1.55035     2.63678    -3.74933
Si    -6.05377     1.80119    -3.63815
Si     4.95930     0.00457    -4.12738
Si    -4.17257     8.57614    -3.72862
 H    -0.46748    -0.61680    -5.31734
 H    -6.21221     5.56345    -3.83147
 H     2.08233     2.41169    -3.74545
 H    -2.22002     5.66034    -2.34921
 H    -4.74410     8.07082    -4.98772
 H     6.15901     0.85555    -4.06515
 H    -7.46137     1.37274    -3.68746
 H    -0.77093     2.71957    -2.50315
 H    -2.71267     0.00560    -5.52287
 H    -4.57967     4.60393    -2.45865
 H     1.81203     0.60248    -5.20292
 H    -1.33708     7.80667    -2.05904
 H     1.60016     0.66074    -2.95059
 H    -2.93797     6.75091    -0.85746
 H    -0.92862     0.68909    -6.73583
 H    -4.55095     4.91793    -4.69960
 H    -2.78832     2.58873    -3.73012
 H    -5.34327     1.55900    -2.65237
 H     4.69341    -0.65690    -5.14079
 H    -3.37922     9.52785    -3.72020
 H    -5.27183     1.25705    -4.39692
 H    -1.55053     3.61109    -4.48006
 H    -4.92608     9.13369    -2.95106
 H     4.93106    -0.98315    -3.41544
Si    -1.37989     0.21735    -5.65797
