   56
 
 W     0.00000     0.00000     0.00000
 O    -2.78948     0.46918    -2.48023
 O    -1.12504    -2.59530    -2.48023
 O     0.81723     0.44387     3.64528
 O    -3.86785    -2.10078     2.54106
 O     2.99003    -4.03479     0.78145
 O    -1.75670     4.70467     0.78145
 O     2.63451     1.43090    -4.10394
 O     4.06841    -1.46484    -4.23984
 O     3.54400     0.23459    -1.24011
 O    -2.09617     0.55178     3.07482
 O     1.78836    -2.70322    -1.90978
 O     2.46562    -2.33537     3.78118
 O    -3.34344    -3.80020    -0.45866
 O    -0.78557     1.55758    -4.77360
 O     1.66338     4.57799     1.45111
 O     0.98612     4.21014    -4.23984
 O     0.46171     5.90956    -1.24012
 O     2.12614     2.84508    -1.24011
 O    -1.29393     2.97176    -1.90978
 O    -0.61667     3.33961     3.78118
 O     0.87887    -1.50691    -4.77360
 O    -5.00788    -0.73572    -0.45866
 O     4.74567    -1.09699     1.45111
 O    -1.12503    -0.61105     5.63015
 O     0.29281    -5.20579    -2.48023
 O    -4.20733     3.07967    -2.48023
 O    -0.32281    -0.17533    -7.46483
 O     0.35446     0.19252    -1.77387
 O    -0.09226     1.64018     0.78145
 O     1.32560    -0.97031     0.78145
 O    -1.58780    -0.86240     0.21100
Na    -3.06646    -1.66551    -1.46945
Na     2.78145    -0.32656     2.54820
Na     1.24031     2.51093     2.54820
Na    -0.95530    -0.51886    -3.62692
Na     3.26702    -1.90010    -0.22933
Na    -3.55203    -0.09197     1.30808
Na     2.21143    -0.63616    -3.00686
Na    -1.92643     2.62822     1.92814
Na     0.18472     3.77487    -0.22933
Na     0.67029     2.20133    -3.00686
Na    -2.01088    -2.92945     1.30808
Na     1.15586    -3.04675     1.92814
Na     1.15585     0.62779    -5.78439
Na    -0.30084     5.34841     2.54819
Na     4.32260    -3.16405     2.54819
Na    -5.17762    -2.81216     0.68802
 W    -1.91061    -1.03772    -7.25385
 W     4.22231     2.29330    -4.31494
 W    -2.88173     2.10936    -1.69879
 W    -2.11116     2.52789    -5.55505
 W     0.20056    -3.56561    -1.69879
 W     0.97113    -3.14709    -5.55505
 W    -0.77057    -0.41853     3.85626
 O    -2.26507    -1.23024    -5.47996
