  258
 
 W     0.00000     0.00000     0.00000
 W    -8.90919     1.02716    -6.55074
 W    -9.37650     5.10643    -6.46237
 W   -12.98641     0.18208    -3.60235
 W    -8.16417     2.91547    -3.51099
 W   -14.13497     2.07683    -6.75904
 W   -12.11888     7.38499    -4.92621
 W   -10.09514    -2.24934    -4.89872
 W   -12.77597     5.34353    -8.32512
 W    -9.80894     0.05587    -1.38739
 W   -10.52024     5.74839    -1.72921
 W   -11.83341    -0.84941    -8.22494
 W     1.97532    -3.19916    -0.83573
 W    -3.14790    -3.40757    -8.10832
 W    -2.69558    -7.26883    -8.25509
 W    -1.24151    -5.48768    -1.06647
 W    -0.88777     0.06827    -7.57334
 W    -3.64741    -4.32786    -4.21676
 W     1.31927    -1.71788    -4.50418
 W    -2.83142    -2.25970    -1.68639
 W     0.47772    -3.73004    -6.49706
 W    -0.92115    -7.04300    -4.91531
 W    -1.53728     0.89189    -3.57678
 O    -6.62881     3.44948    -2.83619
 O   -15.79495     1.86960    -7.30741
 O   -10.94756     4.83191    -7.56363
 O   -11.58693     0.19331    -2.09644
 H   -11.33566     2.38282    -2.94720
 H   -10.74799     2.33847    -4.85639
 O    -8.57373     4.30554    -4.82506
 O   -13.68662     0.78611    -5.39402
 O    -7.44422     1.62290    -4.94692
 O   -14.23505     3.32012    -5.25772
 O   -12.97950     5.52875    -4.52521
 O    -9.12635    -0.52069    -5.47344
 O   -11.92216     4.45918    -2.38810
 O   -10.50726     0.57870    -7.52724
 O    -9.49973     3.84214    -2.08882
 O   -12.93845     1.00618    -8.17087
 H    -9.69048     3.23477    -1.29391
 H   -12.90483     1.49877    -9.05255
 O   -10.40161     6.27902    -5.41200
 O   -11.77207    -0.97029    -4.46919
 O   -14.91025     4.56854    -2.60694
 O    -7.59004     0.60382    -7.67238
 O    -9.78999     2.07033    -4.87376
 O   -12.01307     2.29201    -3.67006
 O    -9.05947     3.08162    -7.25295
 O   -13.97718     1.94840    -2.66966
 H    -8.81507     3.11851    -8.24571
 H   -14.78227     1.85056    -2.08378
 O   -12.46327     7.05823    -7.07757
 O    -9.55576    -1.52317    -2.92330
 H   -12.61756     7.98033    -7.53902
 H    -9.26795    -2.36878    -2.41402
 O   -11.70010     7.18336    -2.74594
 O   -10.69756    -2.18524    -7.00629
 H   -12.34952     7.76280    -2.25220
 H   -10.10709    -2.87227    -7.53956
 O    -8.15733     6.03022    -7.33608
 O   -14.25794    -0.87712    -2.95551
 O    -9.04146     6.61272    -2.16122
 O   -13.29570    -1.74142    -7.79955
 O   -13.26295     3.50458    -7.77785
 O    -8.75419     1.34845    -2.35566
 H   -16.17702     4.57904    -6.01231
 H    -6.53649     1.18427    -4.98155
 O   -10.86367     5.85291    -0.00494
 O   -11.34472    -1.09587    -9.89344
 O   -13.74101     8.14120    -4.76164
 O    -8.55794    -3.14211    -5.17918
 O   -14.50167     5.92462    -8.25501
 O    -9.01135    -1.12277    -0.33637
 O   -12.28334     5.46828   -10.01833
 O   -10.33056     1.32923    -0.10419
 O   -11.15860     8.90605    -5.00841
 O   -11.12863    -3.64524    -4.40648
 O     3.72337    -3.12092    -1.21169
 O    -4.93776    -3.08138    -8.24923
 O     1.96150    -4.15038     0.70399
 O    -2.60620    -3.27360    -9.81503
 O     1.08664    -1.67970    -0.12181
 O    -3.12166    -5.45244    -8.17576
 H     3.10931     0.17718     0.86261
 H    -6.28476    -4.12106    -7.22261
 O     1.43751     1.04583    -0.20413
 O    -4.21397    -8.17740    -8.12312
 O    -1.67012    -8.57502    -4.13792
 O    -0.18711     2.19337    -3.78320
 O     0.63554    -4.58014    -1.78623
 O    -2.56692    -1.34671    -7.60097
 H     0.75469    -4.64237    -2.78040
 H    -3.41521    -0.78478    -7.71655
 O     0.81344    -7.83385    -4.91495
 O    -2.92842     2.03064    -3.53062
 O    -0.67134     0.32334     1.60991
 O    -1.66840    -7.62530    -9.64183
 O    -1.96808    -3.75898    -0.22217
 O    -0.12643    -0.68353    -9.09337
 H    -1.77928    -3.44041     0.74551
 H     0.22228    -1.08402    -9.87453
 O    -2.77858    -6.53067    -0.99403
 O     0.60693     1.11467    -7.13783
 H    -3.54514    -7.10964    -0.98108
 H     1.42791     1.51731    -6.98128
 O    -5.15247    -5.19740    -3.83111
 O     2.76186    -0.73975    -4.81390
 O    -4.27283    -2.07048    -0.65960
 O     1.47203    -4.07867    -7.93723
 O    -3.93890    -2.58423    -3.39848
 O     1.85220    -3.54852    -5.10475
 O    -2.48161    -0.67516    -2.85430
 O     0.05279    -5.41526    -5.56986
 O    -0.47100    -6.58253    -2.75099
 O    -1.86558     0.51160    -5.64452
 H     0.20159    -7.30753    -2.39500
 H    -2.82218     0.91062    -5.89304
 O    -3.57403    -3.69538    -5.96006
 O     1.51112    -2.52741    -2.76078
 O    -2.38887    -5.81900    -4.50475
 O    -0.07029    -0.52284    -3.95096
 O    -2.28311    -4.15814    -2.50822
 O     0.23467    -1.63337    -6.37850
 O    -1.40885    -1.33103    -0.67805
 O    -1.28030    -3.62642    -7.22456
 O    -0.43127    -6.20547     0.31979
 O    -1.86688     1.33009    -8.35950
 O    -0.98540     1.19096    -1.47278
 O    -1.60948    -7.51832    -6.65603
 H    -0.92472     2.16425    -1.25141
 H     2.86906    -7.01834    -6.81366
 O    -8.97286    -6.08954     0.63478
 O    -3.85697     4.50961     2.32276
 H    -9.67114    -6.87539     0.48244
 H    -3.70893     5.46235     2.65107
 H    -8.12578    -6.33393     0.18881
 H    -4.58770     4.55406     1.60425
 O    -2.84957     3.24635   -10.20358
 O    -8.86383    -5.75204   -10.24985
 H    -2.52704     2.54156    -9.57419
 H    -9.16559    -4.84334    -9.88787
 H    -2.57569     3.03044   -11.13719
 H    -8.77308    -6.35389    -9.47312
 O     1.73429     2.90185     3.66693
 O    -8.97948     8.58149     3.33772
 H     1.08055     3.05327     4.43713
 H    -8.67184     7.65052     3.17737
 H     1.25124     2.70333     2.85651
 H    -8.26839     9.20657     3.04223
 O    -6.86726    -5.80352    -1.81381
 O    -6.57245     4.31615     5.30438
 H    -6.50772    -5.79198    -2.75042
 H    -7.17806     3.55030     4.98800
 H    -6.88888    -6.75004    -1.48551
 H    -6.74252     4.48044     6.30446
 O    -1.33612     3.50547     1.96406
 O    -6.65535     4.23197     8.01729
 H    -2.28200     3.85377     1.92520
 H    -6.24027     3.24538     8.10650
 H    -1.33559     2.52977     1.96472
 H    -7.51814     4.22052     8.51192
 O    -6.37356    -7.21587     0.47485
 O    -7.39120     6.31325     3.14694
 H    -6.80522    -7.46432     1.45084
 H    -6.75304     6.10567     2.40342
 H    -5.85348    -6.39074     0.63616
 H    -7.19393     5.77763     3.93411
 O    -3.91855     4.36207    -7.07913
 O   -10.49688    10.74522     2.91817
 H    -2.96431     4.51819    -7.26677
 H   -10.73155     9.81393     3.10925
 H    -4.11453     4.78984    -6.17748
 H    -9.66914    10.75149     2.37596
 O    -5.08964     4.56431    -9.62838
 O    -6.65753    -4.53829   -11.52280
 H    -4.40375     3.90139    -9.98339
 H    -6.67426    -3.75189   -10.89526
 H    -4.86731     4.75192    -8.67450
 H    -7.31078    -5.20518   -11.20237
 O    -5.76732    -4.51875     0.26151
 O    -7.34104     2.24243     3.96531
 H    -6.06220    -4.70297    -0.67291
 H    -8.26398     1.92828     3.77567
 H    -5.22823    -3.70186     0.27422
 H    -6.77866     1.44543     4.20196
 O     1.04281    -2.96587     3.18350
 O   -16.22304     2.14727    -0.71557
 H     1.42605    -3.63140     2.54954
 H   -15.95622     2.30935     0.21935
 H     1.70452    -2.21075     3.27353
 H   -16.93960     1.45605    -0.75100
 O    -4.27020     3.49138     4.70966
 O    -9.26501    -4.51685    -1.37947
 H    -4.25190     3.54860     3.69867
 H    -9.38928    -4.70090    -0.39301
 H    -5.22232     3.87411     5.04884
 H    -8.35943    -4.84567    -1.63998
 O    -5.08374     0.32650    -8.58229
 O    -5.22593    -2.01702   -12.87786
 H    -4.98089     0.38595    -9.57375
 H    -5.18206    -2.95301   -12.50915
 H    -6.06107     0.17130    -8.37583
 H    -4.29896    -1.83596   -13.33885
 O    -5.94723    -0.17705   -10.94541
 O    -6.96169    -2.47574    -9.72987
 H    -6.41417     0.57803   -11.47858
 H    -6.13974    -2.64041    -9.06240
 H    -5.49779    -0.76699   -11.61212
 H    -6.88725    -1.55781   -10.09604
 O     6.26296    -3.54638     0.21405
 O    -8.95432    -3.70790    -8.65359
 H     5.39309    -3.65118    -0.26787
 H    -8.48559    -2.94949    -9.13097
 H     6.75400    -2.77609    -0.22651
 H    -8.22922    -4.13124    -7.99130
 O    -8.48826    -0.06012     3.85744
 O    -4.09293     1.81225    -0.32701
 H    -7.63413    -0.55981     4.00201
 H    -3.85436     1.75745    -1.27634
 H   -10.70708     1.81531     0.61582
 H    -3.86235     0.96992     0.10687
 O    -4.69933     4.86237     9.79496
 O    -4.10621     4.24695    -4.35951
 H    -4.09491     4.22458     9.32980
 H    -4.90973     4.42271    -3.83961
 H    -5.53424     4.94637     9.22727
 H    -3.72652     3.32845    -4.07723
 O    -1.01991     4.52082     7.34225
 O    -5.78045     5.56654     1.06644
 H    -1.44629     3.75707     7.91513
 H    -6.30579     5.24057     0.34048
 H    -1.78981     5.03770     6.93975
 H    -5.28634     6.54911     0.73540
 O    -4.38358     1.69598    -6.42073
 O   -19.06278     4.31849    -3.14391
 H    -4.19716     2.67535    -6.39867
 H   -19.51212     3.64528    -2.61752
 H    -4.61150     1.43948    -7.36711
 H   -18.30869     4.73607    -2.55004
 O    -1.51200    -2.91700     2.39581
 O   -11.91490     3.04814     0.92192
 H    -1.99128    -2.05723     2.50189
 H   -11.78597     3.18073     1.89919
 H    -0.52169    -2.72578     2.37733
 H   -12.90395     3.01084     0.76219
 O    -8.19766    -0.73675     6.57791
 O    -5.81418    -0.63479    -4.39236
 H    -7.45206    -0.22667     6.12780
 H    -6.57054    -1.23685    -4.49198
 H   -10.29282    -1.32734     6.52186
 H    -5.03378    -1.10674    -3.99546
 O     3.93297     0.30297     1.39585
 O    -0.77450     6.84372    -2.26992
 H     4.37273     1.97285     0.94836
 H    -1.11147     7.27879    -1.39527
 H     3.83885    -0.14867     2.26954
 H     0.67083     2.65274    -3.78192
 W   -13.50018     3.98596    -3.53243
