  258
 
 W     0.00000     0.00000     0.00000
 W    -6.97216     0.96378    -4.70281
 W    -7.99800     4.43132    -4.46745
 W   -11.29520     0.14183    -3.05725
 W    -6.37801     2.94281    -1.77722
 W   -13.15118     1.46845    -5.82736
 W   -10.55211     6.78716    -3.52282
 W    -8.83703    -2.33605    -4.03398
 W   -11.24386     4.84061    -6.14797
 W    -8.09543    -0.44774    -1.31274
 W    -9.41783     5.00663    -0.84567
 W    -9.89771    -0.36261    -6.64364
 W     1.33022    -3.06165     0.12526
 W    -2.27118    -3.05889    -7.19265
 W    -0.91515    -6.09158    -7.06797
 W    -0.91985    -5.87299    -1.15460
 W     0.02520    -0.23393    -5.94271
 W    -2.59016    -4.92829    -3.93328
 W     1.69554    -1.17306    -3.15574
 W    -2.22703    -2.67653    -1.40549
 W     1.31813    -3.42705    -5.67514
 W     0.78723    -6.89528    -4.26337
 W    -1.64651     0.77740    -2.81319
 O    -4.91400     3.25814    -0.89967
 O   -14.87767     1.56427    -6.08071
 O    -9.56076     3.79560    -5.36581
 O    -9.68604     0.64442    -2.16204
 H   -10.42073     2.43741    -4.51917
 H    -8.88784     2.10228    -2.94082
 O    -6.48619     4.31103    -3.19163
 O   -12.80311     0.24809    -4.31355
 O    -5.68802     1.86879    -3.39625
 O   -13.58039     2.59655    -4.05923
 O   -11.48849     4.87596    -3.96598
 O    -7.80371    -0.39817    -3.49073
 O   -10.67133     3.66523    -1.75502
 O    -8.64118     0.93659    -5.64299
 O    -7.96666     3.69054    -1.01368
 O   -11.32991     0.92961    -6.42449
 H   -10.45277     2.27147    -0.62492
 H    -8.98835     2.60336    -6.76363
 O    -9.06861     5.25749    -3.00799
 O   -10.20645    -0.73644    -4.52938
 O   -13.37621     4.06125    -1.42787
 O    -5.86017     0.46130    -5.97623
 O    -8.03534     2.43365    -3.36603
 O   -11.12814     2.12834    -3.90677
 O    -6.94839     2.92654    -5.40355
 O   -12.34356     1.57008    -2.00472
 H    -6.04415     3.27157    -6.02873
 H   -13.20846     1.19881    -1.33242
 O   -10.07601     6.30561    -5.36773
 O    -9.14340    -1.95128    -2.13598
 H    -9.30810     7.07933    -6.57155
 H   -10.26524    -2.53673    -1.08007
 O   -10.90472     6.24471    -1.59256
 O    -8.41777    -1.67483    -5.97987
 H   -11.85593     6.43269    -0.96366
 H    -7.69746    -2.07731    -6.56802
 O    -7.38200     5.78134    -5.39539
 O   -11.84513    -1.23220    -2.12448
 O    -8.38590     6.42703    -0.57804
 O   -11.08004    -1.60339    -7.14140
 O   -12.31527     3.22242    -6.11139
 O    -7.03608     1.19311    -1.28177
 H   -14.61946     2.91681    -4.08681
 H    -4.59551     1.50826    -3.33769
 O   -10.07136     4.54987     0.75166
 O    -9.04929     0.06763    -8.16119
 O   -12.03031     7.75841    -3.65041
 O    -7.24470    -3.14500    -4.02083
 O   -12.61400     5.96495    -6.35118
 O    -6.79338    -1.54285    -0.80653
 O   -10.46263     4.76672    -7.75473
 O    -9.08507    -0.31590     0.19164
 O    -9.27093     8.01302    -3.25768
 O   -10.16284    -3.48897    -4.21559
 O     2.96353    -3.63789     0.52318
 O    -3.90647    -2.38465    -7.40080
 O     0.46871    -3.18225     1.67925
 O    -1.53414    -3.05582    -8.80501
 O     1.72640    -1.02816     0.20147
 O    -2.67742    -5.08932    -7.17270
 H     2.79867    -0.55980     0.08446
 H    -3.77090    -5.51465    -7.11738
 O     0.73936     1.61722     0.05674
 O    -1.57674    -7.74526    -7.16555
 O     0.10376    -8.50456    -4.44213
 O    -1.01073     2.41132    -2.64064
 O     0.74097    -4.96057    -0.43078
 O    -1.64816    -1.13966    -6.65566
 H     1.54500    -5.71926    -0.08993
 H    -2.49858    -0.41309    -6.84848
 O     2.53147    -7.11727    -3.87826
 O    -3.41731     0.94009    -3.18377
 O    -0.59094    -0.21514     1.67091
 O    -0.37953    -5.81480    -8.73741
 O    -1.86154    -4.35743    -0.16923
 O     0.96736    -1.73935    -6.90859
 H    -1.94034    -4.38748     0.90552
 H     1.11874    -1.68208    -7.99244
 O    -2.39833    -6.23663    -2.36393
 O     1.50053     0.12032    -4.72736
 H    -3.63379    -7.07643    -1.83901
 H     2.86995     0.82267    -5.34735
 O    -4.00013    -5.76439    -4.55008
 O     3.09993    -0.34420    -2.52243
 O    -3.41980    -2.05242    -0.27828
 O     2.51144    -4.03476    -6.81205
 O    -3.40279    -3.68385    -2.60984
 O     2.49778    -2.43925    -4.44265
 O    -2.00830    -1.22321    -2.61159
 O     1.13332    -4.88793    -4.48132
 O     0.33999    -6.73822    -2.31613
 O    -1.22668     0.63460    -4.75057
 H     1.24079    -7.96472    -1.49918
 H    -2.15119     1.87970    -5.49796
 O    -2.47435    -3.52447    -5.23198
 O     1.56287    -2.53915    -1.79738
 O    -1.11089    -5.94887    -4.88416
 O     0.21764    -0.14386    -2.18828
 O    -1.13926    -4.21680    -2.41658
 O     0.23580    -1.88425    -4.66125
 O    -0.52231    -2.04006    -0.49920
 O    -0.41065    -4.01141    -6.56394
 O    -1.14335    -7.16044     0.01899
 O     0.26450     1.05045    -7.11449
 O    -1.78626     0.51133    -0.77872
 O     0.89517    -6.57721    -6.30933
 H    -2.85491     0.48687    -0.27408
 H     1.92123    -6.63008    -6.86153
 O    -9.03052    -4.47022     0.68602
 O    -3.59882     4.00217     2.19801
 H    -8.13512    -4.31370     0.26175
 H    -4.26852     3.87534     2.94370
 H    -8.88124    -4.42915     1.64925
 H    -4.07122     3.66668     1.39575
 O     0.15469     3.21084    -8.72798
 O    -8.30265    -4.47584    -8.80394
 H     0.45753     2.40358    -8.28608
 H    -8.63197    -3.68405    -9.25289
 H     0.54572     3.20982    -9.66809
 H    -8.54443    -4.35493    -7.80504
 O     2.06745     1.81414     2.38284
 O    -7.43823     6.96404     4.41892
 H     1.87876     2.60088     3.20036
 H    -7.17048     6.10908     3.66366
 H     1.44612     1.96003     1.59113
 H    -6.87779     6.91829     5.26383
 O    -6.67513    -4.19803    -0.42890
 O    -5.21913     3.85056     4.28094
 H    -6.48241    -3.26456    -0.67377
 H    -5.47253     2.96047     4.57723
 H    -6.83415    -4.67959    -1.28549
 H    -4.93866     4.35810     5.07118
 O    -0.53975     3.74274     1.08236
 O    -4.29902     5.53689     6.14544
 H    -0.54190     4.55649     0.55737
 H    -3.99511     5.00701     6.89352
 H    -0.05105     3.09033     0.58259
 H    -5.05380     6.04019     6.47745
 O    -4.72896    -5.70461     0.35458
 O    -7.05675     5.09065     2.88359
 H    -4.98486    -6.11530     1.20182
 H    -6.67246     5.26201     1.96083
 H    -5.49326    -5.07548     0.11202
 H    -6.35607     4.52629     3.34066
 O    -4.22567     5.15785    -4.37926
 O    -8.45771     8.72915     0.78645
 H    -4.25533     6.10194    -4.13480
 H    -8.44289     7.79532     0.48886
 H    -4.97507     4.78562    -3.88991
 H    -7.73587     9.12426     0.27871
 O    -2.47555     2.99531    -8.27902
 O    -5.66759    -4.26924    -9.19692
 H    -2.81738     2.27993    -8.83837
 H    -5.45756    -3.46731    -8.67915
 H    -1.52470     3.07785    -8.51404
 H    -6.62668    -4.42059    -9.00375
 O    -5.86360    -2.96767     2.48086
 O    -5.98486     2.74503     2.06988
 H    -4.96820    -2.72308     2.13547
 H    -6.92696     2.78320     1.89743
 H    -6.49557    -2.26512     2.19134
 H    -5.87770     2.10808     2.78151
 O     2.25172    -0.92778     3.89731
 O   -14.20871     0.53222    -0.75111
 H     1.89081    -0.28440     3.25657
 H   -13.77464    -0.18512    -0.24535
 H     2.60886    -0.37332     4.66040
 H   -14.61109     0.06880    -1.55541
 O    -1.73521     2.58041     2.99192
 O   -10.67714    -2.78513    -0.15454
 H    -1.72869     1.72717     2.47383
 H   -10.55421    -1.92364     0.35460
 H    -2.59249     3.22185     2.55910
 H    -9.93855    -3.51265     0.28818
 O    -3.44297     0.57698    -7.17278
 O    -4.97186    -1.83513    -9.95120
 H    -3.72669     0.54991    -8.10660
 H    -5.20564    -1.68720    -8.98186
 H    -4.27224     0.56765    -6.64585
 H    -4.00264    -1.76796   -10.06489
 O    -1.71357     0.55161   -10.32752
 O    -6.44441    -1.40224    -7.80784
 H    -2.33269     1.21499   -10.73067
 H    -5.95803    -1.01493    -7.05751
 H    -2.06347    -0.32947   -10.59928
 H    -6.97600    -0.64227    -8.13084
 O     5.53286    -1.93077    -0.93141
 O    -6.12334    -3.57071    -6.43447
 H     5.46817    -2.12631    -1.88082
 H    -5.32854    -3.02777    -6.51634
 H     6.42762    -1.56185    -0.81730
 H    -6.35275    -3.57808    -5.48919
 O    -8.16550    -0.70136     2.61460
 O    -4.00401     0.46808     0.27543
 H    -7.83396     0.17802     2.93226
 H    -4.42573    -0.35493    -0.08042
 H    -8.54079    -0.48271     1.69449
 H    -3.72026     0.20118     1.20992
 O    -3.05377     4.44485     9.40700
 O    -2.09392     4.87115    -2.46062
 H    -2.40563     3.78897     9.10701
 H    -3.00651     4.63419    -2.20289
 H    -2.62533     5.30269     9.24467
 H    -1.58318     4.05130    -2.31235
 O     0.39251     3.96400     7.59299
 O    -6.11611     5.29996     0.38836
 H     1.09240     3.26480     7.59291
 H    -6.67309     5.94770    -0.05555
 H    -0.54711     3.54462     7.47622
 H    -5.20499     5.56068     0.21492
 O    -2.74819     2.61801    -5.79240
 O   -16.64733     1.97740    -1.52917
 H    -2.32719     3.55508    -5.40361
 H   -17.05119     1.05645    -1.91810
 H    -2.66256     2.69639    -6.87325
 H   -16.73145     1.89863    -0.43074
 O    -1.80443    -2.23898     2.71844
 O   -10.38233     2.01974     0.35840
 H    -1.56798    -1.25999     2.40681
 H   -10.22719     0.98676     0.36460
 H    -0.93089    -2.74228     2.39777
 H   -11.34109     2.20449     0.73061
 O    -6.55231     0.21239     6.90321
 O    -5.51769    -0.57099    -3.86210
 H    -6.30583     0.85491     6.20065
 H    -5.79203    -1.38968    -3.40478
 H    -7.49658    -0.04931     6.72616
 H    -4.57248    -0.38592    -3.66128
 O     3.93770     0.01895    -0.04159
 O     1.60556     3.29950    -3.22084
 H     3.85163     0.46979    -0.92339
 H     1.58780     2.90594    -2.30735
 H     4.57926    -0.72880    -0.28816
 H     1.07277     4.14448    -3.09333
 W   -12.33661     3.51684    -2.73367
