  216
 
 S     0.00000     0.00000     0.00000
 S     1.97757    -1.99475     4.87029
 O     1.19340    -0.76051     4.87029
 O     3.32239    -1.74652     4.31988
 O     1.29286    -3.01126     4.05626
 O     2.09806    -2.51481     6.25606
 O     6.71972    -2.65721    -0.64849
 O    -1.78459    -5.68439     2.51385
 O    -1.33713    -3.46667     4.48196
 O    -1.22869    -2.99938     1.61570
 O    -4.02538    -4.09043     1.44307
 O    -4.49667     3.42000    -0.26362
 H     6.48228    -3.51422    -0.62339
 H     6.72531    -2.40071     0.21322
 H    -2.38476    -6.28029     2.27919
 H    -1.17001    -5.70346     1.85451
 H    -1.26203    -3.87396     5.33373
 H    -0.44996    -3.27410     4.40091
 H    -0.88606    -3.51022     0.90909
 H    -1.15535    -2.12712     1.34265
 H    -3.97032    -1.35834     2.71185
 H    -4.88710    -4.38475     1.54548
 H    -3.91544    -4.02253     0.48625
 H    -5.03425     2.88782     0.29939
 H    -5.02431     3.81023    -0.76549
 H     1.34767     1.75864    -5.39677
Mg    -2.61105    -3.79089     2.90608
 H     3.97431    -1.94088    -0.67799
 H    -0.76736     0.13455     3.81703
 O    -3.43492    -1.88933     3.23407
 H    -2.89297    -1.36947     3.60303
 O    -1.31740    -0.19546     0.63204
 O     0.35793     1.44075     0.03834
 O    -0.06164    -0.42126    -1.40819
 O     1.01876    -0.78279     0.69831
 O     4.00554    -1.01978    -5.03906
 O     2.99001     2.20218     0.05499
 H     3.97580    -0.67693    -5.85946
 H     4.45149    -0.40732    -4.55667
 H     3.22898     2.10453    -0.78247
 H     2.17035     1.82815     0.10695
 O     2.23844    -0.60072    -2.81589
 O     3.92677    -2.96602    -2.78682
 O     0.60186     1.41137    -4.92170
 H     2.43208     0.32523    -2.86713
 H     1.50088    -0.50538    -2.28950
 H     4.30434    -3.79924    -2.73380
 H     3.77357    -2.73627    -1.99800
 H    -0.06692     2.08068    -5.00688
Mg     4.40316     1.43926     1.41219
 O     2.88349     0.38199     2.29322
 O     4.88182    -0.06182     0.09002
 H     2.13629     0.11428     1.79556
 H     2.94836    -0.22430     2.97766
 H     5.57852    -0.08655    -0.50418
 H     4.38774    -0.87045    -0.09720
 H    -0.07565     1.97032    -1.90910
 O     2.04323    -5.16209     2.59889
 H     1.62309    -4.42724     2.87370
 H    -0.68765     4.71062    -0.04416
 H     1.49159    -5.52078     1.98671
 O    -0.29453     2.56055    -2.57595
 H    -0.07881     2.18249    -3.29112
 O     3.22851    -2.28814    -0.20293
Mg    -0.12492     4.64804    -2.70193
 S     7.82700    -2.39323     3.00071
 O     7.72080    -3.79411     3.40756
 O     9.12369    -2.14709     2.34410
 O     7.70294    -1.52808     4.18431
 O     6.72558    -2.05675     2.06317
 O     4.29703    -3.30471     2.29269
 O     3.79129    -5.53333     0.35121
 O     1.90176     4.49454    -2.96929
 O     0.00093     4.70644    -0.65015
 H     3.92524    -2.89071     2.97148
 H     5.14937    -3.01110     2.28174
 H     3.08854    -5.24350    -0.21376
 H     4.44814    -5.43693    -0.27327
 H     2.47551     5.17689    -2.68141
 H     2.41035     3.73120    -2.96215
 H     0.79032     4.80685    -0.10428
 H     2.51877    -1.68945    -0.40376
 S    -5.91996     0.26126     1.65906
 O    -7.24318    -0.03748     2.23363
 O    -5.04955     0.83389     2.69768
 O    -2.67093     1.88898     1.96749
 H    -2.23602     1.08066     1.73151
 H    -3.47740     1.50467     2.14663
Mg    -3.84700     0.03493    -2.71294
 O    -6.04870     1.21152     0.55347
 O    -5.29696    -0.99590     1.17249
 O    -0.08875     3.12292     2.20270
 O    -3.47989    -0.92466    -0.87717
 O    -5.73602     0.45335    -2.03580
 O    -3.03683     1.77631    -1.97911
 H     0.59858     2.90224     2.72320
 H     0.01135     2.61266     1.47079
 H    -2.74814    -0.64444    -0.48386
 H    -4.12804    -0.82534    -0.25843
 H    -5.90519     0.54956    -1.11941
 H    -6.38282     0.95073    -2.45433
 H    -2.18323     2.09118    -2.09331
 H    -3.44209     2.41663    -1.38094
 O    -2.37678     4.62531     1.03253
 O    -1.51316    -0.21272     4.29209
 H    -2.43694     5.51793     0.83447
 H    -2.98124     4.25376     0.58993
 H    -1.19983    -1.02944     4.66262
 S     1.86294     3.58503     5.54530
 S     3.84051     1.59028    10.41559
 O     3.05634     2.82452    10.41559
 O     5.18533     1.83851     9.86518
 O     3.15580     0.57376     9.60156
 O     3.96100     1.07022    11.80136
 O     8.58266     0.92782     4.89681
 O     0.07835    -2.09936     8.05915
 O     0.52581     0.11836    10.02726
 O     0.63425     0.58565     7.16100
 O    -2.16244    -0.50540     6.98837
 O    -2.63373     7.00503     5.28168
 H     8.34522     0.07080     4.92191
 H     8.58825     1.18432     5.75852
 H    -0.52182    -2.69526     7.82449
 H     0.69293    -2.11843     7.39981
 H     0.60091    -0.28893    10.87903
 H     1.41298     0.31093     9.94621
 H     0.97688     0.07481     6.45439
 H     0.70759     1.45791     6.88795
 H    -2.10738     2.22669     8.25714
 H    -3.02415    -0.79973     7.09077
 H    -2.05250    -0.43750     6.03155
 H    -3.17131     6.47285     5.84469
 H    -3.16137     7.39526     4.77981
 H     3.21061     5.34367     0.14853
Mg    -0.74811    -0.20586     8.45138
 H     5.83725     1.64415     4.86731
 H     1.09558     3.71958     9.36232
 O    -1.57198     1.69570     8.77937
 H    -1.03003     2.21556     9.14833
 O     0.54554     3.38957     6.17734
 O     2.22087     5.02578     5.58364
 O     1.80130     3.16377     4.13711
 O     2.88170     2.80224     6.24361
 O     5.86848     2.56524     0.50624
 O     4.85295     5.78721     5.60029
 H     5.83874     2.90810    -0.31416
 H     6.31443     3.17771     0.98863
 H     5.09192     5.68956     4.76283
 H     4.03329     5.41318     5.65225
 O     4.10138     2.98431     2.72940
 O     5.78971     0.61901     2.75848
 O     2.46480     4.99640     0.62359
 H     4.29502     3.91026     2.67817
 H     3.36382     3.07965     3.25580
 H     6.16728    -0.21421     2.81150
 H     5.63651     0.84875     3.54729
 H     1.79602     5.66571     0.53842
Mg     6.26610     5.02429     6.95749
 O     4.74643     3.96702     7.83852
 O     6.74476     3.52321     5.63532
 H     3.99923     3.69930     7.34085
 H     4.81130     3.36073     8.52296
 H     7.44146     3.49848     5.04112
 H     6.25068     2.71458     5.44810
 H     1.78729     5.55535     3.63620
 O     3.90617    -1.57706     8.14419
 H     3.48603    -0.84221     8.41900
 H     1.17529     8.29565     5.50114
 H     3.35453    -1.93575     7.53201
 O     1.56841     6.14558     2.96935
 H     1.78413     5.76752     2.25418
 O     5.09145     1.29688     5.34237
Mg     1.73802     8.23307     2.84337
 S     9.68994     1.19180     8.54601
 O     9.58374    -0.20908     8.95286
 O    10.98663     1.43794     7.88940
 O     9.56588     2.05695     9.72961
 O     8.58852     1.52828     7.60847
 O     6.15997     0.28032     7.83798
 O     5.65423    -1.94831     5.89651
 O     3.76471     8.07957     2.57601
 O     1.86387     8.29147     4.89515
 H     5.78818     0.69432     8.51678
 H     7.01231     0.57393     7.82703
 H     4.95148    -1.65848     5.33154
 H     6.31108    -1.85190     5.27203
 H     4.33845     8.76192     2.86389
 H     4.27329     7.31623     2.58315
 H     2.65326     8.39188     5.44102
 H     4.38171     1.89558     5.14154
 S    -4.05702     3.84629     7.20435
 O    -5.38024     3.54755     7.77892
 O    -3.18661     4.41892     8.24298
 O    -0.80799     5.47401     7.51279
 H    -0.37308     4.66569     7.27681
 H    -1.61446     5.08970     7.69193
Mg    -1.98406     3.61996     2.83236
 O    -4.18576     4.79655     6.09877
 O    -3.43402     2.58913     6.71778
 O     1.77419     6.70795     7.74800
 O    -1.61695     2.66036     4.66813
 O    -3.87308     4.03838     3.50950
 O    -1.17389     5.36134     3.56619
 H     2.46152     6.48726     8.26850
 H     1.87429     6.19769     7.01609
 H    -0.88520     2.94059     5.06144
 H    -2.26510     2.75969     5.28687
 H    -4.04225     4.13459     4.42589
 H    -4.51988     4.53576     3.09097
 H    -0.32029     5.67621     3.45199
 H    -1.57914     6.00166     4.16435
 O    -0.51384     8.21033     6.57783
 O     0.34978     3.37231     9.83738
 H    -0.57400     9.10296     6.37977
 H    -1.11830     7.83879     6.13523
 H     0.66311     2.55559    10.20792
