  224
 
Er     0.00000     0.00000     0.00000
Er    -2.41632     2.69385    -1.91826
 O     2.05515     1.26851     0.18094
 O    -0.80474     2.12156    -0.20637
 O    -0.51134     2.65617    -3.15337
 O    -4.47813     1.43742    -2.09767
 O    -1.62348     0.57269    -1.70105
 O    -1.90426     0.05015     1.25117
 H     2.34234     1.99229    -0.36897
 H     0.04761     2.51821    -0.05114
 H     0.03414     2.35597    -2.43038
 H    -4.77093     0.71377    -1.55111
 H    -2.47748     0.17369    -1.85307
 H    -2.44372     0.34469     0.51910
Er     1.42791    -2.15716    -1.99109
Er    -1.01538     0.57309    -3.87317
 O     3.65964    -1.18968    -1.72037
 O     0.57808    -0.04758    -2.16024
 O     0.75734     0.29426    -5.39944
 O    -3.07687    -0.67346    -4.10557
 O     0.06668    -1.53247    -3.92327
 O    -0.44813    -2.08313    -0.69677
 H     4.08438    -0.52470    -2.23778
 H     1.44047     0.34593    -2.04935
 H     1.24602    -0.11931    -4.70995
 H    -3.33239    -1.41654    -3.56026
 H    -0.74932    -1.89492    -4.22302
 H    -0.99044    -1.82430    -1.44018
Er     3.12326    -4.72246    -4.35837
Er     0.68735    -1.98206    -6.23762
 O     5.18336    -3.47595    -4.12477
 O     2.03463    -2.62640    -4.29801
 O     2.54975    -2.07027    -7.53538
 O    -1.54918    -2.95305    -6.52292
 O     1.52734    -4.10128    -6.06453
 O     1.34753    -4.44461    -2.81794
 H     5.43866    -2.73421    -4.67281
 H     2.85425    -2.25843    -4.00844
 H     3.11023    -2.31744    -6.80325
 H    -1.97242    -3.61634    -6.00031
 H     0.66412    -4.48636    -6.18612
 H     0.87781    -4.01872    -3.51874
Er     4.52468    -6.84224    -6.31297
Er     2.11268    -4.14381    -8.23070
 O     6.58646    -5.58649    -6.13547
 O     3.72941    -4.72758    -6.52534
 O     4.01659    -4.20788    -9.49031
 O     0.05596    -5.41281    -8.41368
 O     2.91024    -6.27223    -8.02194
 O     2.61952    -6.79978    -5.07091
 H     6.87893    -4.86224    -6.68086
 H     4.58135    -4.32059    -6.38046
 H     4.54837    -4.48533    -8.74876
 H    -0.22759    -6.13894    -7.86211
 H     2.05930    -6.66981    -8.18401
 H     2.07923    -6.50850    -5.80454
Er    -5.03303    -4.00929     0.73920
Er    -7.44882    -1.31581    -1.18114
 O    -2.97960    -2.74173     0.92157
 O    -5.84187    -1.88451     0.53578
 O    -5.54525    -1.36008    -2.42136
 O    -9.50767    -2.57745    -1.34591
 O    -6.65977    -3.43337    -0.95744
 O    -6.93822    -3.95902     1.99231
 H    -2.68937    -2.01614     0.37417
 H    -4.98511    -1.48777     0.68976
 H    -5.00070    -1.64920    -1.69132
 H    -9.81241    -3.30923    -0.81316
 H    -7.50638    -3.84172    -1.12293
 H    -7.46718    -3.67666     1.25453
Er    -3.60708    -6.16691    -1.25338
Er    -6.05087    -3.43773    -3.13481
 O    -1.37413    -5.20049    -0.97951
 O    -4.45536    -4.05627    -1.42414
 O    -4.27398    -3.71539    -4.67245
 O    -8.11037    -4.68388    -3.36074
 O    -4.96317    -5.53913    -3.19055
 O    -5.48363    -6.08933     0.04256
 H    -0.95180    -4.53300    -1.49649
 H    -3.59132    -3.66081    -1.30941
 H    -3.80303    -4.14208    -3.97545
 H    -8.36939    -5.43394    -2.82451
 H    -5.78620    -5.89663    -3.48599
 H    -6.02936    -5.83547    -0.70154
Er    -1.91353    -8.73194    -3.62168
Er    -4.36192    -6.00132    -5.50657
 O     0.14647    -7.48396    -3.38979
 O    -3.00356    -6.63396    -3.56855
 O    -2.47605    -6.07729    -6.79413
 O    -6.53905    -6.97392    -5.77142
 O    -3.50933    -8.11292    -5.33038
 O    -3.68991    -8.45406    -2.08351
 H     0.40912    -6.74315    -3.93196
 H    -2.18508    -6.27001    -3.27250
 H    -1.93504    -6.33046    -6.04802
 H    -6.25633    -7.73099    -5.30855
 H    -4.36247    -8.52265    -5.45851
 H    -4.16242    -8.02877    -2.78008
Er    -0.50885   -10.85335    -5.57229
Er    -2.92548    -8.15834    -7.49549
 O     1.55069    -9.59529    -5.39574
 O    -1.30927    -8.74728    -5.80117
 O    -1.01941    -8.21069    -8.74158
 O    -4.91283    -9.42242    -7.70096
 O    -2.15548   -10.36266    -7.28380
 O    -2.41512   -10.81054    -4.33372
 H     1.84769    -8.87185    -5.94174
 H    -0.45911    -8.33738    -5.64099
 H    -0.47454    -8.50056    -8.01303
 H    -4.49412   -10.16634    -7.29244
 H    -2.78966   -11.09121    -7.48021
 H    -2.95392   -10.52412    -5.06696
Er     5.05546    -0.37339     4.03005
Er     2.63498     2.31560     2.11294
 O     7.10765     0.89467     4.21306
 O     4.25061     1.74835     3.82301
 O     4.53891     2.27531     0.86940
 O     0.57465     1.05879     1.93477
 O     3.43283     0.19738     2.32673
 O     3.15331    -0.32245     5.28375
 H     7.40108     1.61812     3.66092
 H     5.10623     2.14693     3.97626
 H     5.07981     1.98709     1.60128
 H     0.27859     0.33684     2.48339
 H     2.57787    -0.20395     2.17925
 H     2.61465    -0.02722     4.55341
Er     6.48055    -2.53270     2.04047
Er     4.03779     0.19777     0.15698
 O     8.68133    -1.61016     2.29734
 O     5.63736    -0.42318     1.86363
 O     5.81625    -0.07988    -1.38130
 O     1.97895    -1.05179    -0.07297
 O     5.12776    -1.90122     0.10074
 O     4.60270    -2.45476     3.33290
 H     8.69823    -1.46393     1.37505
 H     6.49823    -0.02167     1.98664
 H     6.28575    -0.50329    -0.68236
 H     1.71746    -1.79111     0.47062
 H     4.30672    -2.26366    -0.19368
 H     4.05690    -2.19762     2.59058
Er     8.18109    -5.09606    -0.32751
Er     5.73251    -2.36679    -2.21057
 O    10.23341    -3.84232    -0.09279
 O     7.09031    -2.99141    -0.26868
 O     7.60698    -2.44382    -3.50732
 O     3.50142    -3.33530    -2.47658
 O     6.58309    -4.47428    -2.03423
 O     6.40448    -4.81684     1.20921
 H    10.50532    -3.10250    -0.63687
 H     7.91901    -2.64676     0.00802
 H     8.15104    -2.70097    -2.76570
 H     3.07449    -4.00443    -1.96907
 H     5.72126    -4.86986    -2.15141
 H     5.92764    -4.39860     0.51012
Er     9.58319    -7.21406    -2.28231
Er     7.15986    -4.52619    -4.20003
 O    11.64249    -5.95752    -2.10260
 O     8.78548    -5.09517    -2.49779
 O     9.06346    -4.57714    -5.45323
 O     5.10578    -5.79479    -4.38069
 O     7.96589    -6.64761    -3.99282
 O     7.68042    -7.17351    -1.04132
 H    11.93805    -5.23110    -2.64967
 H     9.64192    -4.69547    -2.35022
 H     9.60048    -4.87031    -4.72062
 H     4.81765    -6.52012    -3.83018
 H     7.11156    -7.04802    -4.14554
 H     7.13853    -6.88503    -1.77182
Er     0.02045    -4.38627     4.77237
Er    -2.39888    -1.69458     2.85534
 O     2.07435    -3.11702     4.95425
 O    -0.78458    -2.26402     4.56483
 O    -0.49389    -1.73780     1.61260
 O    -4.46074    -2.95044     2.67412
 O    -1.60203    -3.81163     3.06853
 O    -1.88394    -4.33444     6.02309
 H     2.35988    -2.39190     4.40068
 H     0.06716    -1.86544     4.72341
 H     0.04484    -2.02574     2.34569
 H    -4.75147    -3.67567     3.22462
 H    -2.45481    -4.21263     2.92257
 H    -2.42417    -4.03943     5.29356
Er     1.44374    -6.55655     2.78443
Er    -0.99756    -3.81397     0.90068
 O     3.67327    -5.57349     3.05480
 O     0.60405    -4.43688     2.60157
 O     0.78388    -4.09650    -0.63818
 O    -3.05681    -5.06104     0.66447
 O     0.09456    -5.90218     0.84073
 O    -0.43074    -6.45342     4.08741
 H     4.09535    -4.91329     2.53076
 H     1.46631    -4.05024     2.73054
 H     1.24463    -4.50033     0.07387
 H    -3.31520    -5.80293     1.20740
 H    -0.72305    -6.27407     0.54971
 H    -0.97181    -6.21943     3.33853
Er     3.13935    -9.10591     0.41481
Er     0.69642    -6.37903    -1.47037
 O     5.21498    -7.87461     0.64743
 O     2.01212    -6.97775     0.44939
 O     2.57457    -6.45421    -2.75973
 O    -1.53551    -7.34401    -1.74389
 O     1.54452    -8.48633    -1.29926
 O     1.35252    -8.83360     1.93334
 H     5.45024    -7.12693     0.10270
 H     2.30430    -6.09279     0.48780
 H     3.11974    -6.71868    -2.02064
 H    -1.96003    -8.01078    -1.22735
 H     0.68278    -8.88548    -1.40960
 H     0.87270    -8.41161     1.24604
Er     4.54637   -11.22606    -1.53723
Er     2.12477    -8.53715    -3.45922
 O     6.61815    -9.97514    -1.37763
 O     3.74784    -9.10673    -1.75955
 O     4.03006    -8.58714    -4.71059
 O     0.06799    -9.80146    -3.64322
 O     2.93185   -10.65840    -3.25319
 O     2.63003   -11.18813    -0.30949
 H     6.90318    -9.24639    -1.92297
 H     4.60029    -8.70857    -1.60303
 H     4.56580    -8.88078    -3.97709
 H    -0.21819   -10.52611    -3.09203
 H     2.07959   -11.05717    -3.40398
 H     2.09235   -10.89559    -1.03832
