  156
 
Si     0.00000     0.00000     0.00000
Si    -1.61347    -0.96021    -2.55483
Mg     1.64700     2.56768     0.11856
Mg     0.14083     1.71336    -2.72543
Mg    -1.63215     2.56351     0.16689
Ca     3.35497     1.76218    -2.65985
 O     0.03419     1.53694    -0.55106
 O     3.29853     1.40467    -0.44499
 F    -3.26631     1.67854    -0.58670
 O    -0.88450    -2.04018    -3.43236
 O    -0.91631    -0.90907    -1.03000
 O     1.56572    -0.59902     0.10615
 O    -0.66688    -0.05163     1.51386
Si    -1.58948     0.77291     2.61358
Si    -4.74903     0.54347     2.56154
 O    -1.66793     2.36034     2.23911
 O    -0.04661     3.00422     5.00696
 O    -5.40857     0.10547     3.91687
 O    -3.11880     0.15437     2.58545
 O    -0.88368     0.58225     4.12526
Mg    -0.08778     3.41080     2.94882
Mg    -3.40931     3.41000     3.05618
Ca    -1.80101     4.20078     5.72831
Si     3.14666     5.20744     0.45301
Si     1.48806     4.57729    -2.23344
 O     3.22460     3.62040     0.83021
 O     1.60582     2.96860    -1.94007
 O     0.61376    -4.00902    -1.97740
 O     4.67708     5.82411     0.48460
 O     0.90981    -3.62384     0.55134
 O     2.22196     6.03378     1.55064
Si    -3.26317     5.12663     0.33258
Si    -1.65436     6.08232     2.89121
 O    -3.29966     3.58959     0.88300
 O    -1.74135     4.56936     3.51586
 O    -3.92265    -1.85960     5.37936
 O    -2.34815     6.03410     1.36511
 O    -4.82977     5.72422     0.22446
 F    -1.53161    -5.56913     2.53072
Si     5.49442     2.29276    -8.50264
Si     3.89277     3.04423    -5.89122
Si     7.11182    -1.51628    -6.42736
Si     5.50534    -0.76489    -3.81883
Si    -5.57710     5.77996     4.31807
Si     0.73319     2.81152    -5.94094
Si    -4.01247     2.30324     6.26603
Si     2.29360    -0.66598    -3.99171
Mg    -5.35433    -0.56379     5.76727
Mg     0.54249    -3.34175    -3.82790
Ca    -2.13617    -0.50691     5.83330
Ca     2.15763    -2.53439    -1.15527
 O    -4.84310     4.70615     3.43850
 O     0.08474     2.37017    -4.58049
 O    -3.35882     2.74536     4.90840
 O     1.56776     0.40996    -3.10715
 O    -4.88055     5.82371     5.84291
 O     2.36403     2.42239    -5.92812
 O    -5.64400     2.68888     6.24943
 O     1.59016    -0.71067    -5.51300
 O    -2.39663     6.13468     6.98171
 O     4.59430     2.85312    -4.37641
 O    -3.05086     3.11385     7.43812
 O     3.93822    -0.17070    -3.92550
Mg    -3.85148     0.28463     8.60750
Mg     2.32175    -4.17277    -6.72077
 O     3.99560    -5.18854    -7.43606
 O    -2.19648    -0.87467     8.04595
 F    -8.77009    -0.61890     7.90114
 O     4.82036     2.22576    -6.99183
 O     2.28360    -4.38745    -4.65139
 O     3.90455    -3.74328    -1.87961
Mg     3.86303    -3.33762    -3.93767
 O     2.36421    -3.96076    -8.79214
 O    -3.88961     0.69393     6.55120
 O     6.18038    -0.70110    -5.32849
 O     0.64690    -3.15841    -6.00001
 O     2.20986    -2.17932    -3.36879
 F    -5.50365     1.15136     9.41045
Si     4.82271     0.85450     2.73830
Si     3.21106    -0.10637     0.18379
Mg     6.47049     3.42164     2.85498
Mg     4.96314     2.56928     0.01043
Mg     3.19139     3.41768     2.90242
Ca     8.17571     2.61708     0.07543
 O     4.85753     2.39099     2.18553
 O     8.12106     2.25861     2.28926
 F     1.55797     2.53117     2.14906
 O     3.94292    -1.18545    -0.69182
 O     3.90503    -0.05449     1.71033
 O     6.38838     0.25517     2.84167
 O     4.15637     0.80138     4.25248
Si     3.23287     1.62677     5.35065
Si     0.07361     1.39591     5.29831
 O     3.15487     3.21400     4.97535
 O     4.77633     3.85899     7.74239
 O    -0.58675     0.95909     6.65402
 O     1.70414     1.00672     5.32343
 O     3.94027     1.43684     6.86146
Mg     4.73545     4.26573     5.68455
Mg     1.41606     4.26272     5.79208
Ca     3.02156     5.05612     8.46221
Si     7.97381     6.05854     3.18929
Si     6.30768     5.43377     0.50607
 O     8.04999     4.47119     3.56584
 O     6.42693     3.82472     0.79698
 O     5.42995    -3.15129     0.76042
 O     9.50484     6.67337     3.21440
 O     5.73281    -2.76997     3.29005
 O     7.05699     6.88487     4.29290
Si     1.55788     5.98016     3.06623
Si     3.17197     6.93779     5.62128
 O     1.52456     4.44297     3.61691
 O     3.08274     5.42617     6.24878
 O     0.90366    -1.00379     8.10929
 O     2.47727     6.88689     4.09521
 O    -0.00925     6.57743     2.96584
 F     3.29177    -4.71520     5.26667
Si    10.31645     3.14531    -5.76311
Si     8.71526     3.89739    -3.15364
Si    11.93445    -0.66415    -3.68840
Si    10.32933     0.08689    -1.07627
Si    -0.75172     6.63196     7.05590
Si     5.55576     3.66707    -3.20537
Si     0.81247     3.15676     9.00364
Si     7.11817     0.19108    -1.26366
Mg    -0.52932     0.28873     8.50452
Mg     5.36749    -2.48681    -1.09288
Ca     2.68876     0.34694     8.56803
Ca     6.97738    -1.67970     1.57623
 O    -0.01715     5.55748     6.17741
 O     4.90601     3.22808    -1.84435
 O     1.46603     3.59920     7.64560
 O     6.39028     1.26858    -0.38316
 O    -0.05728     6.67586     8.58207
 O     7.18621     3.27687    -3.19023
 O    -0.81878     3.54353     8.98626
 O     6.41696     0.14528    -2.78657
 O     2.42581     6.98826     9.71858
 O     9.41641     3.70693    -1.63902
 O     1.77254     3.96715    10.17684
 O     8.76346     0.68310    -1.19033
Mg     0.96973     1.13829    11.34430
Mg     7.14594    -3.31714    -3.98504
 O     8.81723    -4.33630    -4.69783
 O     2.62474    -0.01912    10.78037
 F    -3.94364     0.23414    10.63622
 O     9.64441     3.07638    -4.25122
 O     7.10619    -3.53453    -1.91591
 O     8.72505    -2.89141     0.85797
Mg     8.68428    -2.48381    -1.20070
 O     7.18929    -3.10497    -6.05642
 O     0.93448     1.54706     9.28775
 O    11.00875     0.14927    -2.58354
 O     5.47270    -2.30159    -3.26809
 O     7.03237    -1.32110    -0.63771
 F    -0.68082     2.00759    12.14709
