  116
 
Ca     0.00000     0.00000     0.00000
Si     3.27434     0.12080    -0.02176
 O     4.28432     1.34743     0.14933
 O     2.77324    -0.23249     1.45951
 O     2.06107     0.39678    -0.96248
 F     0.46451    -2.12153    -0.53557
 O     0.50977     1.96556     1.32177
 H    -0.08191     2.30757     2.04188
 H     1.38308     2.01910     1.74277
Si     1.94097    -1.18757     2.42320
 O     2.23465    -0.75020     3.93494
 O     2.50849    -2.69176     2.31654
 O     0.44418    -1.11017     2.01459
Si     2.75170    -3.94080     1.36527
 O     3.45577    -5.10709     2.20074
 O     3.78561    -3.55330     0.19436
 O     1.38616    -4.40151     0.76866
Si     4.07648    -2.63419    -1.07071
 O     5.53601    -2.95451    -1.63312
 O     4.10395    -1.09351    -0.62699
 O     2.96483    -2.88044    -2.14075
 K    -2.54442    -2.37876     4.77872
Si     3.65812     6.51282     2.41497
 O     4.19075     6.25189     0.91866
 O     4.81963     6.98945     3.33545
Si     5.18715     5.44641    -0.01977
 O     4.86336     3.87423     0.06063
 O     6.65068     5.74137     0.44412
Si     4.81516     2.59088     1.00092
 O     3.74668     2.80354     2.17591
 O     6.24597     2.35483     1.58191
Si     3.28154     3.64755     3.44339
 O     3.03986     5.17811     3.01479
 O     4.37621     3.53781     4.54082
Si    -4.43425     3.09823     1.60260
 O    -4.60899     2.67423     0.07483
 O    -4.99812     4.60116     1.70048
 O    -2.94102     3.03609     2.06309
Si    -5.24284     5.85466     2.64760
 O    -5.96266     7.01342     1.81697
 O    -6.25565     5.46621     3.82667
 O    -3.86171     6.29766     3.23437
Si    -6.60358     4.55060     5.08204
 O    -8.11265     4.85034     5.52380
 O    -6.59956     3.00882     4.63212
 O    -5.54286     4.81224     6.18852
Si    -5.79213     1.78502     4.02576
 O    -6.80855     0.56680     3.84056
 O    -5.28897     2.14047     2.53692
 O    -4.57722     1.47650     4.94922
 O    -4.88840    -0.96094     6.03157
 H    -4.71023    -0.01746     5.73811
 H    -5.70183    -1.16195     5.53899
Ca    -0.47134    -3.04955     1.15912
 O    -0.27090    -3.79603     3.41387
 H    -0.46850    -4.73197     3.69929
 H     0.56814    -3.62299     3.87405
 O    -1.57413     1.85537     0.05658
 H    -1.97520     2.19930     0.89795
 H    -2.35046     1.80751    -0.52372
 O    -0.93361     0.06386     4.00368
 H    -0.52186    -0.28022     3.16339
 H    -0.15994     0.12953     4.58620
 O    -2.40514    -3.92810     2.18719
 H    -2.44492    -4.85578     2.55962
 H    -3.24505    -3.87849     1.69894
Ca    -6.72324     1.58925    -3.85107
Ca    -2.02095     4.97945     2.81516
Ca    -7.96932    -3.64369    -1.05647
Ca    -7.64422     4.53141    -2.68823
Ca    -2.52703     1.88669     4.03649
Ca    -8.92330    -0.64840     0.14754
Si    -3.46110     2.00100    -3.88851
Si    -3.10366     4.86478    -4.91983
Si    -4.61684     5.92670    -2.47123
Si    -4.97760     3.06709    -1.43104
 O    -2.78366    -0.77910     7.31436
 O    -3.05298    -0.10690     2.77544
 O    -4.00940     2.26738    -2.40598
 O    -4.61936     1.53766    -4.82469
 F    -9.29557    -2.90412     1.08569
 O    -5.92652    -0.29992    -2.59586
 H    -6.44777    -0.72845    -1.86482
 H    -5.04370    -0.23973    -2.19643
 O    -4.66260     4.64459    -1.53607
 O    -6.44659     2.75916    -1.83425
 O    -3.54022     5.71451    -3.64913
 O    -6.03807     6.17360    -3.06945
 O    -2.84865     3.34017    -4.49054
 O    -4.24488     4.94961    -5.98625
 K    -6.05677    -2.55782    -4.67266
 O    -8.06065    -4.35151    -3.31591
 H    -7.72224    -5.24417    -3.61769
 H    -8.90819    -4.29515    -3.78914
 O    -3.92744    -0.81441    -5.92491
 H    -4.25375     0.08478    -5.63674
 H    -3.08693    -0.87671    -5.44267
 O    -8.04107    -0.46333    -3.81830
 H    -8.37962    -0.87795    -2.98048
 H    -8.82646    -0.50663    -4.38790
 O    -7.66847     1.41429     0.14521
 H    -7.29656     1.82411    -0.68696
 H    -6.90748     1.47704     0.74385
 O    -6.02467    -0.94847    -7.21384
 H    -6.20585    -0.04508    -6.82852
 H    -6.83986    -1.11256    -7.71929
 O    -5.92034    -4.16681    -2.11417
 O    -9.77142     1.18781    -1.11494
 H    -9.25965     1.61959    -1.85720
 H   -10.65411     1.10364    -1.51223
 H    -5.73027    -5.07416    -2.49331
 H    -5.09186    -3.97810    -1.64099
 H    -2.73448     0.15017     6.93636
 H    -1.94455    -0.83241     7.80540
 H    -2.48528    -0.43764     2.02547
 H    -3.94040    -0.17371     2.38949
