  156
 
Si     0.00000     0.00000     0.00000
Si    -1.44151    -0.86865    -2.53610
Mg     1.50501     2.83550     0.00000
Mg     0.04306     2.02600    -2.57174
Mg    -1.56985     2.78039     0.04970
Ca     3.23346     2.02707    -2.80922
 O    -0.01963     1.53991    -0.48303
 O     3.04370     1.55509    -0.46306
 F    -3.06460     1.56472    -0.52014
 O    -0.93079    -1.91850    -3.61096
 O    -0.53596    -1.00039    -1.16613
 O     1.52745    -0.48663     0.29045
 O    -0.89188    -0.19460     1.32298
Si    -1.52894     0.71511     2.48495
Si    -4.56962     0.59442     2.54796
 O    -1.57198     2.26597     2.03997
 O    -0.07525     3.01388     4.60610
 O    -5.48299     0.21065     3.78764
 O    -3.01158     0.15750     2.85744
 O    -0.66620     0.53938     3.85574
Mg    -0.11656     3.59394     2.63550
Mg    -3.18277     3.53478     2.67115
Ca    -1.84501     4.40236     5.44472
Si     2.91738     5.71432     0.15055
Si     1.42991     4.96636    -2.44855
 O     2.96042     4.16346     0.59553
 O     1.46370     3.41555    -1.97060
 O     0.45034    -4.12419    -2.12643
 O     4.40002     6.27193    -0.22193
 O     0.16170    -3.58428     0.34157
 O     2.28032     6.62403     1.31252
Si    -3.13971     5.56078     0.09940
Si    -1.69820     6.42943     2.63550
 O    -3.12008     4.02087     0.58244
 O    -1.65525     4.87434     3.09857
 O    -4.10186    -1.99505     5.27217
 O    -2.60375     6.56117     1.26554
 O    -4.66716     6.04741    -0.19105
 F    -1.96702    -5.47738     2.18173
Si     5.52810     2.59373    -8.22741
Si     3.99916     3.30884    -5.74245
Si     6.55357    -1.16539    -6.51467
Si     5.02463    -0.45028    -4.02971
Si    -5.07667     6.01195     4.12950
Si     0.95867     3.18912    -5.67961
Si    -4.09818     2.37263     5.77885
Si     1.93715    -0.45020    -4.03025
Mg    -5.48607    -0.56861     5.65529
Mg     0.45154    -3.34574    -3.99499
Ca    -2.29483    -0.56762     5.41834
Ca     1.79014    -2.47824    -1.22088
 O    -4.56698     4.96121     3.05426
 O     0.04426     2.80445    -4.44030
 O    -3.18397     2.75633     4.53971
 O     1.42727     0.59957    -2.95485
 O    -4.17112     5.88021     5.49947
 O     2.51671     2.75219    -5.37013
 O    -5.65539     2.80947     5.46991
 O     1.03244    -0.31854    -5.39968
 O    -2.10770     6.39398     6.95605
 O     4.86209     3.13408    -4.37182
 O    -3.47261     3.29625     7.00771
 O     3.49718     0.03635    -4.32016
Mg    -4.02309     0.24177     8.22741
Mg     2.06530    -4.10021    -6.61590
 O     3.61553    -5.34069    -7.14863
 O    -2.48440    -1.03863     7.76434
 F    -8.59289    -1.02997     7.70742
 O     4.63641     2.40010    -6.90458
 O     2.06318    -4.61463    -4.62563
 O     3.56009    -3.86575    -2.05965
Mg     3.51879    -3.28570    -4.03025
 O     2.06761    -3.58483    -8.60632
 O    -4.06459     0.82086     6.25697
 O     5.91548    -0.25657    -5.35307
 O     0.51526    -2.85876    -6.08332
 O     1.97990    -2.00626    -3.56703
 F    -5.60236     1.40226     8.84749
Si     4.52816     0.86865     2.53610
Si     3.08664     0.00000     0.00000
Mg     6.03317     3.70415     2.53610
Mg     4.57122     2.89465    -0.03564
Mg     2.95830     3.64904     2.58580
Ca     7.76162     2.89572    -0.27312
 O     4.50853     2.40856     2.05307
 O     7.57185     2.42375     2.07303
 F     1.46355     2.43337     2.01596
 O     3.59737    -1.04985    -1.07486
 O     3.99219    -0.13174     1.36997
 O     6.05561     0.38203     2.82655
 O     3.63628     0.67406     3.85908
Si     2.99922     1.58377     5.02105
Si    -0.04147     1.46308     5.08406
 O     2.95618     3.13463     4.57607
 O     4.45290     3.88254     7.14220
 O    -0.95484     1.07930     6.32374
 O     1.51658     1.02615     5.39354
 O     3.86196     1.40804     6.39184
Mg     4.41160     4.46259     5.17160
Mg     1.34539     4.40343     5.20724
Ca     2.68314     5.27102     7.98082
Si     7.44554     6.58297     2.68665
Si     5.95807     5.83501     0.08754
 O     7.48858     5.03211     3.13163
 O     5.99186     4.28420     0.56550
 O     4.97850    -3.25554     0.40967
 O     8.92818     7.14058     2.31417
 O     4.68986    -2.71562     2.87767
 O     6.80848     7.49268     3.84862
Si     1.38845     6.42943     2.63550
Si     2.82996     7.29809     5.17160
 O     1.40807     4.88952     3.11853
 O     2.87291     5.74299     5.63467
 O     0.42630    -1.12639     7.80827
 O     1.92441     7.42982     3.80164
 O    -0.13900     6.91606     2.34505
 F     2.56114    -4.60873     4.71783
Si    10.05625     3.46238    -5.69131
Si     8.52732     4.17749    -3.20636
Si    11.08173    -0.29674    -3.97857
Si     9.55279     0.41837    -1.49362
Si    -0.54851     6.88060     6.66560
Si     5.48682     4.05777    -3.14351
Si     0.42998     3.24129     8.31495
Si     6.46531     0.41845    -1.49415
Mg    -0.95791     0.30004     8.19138
Mg     4.97970    -2.47709    -1.45890
Ca     2.23333     0.30103     7.95444
Ca     6.31830    -1.60959     1.31522
 O    -0.03882     5.82987     5.59036
 O     4.57242     3.67311    -1.90420
 O     1.34418     3.62498     7.07581
 O     5.95542     1.46822    -0.41876
 O     0.35704     6.74887     8.03557
 O     7.04487     3.62085    -2.83403
 O    -1.12723     3.67813     8.00601
 O     5.56059     0.55011    -2.86358
 O     2.42045     7.26263     9.49215
 O     9.39025     4.00273    -1.83572
 O     1.05555     4.16490     9.54380
 O     8.02534     0.90500    -1.78407
Mg     0.50507     1.11043    10.76350
Mg     6.59346    -3.23156    -4.07980
 O     8.14368    -4.47204    -4.61253
 O     2.04376    -0.16998    10.30044
 F    -4.06474    -0.16132    10.24352
 O     9.16457     3.26875    -4.36849
 O     6.59133    -3.74598    -2.08953
 O     8.08825    -2.99710     0.47644
Mg     8.04694    -2.41705    -1.49415
 O     6.59577    -2.71617    -6.07023
 O     0.46357     1.68951     8.79306
 O    10.44363     0.61208    -2.81698
 O     5.04342    -1.99011    -3.54722
 O     6.50806    -1.13761    -1.03093
 F    -1.07421     2.27091    11.38359
