   64
 
Ga     0.00000     0.00000     0.00000
Ga     0.48510     2.00158     2.51133
Ga    -5.31281    -4.38297     0.00000
Ga    -4.82772    -2.38139     2.51133
Cl     1.70768    -0.77330    -0.97024
Cl    -1.22258     2.77489     3.48157
Cl    -3.60513    -5.15627    -0.97024
Cl    -6.53539    -1.60808     3.48157
Cl    -1.94543    -0.48414    -0.60743
Cl     2.43052     2.48573     3.11877
Cl    -7.25824    -4.86711    -0.60743
Cl    -2.88229    -1.89724     3.11877
Cl    -5.07027    -2.11224     0.24350
Cl    -5.07027    -4.65211     2.26783
Cl     0.24255     2.27073     0.24350
Cl     0.24255    -0.26914     2.26783
Ga    -6.27610     2.00158     2.51133
Ga    -5.79100     4.00317     5.02266
Ga   -11.58892    -2.38139     2.51133
Ga   -11.10382    -0.37980     5.02266
Cl    -4.56842     1.22828     1.54109
Cl    -7.49868     4.77647     5.99291
Cl    -9.88123    -3.15469     1.54109
Cl   -12.81149     0.39350     5.99291
Cl    -8.22153     1.51745     1.90390
Cl    -3.84558     4.48731     5.63010
Cl   -13.53434    -2.86552     1.90390
Cl    -9.15840     0.10434     5.63010
Cl   -11.34637    -0.11066     2.75484
Cl   -11.34637    -2.65053     4.77917
Cl    -6.03355     4.27231     2.75483
Cl    -6.03355     1.73244     4.77917
Ga    -0.00000     5.36064    -4.27254
Ga     0.48510     7.36222    -1.76121
Ga    -5.31281     0.97767    -4.27254
Ga    -4.82772     2.97925    -1.76121
Cl     1.70768     4.58734    -5.24278
Cl    -1.22258     8.13552    -0.79097
Cl    -3.60513     0.20437    -5.24278
Cl    -6.53539     3.75255    -0.79097
Cl    -1.94543     4.87650    -4.87997
Cl     2.43052     7.84636    -1.15377
Cl    -7.25824     0.49353    -4.87997
Cl    -2.88229     3.46339    -1.15377
Cl    -5.07027     3.24840    -4.02904
Cl    -5.07027     0.70853    -2.00471
Cl     0.24255     7.63137    -4.02904
Cl     0.24255     5.09150    -2.00471
Ga    -6.27610     7.36222    -1.76121
Ga    -5.79100     9.36380     0.75012
Ga   -11.58892     2.97925    -1.76121
Ga   -11.10382     4.98083     0.75012
Cl    -4.56842     6.58892    -2.73145
Cl    -7.49868    10.13711     1.72036
Cl    -9.88123     2.20595    -2.73145
Cl   -12.81149     5.75414     1.72036
Cl    -8.22153     6.87808    -2.36864
Cl    -3.84558     9.84795     1.35756
Cl   -13.53434     2.49511    -2.36864
Cl    -9.15840     5.46498     1.35756
Cl   -11.34637     5.24998    -1.51771
Cl   -11.34637     2.71011     0.50662
Cl    -6.03356     9.63295    -1.51771
Cl    -6.03355     7.09308     0.50662
