   64
 
Ga     0.00000     0.00000     0.00000
Ga     1.12993     0.34204     3.06507
Ga    -4.32695    -4.28566     0.25527
Ga    -3.17822    -3.93485     3.31992
Cl     1.43812    -1.71298    -0.38525
Cl    -0.31347     2.04870     3.45497
Cl    -2.88324    -5.99309    -0.13282
Cl    -4.62713    -2.23110     3.70589
Cl    -1.72676    -1.10618    -0.97333
Cl     2.85706     1.44210     4.04231
Cl    -6.05176    -5.38606    -0.72538
Cl    -1.44530    -2.82053     4.28209
Cl    -2.64034    -3.13950     1.26385
Cl    -4.86391    -5.08491     2.31236
Cl     1.68145     1.14678     1.01512
Cl    -0.54883    -0.80553     2.05100
Ga    -5.20965     1.50732     1.79170
Ga    -4.08643     1.84128     4.86261
Ga    -9.53390    -2.77063     2.03839
Ga    -8.39021    -2.42928     5.10724
Cl    -3.76109    -0.19751     1.40894
Cl    -5.53080     3.54934     5.24731
Cl    -8.08084    -4.47124     1.65309
Cl    -9.83922    -0.72335     5.49079
Cl    -6.93187     0.40474     0.81119
Cl    -2.36037     2.94788     5.83436
Cl   -11.25515    -3.87443     1.05823
Cl    -6.66027    -1.31409     6.07231
Cl    -7.85546    -1.62023     3.05487
Cl   -10.07109    -3.57643     4.09255
Cl    -3.53816     2.65823     2.81461
Cl    -5.75862     0.69399     3.83889
Ga     0.01050     4.59460    -3.96349
Ga     1.15961     4.92343    -0.89403
Ga    -4.29438     0.29337    -3.69651
Ga    -3.16703     0.61920    -0.62595
Cl     1.45203     2.88475    -4.35143
Cl    -0.28221     6.63160    -0.49553
Cl    -2.86066    -1.41974    -4.09399
Cl    -4.60911     2.32943    -0.23852
Cl    -1.72205     3.47862    -4.92720
Cl     2.88453     6.01849     0.09219
Cl    -6.02283    -0.80514    -4.67765
Cl    -1.44046     1.72409     0.34764
Cl    -2.61719     1.43431    -2.67289
Cl    -4.84293    -0.52657    -1.64727
Cl     1.69895     5.73204    -2.94721
Cl    -0.52545     3.78440    -1.90950
Ga    -5.19957     6.10183    -2.17148
Ga    -4.05762     6.42090     0.90173
Ga    -9.50219     1.81024    -1.91232
Ga    -8.38016     2.12444     1.16278
Cl    -3.74646     4.40017    -2.55598
Cl    -5.50006     8.13125     1.29553
Cl    -8.05830     0.10426    -2.30616
Cl    -9.82418     3.83638     1.54619
Cl    -6.92701     4.98845    -3.14233
Cl    -2.33521     7.52433     1.88460
Cl   -11.22530     0.70695    -2.89535
Cl    -6.65613     3.22956     2.13886
Cl    -7.83302     2.95458    -0.87950
Cl   -10.05087     0.98186     0.13307
Cl    -3.51965     7.24362    -1.14862
Cl    -5.73785     5.28262    -0.12229
