  120
 
Ga     0.00000     0.00000     0.00000
Ga     4.28642    -0.01665     1.48445
Ga    -3.28476    -0.18901     7.11754
Ga     8.05332     4.17440    -1.26739
Ga    -4.77258    -1.54417     4.35257
Ga    -0.50207    -1.57030     2.75156
Ga     7.54793     2.60622     1.48278
Ga     3.26000     2.61360    -0.00128
Ga     6.06194     1.24598    -1.28234
Ga    10.33313     1.22919    -2.87780
Ga     1.48559     1.35750     2.76553
Ga    -2.78379     1.38205     4.36775
 O     3.00883     1.40385     1.65479
 O     1.49309     0.05584    -1.19056
 O     3.24620    -1.51502     2.46537
 O    -6.29692    -1.59648     5.46032
 O    -4.77905    -0.24537     8.30554
 O    -6.53090     1.31743     4.64635
 O    -3.70946    -0.03492     5.29048
 O    -2.02951    -1.65051     1.60754
 O    -3.48615    -2.95946     4.50392
 O     4.53726     1.19370    -0.17428
 O     4.32673    -1.29197    -0.02205
 O     5.83752     0.05192     2.55245
 O     7.12781     2.75583    -0.34650
 O     8.86036     1.17848     1.44544
 O     8.49149     4.03624     2.36751
 O     0.42101    -0.15075     1.82845
 O    -1.31041     1.42929     0.04214
 O    -0.94221    -1.43056    -0.88164
Ga    -0.05407    -0.03384    -5.46900
Ga     4.23485    -0.05171    -3.98702
Ga    -3.34085    -0.22236     1.64906
Ga     8.00046     4.14009    -6.73458
Ga    -4.82543    -1.58206    -1.11960
Ga    -0.55492    -1.60520    -2.71623
Ga     7.49596     2.57215    -3.98624
Ga     3.20609     2.57842    -5.47124
Ga     6.00987     1.20980    -6.75213
Ga    10.27784     1.19296    -8.34655
Ga     1.43338     1.32033    -2.70626
Ga    -2.83761     1.34582    -1.10080
 O     2.95616     1.36731    -3.81693
 O     1.43961     0.01899    -6.65886
 O     3.19272    -1.55003    -3.00301
 O    -6.35125    -1.63227    -0.01327
 O    -4.83683    -0.28392     2.83473
 O    -6.58774     1.28326    -0.82266
 O    -3.76168    -0.07217    -0.17907
 O    -2.07768    -1.68278    -3.86501
 O    -3.53542    -2.99379    -0.97055
 O     4.48550     1.15895    -5.64365
 O     4.27787    -1.32607    -5.49399
 O     5.78465     0.01991    -2.91860
 O     7.07778     2.71889    -5.81551
 O     8.80933     1.14629    -4.02668
 O     8.43825     4.00206    -3.10242
 O     0.36994    -0.18771    -3.64133
 O    -1.36425     1.39641    -5.42889
 O    -0.99701    -1.46488    -6.35111
Ga     0.47083     3.99472     4.25686
Ga     4.74127     3.97183     2.65041
Ga    -4.10615     4.10841     8.29962
Ga     8.50683     8.16348    -0.09776
Ga    -5.58984     2.74767     5.53120
Ga    -1.30188     2.73663     7.02161
Ga     6.72988     6.90031     2.66573
Ga     2.46078     6.92105     4.26457
Ga     5.24671     5.53968    -0.10099
Ga     9.53625     5.53381     1.39004
Ga     1.96013     5.34939     7.01720
Ga    -2.33030     5.36765     5.53558
 O     1.53615     5.50265     5.18920
 O     3.21201     3.88329     1.51077
 O     1.75714     2.57689     4.40777
 O    -5.17139     2.59953     7.36068
 O    -6.85611     4.20465    11.04328
 O    -5.39856     5.51884     8.15071
 O    -2.57875     4.15929     7.19468
 O    -4.09056     2.81422     4.34973
 O    -2.34429     1.24265     8.00123
 O     5.66515     5.38967     1.72777
 O     6.05096     2.54253     2.66763
 O     4.35748     4.14593     4.48582
 O     8.25365     6.95144     1.55672
 O     6.79354     5.63529     4.17941
 O     7.00792     8.12608     4.30384
 O    -1.05264     3.94732     5.36710
 O     0.41101     5.25836     2.73942
 O     0.19526     2.77161     2.61860
Ga     0.41971     3.95783    -1.21580
Ga     4.69059     3.93620    -2.81886
Ga    -4.15873     4.07048     2.82728
Ga     8.45295     8.12973    -5.56868
Ga    -5.64553     2.71343     0.06236
Ga    -1.35444     2.70286     1.55041
Ga     6.67817     6.86535    -2.80488
Ga     2.40822     6.88432    -1.20354
Ga     5.19110     5.50699    -5.56869
Ga     9.48405     5.50059    -4.08097
Ga     1.90428     5.31509     1.54955
Ga    -2.38220     5.33305     0.06376
 O     1.48466     5.46540    -0.27931
 O     3.16517     3.85267    -3.96284
 O     1.70864     2.54312    -1.06668
 O    -5.22420     2.56165     1.89088
 O    -6.90366     4.17406     5.57025
 O    -5.44882     5.48322     2.67700
 O    -2.63331     4.12252     1.71984
 O    -4.14782     2.77515    -1.12151
 O    -2.40138     1.20928     2.53223
 O     5.61688     5.35337    -3.74138
 O     5.99970     2.50741    -2.80100
 O     4.30533     4.10902    -0.98357
 O     8.20140     6.91744    -3.91498
 O     6.73936     5.59967    -1.29076
 O     6.95924     8.09222    -1.16994
 O    -1.10476     3.91114    -0.10664
 O     0.35710     5.22325    -2.73096
 O     0.14621     2.73696    -2.85611
