   64
 
Ga     0.00000     0.00000     0.00000
As     2.45101     0.00000     0.00000
Ga    -3.26802     4.62167     0.00000
As    -0.81700     4.62167     0.00000
Ga    -3.26802     1.15542     2.00124
As    -0.81700     1.15542     2.00124
Ga    -6.53603     5.77709     2.00124
As    -4.08502     5.77709     2.00124
Ga    -3.26802    -2.31084     4.00249
As    -0.81700    -2.31084     4.00249
Ga    -6.53603     2.31084     4.00249
As    -4.08502     2.31084     4.00249
Ga    -6.53603    -1.15542     6.00373
As    -4.08502    -1.15542     6.00373
Ga    -9.80405     3.46625     6.00373
As    -7.35304     3.46625     6.00373
Ga    -3.26802     1.15542    -2.00124
As    -0.81700     1.15542    -2.00124
Ga    -6.53603     5.77709    -2.00124
As    -4.08502     5.77709    -2.00124
Ga    -3.26802    -2.31084    -0.00000
As    -0.81700    -2.31084    -0.00000
Ga    -6.53603     2.31084    -0.00000
As    -4.08502     2.31084    -0.00000
Ga    -6.53603    -1.15542     2.00124
As    -4.08502    -1.15542     2.00124
Ga    -9.80405     3.46626     2.00124
As    -7.35304     3.46626     2.00124
Ga    -6.53603    -4.62167     4.00248
As    -4.08502    -4.62167     4.00248
Ga    -9.80405    -0.00000     4.00249
As    -7.35304    -0.00000     4.00249
Ga    -3.26802    -2.31084    -4.00249
As    -0.81700    -2.31084    -4.00249
Ga    -6.53603     2.31084    -4.00249
As    -4.08502     2.31084    -4.00249
Ga    -6.53603    -1.15542    -2.00124
As    -4.08502    -1.15542    -2.00124
Ga    -9.80405     3.46626    -2.00124
As    -7.35304     3.46626    -2.00124
Ga    -6.53603    -4.62167     0.00000
As    -4.08502    -4.62167     0.00000
Ga    -9.80405    -0.00000    -0.00000
As    -7.35304    -0.00000     0.00000
Ga    -9.80405    -3.46626     2.00124
As    -7.35304    -3.46626     2.00124
Ga   -13.07207     1.15542     2.00124
As   -10.62106     1.15542     2.00124
Ga    -6.53603    -1.15542    -6.00373
As    -4.08502    -1.15543    -6.00373
Ga    -9.80404     3.46625    -6.00374
As    -7.35303     3.46625    -6.00374
Ga    -6.53604    -4.62168    -4.00250
As    -4.08503    -4.62168    -4.00249
Ga    -9.80405    -0.00000    -4.00250
As    -7.35304    -0.00000    -4.00250
Ga    -9.80406    -3.46626    -2.00126
As    -7.35304    -3.46625    -2.00125
Ga   -13.07208     1.15541    -2.00128
As   -10.62106     1.15542    -2.00126
Ga    -9.80406    -6.93251    -0.00002
As    -7.35305    -6.93251    -0.00001
Ga   -13.07208    -2.31084    -0.00003
As   -10.62107    -2.31084    -0.00002
