   64
 
Ge     0.00000     0.00000     0.00000
Ge    -4.23274     0.00000     0.00000
Ge    -2.11637    -3.66566     0.00000
Ge    -2.11637    -1.22189    -3.45602
Te    -4.23274    -2.44377    -1.72801
Te    -0.00000    -2.44377    -1.72801
Te    -2.11637     1.22189    -1.72801
Te    -2.11637    -1.22189     1.72801
Ge     4.23274     2.44377    -3.45602
Ge    -0.00000     2.44377    -3.45602
Ge     2.11637    -1.22189    -3.45602
Ge     2.11637     1.22189    -6.91204
Te    -0.00000    -0.00000    -5.18403
Te     4.23274    -0.00000    -5.18403
Te     2.11637     3.66566    -5.18403
Te     2.11637     1.22189    -1.72801
Ge     4.23274    -2.44377     3.45602
Ge    -0.00000    -2.44377     3.45602
Ge     2.11637    -6.10944     3.45602
Ge     2.11637    -3.66566    -0.00000
Te    -0.00000    -4.88755     1.72801
Te     4.23274    -4.88755     1.72801
Te     2.11637    -1.22189     1.72801
Te     2.11637    -3.66566     5.18403
Ge     8.46548     0.00000     0.00000
Ge     4.23274     0.00000     0.00000
Ge     6.34911    -3.66566     0.00000
Ge     6.34911    -1.22189    -3.45602
Te     4.23274    -2.44377    -1.72801
Te     8.46548    -2.44377    -1.72801
Te     6.34911     1.22189    -1.72801
Te     6.34911    -1.22189     1.72801
Ge     0.00000     4.88755     3.45602
Ge    -4.23274     4.88755     3.45602
Ge    -2.11637     1.22189     3.45602
Ge    -2.11637     3.66566    -0.00000
Te    -4.23274     2.44377     1.72801
Te     0.00000     2.44377     1.72801
Te    -2.11637     6.10944     1.72801
Te    -2.11637     3.66566     5.18403
Ge     4.23274     7.33132    -0.00000
Ge    -0.00000     7.33132    -0.00000
Ge     2.11637     3.66566     0.00000
Ge     2.11637     6.10944    -3.45602
Te    -0.00000     4.88755    -1.72801
Te     4.23274     4.88755    -1.72801
Te     2.11637     8.55321    -1.72801
Te     2.11637     6.10944     1.72801
Ge     4.23274     2.44377     6.91204
Ge    -0.00000     2.44377     6.91204
Ge     2.11637    -1.22189     6.91204
Ge     2.11637     1.22189     3.45602
Te    -0.00000     0.00000     5.18403
Te     4.23274     0.00000     5.18403
Te     2.11637     3.66566     5.18403
Te     2.11637     1.22189     8.64005
Ge     8.46548     4.88755     3.45602
Ge     4.23274     4.88755     3.45602
Ge     6.34911     1.22189     3.45602
Ge     6.34911     3.66566    -0.00000
Te     4.23274     2.44377     1.72801
Te     8.46548     2.44377     1.72801
Te     6.34911     6.10944     1.72801
Te     6.34911     3.66566     5.18403
