  108
 
Au     0.00000     0.00000     0.00000
Au    -2.85444     0.87332     0.91300
Au    -1.46745    -1.35364     2.17459
Au    -2.00696     0.03558     4.77747
Au     3.41444    -2.25461    -3.36223
Au     0.57188    -1.33943    -2.59016
Au     1.93735    -3.59816    -1.17705
Au     1.35768    -2.25660     1.40545
Au     6.81281    -3.16853    -5.60416
Au     3.97755    -3.60239    -5.94596
Au     5.26768    -4.56598    -3.33708
Au     4.70262    -3.21832    -0.73590
Au     0.16832     3.66651    -3.40735
Au    -3.23687     4.55082    -1.15331
Au    -1.34210     2.26578    -1.26964
Au    -1.86004     3.66099     1.33390
Au     3.02542     2.76559    -4.25656
Au     0.72782     2.33095    -5.99744
Au     2.08179     0.03885    -4.72379
Au     1.51294     1.37605    -2.13256
Au     6.41398     0.51238    -7.66734
Au     3.58447     1.42299    -6.86111
Au     5.45080    -2.24264    -8.10737
Au     4.91128    -0.86280    -5.51858
Au    -0.17891     7.37648    -5.57182
Au    -3.10326     8.15895    -4.63166
Au    -1.18347     4.60253    -5.91251
Au    -1.73596     5.94849    -3.32123
Au     3.16047     6.40032    -7.73442
Au     0.38974     6.03102    -8.16195
Au     2.22509     3.72453    -8.14809
Au     1.66910     5.06561    -5.55076
Au     6.53467     4.11414   -11.14167
Au     3.70580     5.05424   -10.33901
Au     5.62717     1.40151   -11.56629
Au     5.08475     2.78558    -8.97353
Au     2.28420     0.40726     1.83668
Au    -0.54214     1.36141     2.60733
Au     0.79707    -0.90900     4.01287
Au     0.25773     0.47798     6.62550
Au     5.69843    -0.46380    -0.37806
Au     2.85199    -0.92303    -0.76768
Au     4.12339    -1.89222     1.87963
Au     3.55449    -0.55989     4.48728
Au     9.10221    -2.69109    -3.88034
Au     6.27204    -1.79319    -2.99793
Au     7.64410    -4.01722    -1.70590
Au     7.08975    -2.66259     0.90823
Au     1.89203     5.43937     0.97202
Au    -0.37146     5.02748    -0.81141
Au     0.95249     2.71019     0.48093
Au     0.41072     4.08405     3.10814
Au     5.28127     3.20293    -2.42580
Au     2.45038     4.09665    -1.64109
Au     4.34567     0.46901    -2.91259
Au     3.77241     1.79475    -0.30221
Au     9.27695     0.97619    -7.30009
Au     5.85790     1.86997    -5.04809
Au     7.78884    -0.39175    -5.16051
Au     7.22077     0.96195    -2.53823
Au     2.04348     9.07005    -2.52687
Au    -0.72989     8.74028    -2.95958
Au     1.10933     6.40629    -2.95528
Au     0.56251     7.77144    -0.34315
Au     5.44728     6.83360    -5.91981
Au     2.60640     7.73511    -5.12761
Au     4.53343     4.13889    -6.36904
Au     3.96438     5.47338    -3.75276
Au     8.91685     4.68862    -9.45736
Au     5.99834     5.48636    -8.53204
Au     7.92080     1.90134    -9.82454
Au     7.38048     3.28043    -7.20716
Au     4.56013     2.20827     4.83649
Au     1.72633     1.76532     4.45650
Au     3.00782     0.80141     7.09701
Au     2.48053     2.18495     9.69357
Au     8.01006     0.03669     1.33974
Au     5.12855     0.86270     2.23801
Au     6.53805    -1.32490     3.50475
Au     5.96532     0.00765     6.09537
Au    11.36918    -2.27700    -2.03571
Au     8.56539    -1.30893    -1.25294
Au     9.90683    -3.57307     0.13771
Au     9.37976    -2.22012     2.74996
Au     4.16651     5.87558     2.76927
Au     1.36745     6.82037     3.58827
Au     3.20492     3.12930     2.30895
Au     2.66684     4.50667     4.92435
Au     8.16648     3.70268    -2.06784
Au     4.71891     4.53672     0.17209
Au     6.65364     2.29435     0.07113
Au     6.08713     3.62585     2.65897
Au    11.01077     2.76901    -2.92894
Au     8.72743     2.34954    -4.67475
Au    10.06553     0.03232    -3.38069
Au     9.51771     1.40701    -0.78788
Au     4.32512     9.50391    -0.72640
Au     1.50832    10.43502     0.08961
Au     3.40627     6.80548    -1.14254
Au     2.85394     8.16073     1.46006
Au     7.82159     7.39591    -4.23910
Au     4.89566     8.16473    -3.31662
Au     6.80942     4.62318    -4.58345
Au     6.25479     5.96815    -1.98169
Au    11.13625     6.39530    -6.42508
Au     8.37105     6.04907    -6.84144
Au    10.21515     3.71224    -6.82495
Au     9.66024     5.08923    -4.22608
