   64
 
Au     0.00000     0.00000     0.00000
Au    -3.45013    -2.18665     1.42425
Au    -0.41007    -4.08041    -0.89416
Au    -5.48616    -1.17434     5.02673
Cl     1.22483    -2.30804    -0.21719
Cl    -5.73998    -2.13725     2.74175
Cl    -1.73908    -1.85047    -0.60457
Cl    -3.22634    -1.34025     3.86466
Cl     1.45353     0.79440     1.34137
Cl    -4.41385    -2.04652    -1.09561
Cl    -2.03599    -5.01476    -1.96557
Cl    -5.58799    -0.51323     7.07461
Cl    -1.23781     1.97723     1.23411
Cl    -2.03549    -4.26316     1.05123
Cl     0.65067    -6.14493    -2.16597
Cl    -7.06666     0.77166     5.03295
Au    -1.73803     4.99823     3.76371
Au    -5.59030     2.86133     4.96469
Au    -2.67787     1.14795     3.10548
Au    -7.41191     3.84054     9.18007
Cl    -1.26666     2.34971     4.14004
Cl    -7.43504     2.98427     6.70777
Cl    -3.18997     3.74910     2.64520
Cl    -5.08982     3.66921     7.72074
Cl    -0.26540     5.96443     5.32421
Cl    -5.29842     1.97685     3.05095
Cl    -4.13713    -0.14789     1.38889
Cl    -6.42962     4.18757    10.99498
Cl    -3.11826     6.94998     4.80351
Cl    -3.96609     0.96085     5.27557
Cl    -1.31791    -0.78754     1.97363
Cl    -8.92024     5.88748     9.22950
Au     4.88887    -3.68868     2.70382
Au     1.56532    -5.89155     4.25673
Au     4.53390    -7.84209     1.89002
Au    -0.42716    -4.97815     7.92932
Cl     6.19946    -5.92622     2.44754
Cl    -0.69314    -5.87024     5.61565
Cl     3.15187    -5.60079     2.15900
Cl     1.82409    -5.09407     6.70145
Cl     6.28690    -3.07065     4.18528
Cl     0.80057    -5.94495     0.83854
Cl     3.19722    -8.65790     0.44503
Cl    -0.60148    -4.26584     9.97327
Cl     3.73005    -1.69305     4.07386
Cl     2.94474    -7.93290     3.94071
Cl     5.85280    -9.86836     0.73028
Cl    -1.97956    -3.02184     7.87692
Au     3.18614     1.29640     6.47014
Au    -0.43171    -0.90082     8.11702
Au     2.30782    -2.58700     5.96546
Au    -2.54959     0.13534    11.70129
Cl     3.67997    -1.34207     6.98682
Cl    -2.71034    -0.76430     9.28659
Cl     1.77064     0.04203     5.49508
Cl    -0.25087     0.11395    10.37187
Cl     4.57110     2.68690     8.18485
Cl    -0.26417    -1.66601     6.08080
Cl     0.83563    -3.87092     4.23703
Cl    -1.61521     0.00552    14.22547
Cl     1.74252     3.21573     7.54433
Cl     1.11442    -2.86686     8.19596
Cl     3.65264    -4.46680     4.72664
Cl    -3.95356     2.19545    11.92446
