  128
 
 C     0.00000     0.00000     0.00000
 C    -1.23106    -0.70451     0.00867
 C    -0.22457    -0.01065     3.42865
 C     1.00491     0.69551     3.42020
 C     2.45464    -0.00557    -0.01844
 C     1.22572    -0.71320    -0.00999
 C     2.23040    -0.01785     3.41112
 C     3.45995     0.68871     3.40157
 C     4.91110    -0.01355    -0.03880
 C     3.68033    -0.71875    -0.02959
 C     4.68627    -0.02417     3.38887
 C     5.91693     0.67984     3.37856
 C     7.36725    -0.02323    -0.06012
 C     6.13645    -0.72728    -0.05079
 C     7.14380    -0.03262     3.36730
 C     8.37453     0.67139     3.35815
 C     1.23231     2.12603    -0.00804
 C     0.00331     1.41845     0.00123
 C     1.00854     2.11380     3.41964
 C     2.23848     2.81994     3.41069
 C     3.68851     2.11774    -0.02655
 C     2.45797     1.41268    -0.01741
 C     3.46424     2.10688     3.40217
 C     4.69587     2.81038     3.39213
 C     6.14519     2.10958    -0.04693
 C     4.91474     1.40468    -0.03707
 C     5.92194     2.09754     3.37993
 C     7.15238     2.80251     3.36908
 C     8.60170     2.09947    -0.06819
 C     7.37066     1.39495    -0.05824
 C     8.37803     2.08941     3.35837
 C     9.60757     2.79566     3.34867
 C     2.46640     4.24912    -0.01826
 C     1.23593     3.54406    -0.00816
 C     2.24531     4.23785     3.41018
 C     3.47667     4.94199     3.40085
 C     4.92264     4.24001    -0.03677
 C     3.69181     3.53569    -0.02683
 C     4.70207     4.22832     3.39276
 C     5.93245     4.93344     3.38225
 C     7.37977     4.23174    -0.05713
 C     6.14898     3.52755    -0.04648
 C     7.15812     4.22067     3.37048
 C     8.38809     4.92687     3.35918
 C     9.83468     4.22498    -0.07840
 C     8.60520     3.51791    -0.06764
 C     9.61399     4.21416     3.34889
 C    10.84429     4.92008     3.33875
 C     3.70230     6.37138    -0.02824
 C     2.47129     5.66669    -0.01878
 C     3.48080     6.36055     3.39962
 C     4.71131     7.06538     3.39077
 C     6.15879     6.36288    -0.04669
 C     4.92824     5.65819    -0.03746
 C     5.93674     6.35190     3.38212
 C     7.16654     7.05818     3.37213
 C     8.61365     6.35705    -0.06705
 C     7.38460     5.65000    -0.05707
 C     8.39280     6.34548     3.35986
 C     9.62288     7.05176     3.34911
 C    11.06956     6.34864    -0.08836
 C     9.83923     5.64341    -0.07826
 C    10.84882     6.33859     3.33825
 C    12.07979     7.04315     3.32870
 C    -0.09892    -0.10008    -6.85124
 C    -1.32931    -0.80557    -6.84241
 C    -0.18390     0.20395    -3.38941
 C     1.04608     0.91004    -3.39825
 C     2.35653    -0.10680    -6.86977
 C     1.12667    -0.81353    -6.86122
 C     2.27184     0.19654    -3.40749
 C     3.50158     0.90305    -3.41728
 C     4.81335    -0.11455    -6.89006
 C     3.58263    -0.81959    -6.88075
 C     4.72649     0.18845    -3.42969
 C     5.95754     0.89300    -3.44004
 C     7.26990    -0.12342    -6.91122
 C     6.03906    -0.82805    -6.90183
 C     7.18333     0.17903    -3.45065
 C     8.41449     0.88402    -3.45992
 C     1.13538     2.02447    -6.86179
 C    -0.09395     1.31821    -6.85138
 C     1.04839     2.32826    -3.39907
 C     2.27767     3.03514    -3.40813
 C     3.59220     2.01604    -6.88038
 C     2.36120     1.31148    -6.87021
 C     3.50366     2.32159    -3.41711
 C     4.73440     3.02655    -3.42716
 C     6.04923     2.00808    -6.90061
 C     4.81837     1.30358    -6.88978
 C     5.96010     2.31157    -3.43931
 C     7.19142     3.01547    -3.44993
 C     8.50525     1.99986    -6.92175
 C     7.27497     1.29475    -6.91077
 C     8.41731     2.30196    -3.46027
 C     9.64655     3.00846    -3.46978
 C     2.36998     4.14741    -6.87326
 C     1.13964     3.44254    -6.86308
 C     2.27994     4.45318    -3.40834
 C     3.51028     5.15825    -3.41757
 C     4.82720     4.13796    -6.89186
 C     3.59613     3.43385    -6.88193
 C     4.73651     4.44535    -3.42639
 C     5.96827     5.14874    -3.43660
 C     7.28416     4.13155    -6.91208
 C     6.05398     3.42580    -6.90148
 C     7.19352     4.43417    -3.44859
 C     8.42345     5.13933    -3.45933
 C     9.73859     4.12465    -6.93320
 C     8.50973     3.41806    -6.92243
 C     9.64902     4.42604    -3.46953
 C    10.87820     5.13265    -3.47922
 C     3.60358     6.27004    -6.88061
 C     2.37218     5.56589    -6.87210
 C     3.51594     6.57605    -3.41837
 C     4.74727     7.28012    -3.42725
 C     6.06044     6.26213    -6.89919
 C     4.83019     5.55624    -6.89094
 C     5.97323     6.56708    -3.43642
 C     7.20382     7.27246    -3.44626
 C     8.51588     6.25647    -6.91941
 C     7.28676     5.54998    -6.91048
 C     8.42822     6.55746    -3.45861
 C     9.65750     7.26393    -3.46899
 C    10.97154     6.24799    -6.94058
 C     9.74135     5.54239    -6.93147
 C    10.88306     6.55023    -3.47959
 C    12.11428     7.25528    -3.48891
