  432
 
Ca     0.00000     0.00000     0.00000
Ca     8.09595    -1.12176    -0.00344
Ca     9.62105    -0.91525    -3.74187
 H     3.98551    -0.55440    -0.02841
 H     6.49238    -2.67770    -1.92592
 H     4.89352    -2.93091     1.91741
 H    11.22476     0.63711    -1.82118
 H    12.08264    -1.67784    -0.02841
 H    14.38871     1.26461     0.61760
 H    13.73149    -1.48262    -3.71689
 H     7.20076     0.00986     2.56685
 H    12.35900     0.05669    -2.59143
 H    12.61164    -2.44939    -3.90453
 H     6.02907    -3.51658     1.14880
 H     5.10432     0.41049     0.15400
 H    13.20131    -0.70939     0.15579
 H    13.25433     1.84860     1.38964
 H     5.35682    -2.09202    -1.15730
 H     6.08209    -0.95859     2.38265
 O     3.48711    -2.11699    -0.90680
 O     6.76878     0.98565    -0.51174
 O     4.41368    -1.53084     3.05117
 O    14.22872     0.08165    -2.84194
 O    10.94337    -3.02521    -3.23781
 O    11.38461     1.82364     1.64015
 O    14.86958    -0.13357    -0.51093
 O     7.89497    -3.49226     0.89928
 O     1.90159    -3.39889     1.57117
 O     1.53673    -1.01029     1.72834
 O     2.95476    -0.71891     4.70750
 O     9.48431    -2.20971    -1.57968
 O     1.75322    -3.47655    -1.73341
 O     9.64969     0.46218     0.80831
 O     8.23269     0.17270    -2.16562
 O     9.63371    -2.13016     1.73013
 O    11.40724     0.00486    -2.50062
 O    13.45562    -2.19629    -4.27926
 O     5.07731    -3.56841     1.23961
 O     4.26035     0.15739     0.52873
 O    12.35733    -0.96248     0.53052
 O    14.20609     1.90043     1.29883
 O     6.30858    -2.04019    -1.24812
 O     6.92607    -0.70549     2.00792
 S     2.35786    -2.14860    -1.85888
 S    10.25801     1.79436     0.68365
 S     0.92827    -2.33889     1.85479
 S     7.25938     1.23270    -1.88200
Ca     3.09033     0.57723     2.54188
Ca     0.19962    -5.06407    -2.54695
Ca     8.29557    -6.18583    -2.55038
Ca     9.82067    -5.97932    -6.28882
 H     4.18513    -5.61847    -2.57536
 H     6.69200    -7.74176    -4.47287
 H     5.09314    -7.99498    -0.62954
 H    11.42438    -4.42696    -4.36813
 H    12.28226    -6.74191    -2.57536
 H    14.58833    -3.79946    -1.92935
 H    13.93111    -6.54669    -6.26384
 H     7.40038    -5.05421     0.01990
 H    12.55862    -5.00738    -5.13838
 H    12.81126    -7.51346    -6.45148
 H     6.22869    -8.58065    -1.39815
 H     5.30394    -4.65358    -2.39295
 H    13.40093    -5.77345    -2.39116
 H    13.45395    -3.21547    -1.15730
 H     5.55644    -7.15609    -3.70425
 H     6.28171    -6.02266    -0.16430
 O     3.68673    -7.18106    -3.45375
 O     6.96840    -4.07842    -3.05868
 O     4.61330    -6.59490     0.50422
 O    14.42834    -4.98241    -5.38889
 O    11.14299    -8.08927    -5.78475
 O    11.58423    -3.24043    -0.90680
 O    15.06920    -5.19764    -3.05788
 O     8.09459    -8.55633    -1.64767
 O     2.10121    -8.46296    -0.97578
 O     1.73635    -6.07436    -0.81861
 O     3.15438    -5.78298     2.16055
 O     9.68393    -7.27378    -4.12663
 O     1.95284    -8.54062    -4.28036
 O     9.84931    -4.60188    -1.73864
 O     8.43231    -4.89137    -4.71257
 O     9.83333    -7.19423    -0.81682
 O    11.60686    -5.05921    -5.04757
 O    13.65524    -7.26036    -6.82621
 O     5.27693    -8.63248    -1.30734
 O     4.45996    -4.90668    -2.01822
 O    12.55695    -6.02655    -2.01643
 O    14.40571    -3.16364    -1.24812
 O     6.50820    -7.10426    -3.79507
 O     7.12569    -5.76956    -0.53903
 S     2.55748    -7.21267    -4.40583
 S    10.45763    -3.26971    -1.86330
 S     1.12789    -7.40296    -0.69216
 S     7.45899    -3.83137    -4.42895
Ca     3.28995    -4.48684    -0.00507
Ca     0.39924   -10.12814    -5.09390
Ca     8.49519   -11.24990    -5.09733
Ca    10.02029   -11.04339    -8.83576
 H     4.38475   -10.68253    -5.12231
 H     6.89162   -12.80583    -7.01982
 H     5.29276   -13.05904    -3.17649
 H    11.62400    -9.49103    -6.91508
 H    12.48187   -11.80598    -5.12231
 H    14.78795    -8.86353    -4.47630
 H    14.13073   -11.61075    -8.81079
 H     7.60000   -10.11827    -2.52705
 H    12.75824   -10.07145    -7.68533
 H    13.01088   -12.57753    -8.99843
 H     6.42831   -13.64472    -3.94510
 H     5.50356    -9.71765    -4.93990
 H    13.60055   -10.83752    -4.93811
 H    13.65357    -8.27954    -3.70425
 H     5.75606   -12.22016    -6.25120
 H     6.48133   -11.08673    -2.71125
 O     3.88634   -12.24513    -6.00070
 O     7.16802    -9.14249    -5.60563
 O     4.81292   -11.65897    -2.04273
 O    14.62796   -10.04648    -7.93584
 O    11.34260   -13.15334    -8.33170
 O    11.78385    -8.30450    -3.45375
 O    15.26882   -10.26171    -5.60483
 O     8.29421   -13.62040    -4.19462
 O     2.30083   -13.52703    -3.52273
 O     1.93597   -11.13843    -3.36556
 O     3.35400   -10.84705    -0.38640
 O     9.88354   -12.33785    -6.67358
 O     2.15245   -13.60469    -6.82731
 O    10.04892    -9.66595    -4.28559
 O     8.63193    -9.95544    -7.25952
 O    10.03295   -12.25830    -3.36377
 O    11.80648   -10.12328    -7.59452
 O    13.85486   -12.32443    -9.37316
 O     5.47655   -13.69655    -3.85429
 O     4.65958    -9.97075    -4.56517
 O    12.75657   -11.09062    -4.56337
 O    14.60533    -8.22771    -3.79507
 O     6.70782   -12.16833    -6.34202
 O     7.32531   -10.83363    -3.08598
 S     2.75709   -12.27674    -6.95277
 S    10.65724    -8.33378    -4.41025
 S     1.32751   -12.46703    -3.23910
 S     7.65861    -8.89544    -6.97590
Ca     3.48957    -9.55091    -2.55202
Ca     1.56640     0.36904     6.28374
Ca     9.66235    -0.75273     6.28031
Ca    11.18745    -0.54622     2.54188
 H     5.55191    -0.18536     6.25533
 H     8.05878    -2.30866     4.35782
 H     6.45992    -2.56187     8.20115
 H    12.79116     1.00615     4.46256
 H    13.64904    -1.30880     6.25533
 H    15.95511     1.63365     6.90134
 H    15.29789    -1.11358     2.56685
 H     8.76717     0.37890     8.85059
 H    13.92540     0.42573     3.69231
 H    14.17804    -2.08036     2.37921
 H     7.59548    -3.14754     7.43254
 H     6.67073     0.77952     6.43774
 H    14.76771    -0.34035     6.43953
 H    14.82073     2.21764     7.67339
 H     6.92322    -1.72299     5.12644
 H     7.64849    -0.58956     8.66639
 O     5.05351    -1.74795     5.37694
 O     8.33518     1.35469     5.77201
 O     5.98008    -1.16180     9.33491
 O    15.79512     0.45069     3.44180
 O    12.50977    -2.65617     3.04594
 O    12.95101     2.19267     7.92389
 O    16.43598     0.23546     5.77281
 O     9.46137    -3.12323     7.18302
 O     3.46799    -3.02985     7.85491
 O     3.10313    -0.64125     8.01208
 O     4.52116    -0.34988    10.99124
 O    11.05071    -1.84068     4.70406
 O     3.31962    -3.10751     4.55033
 O    11.21609     0.83122     7.09205
 O     9.79910     0.54173     4.11812
 O    11.20012    -1.76113     8.01387
 O    12.97364     0.37390     3.78312
 O    15.02202    -1.82726     2.00448
 O     6.64371    -3.19937     7.52335
 O     5.82675     0.52642     6.81247
 O    13.92373    -0.59345     6.81427
 O    15.77249     2.26947     7.58257
 O     7.87499    -1.67116     5.03562
 O     8.49247    -0.33646     8.29166
 S     3.92426    -1.77956     4.42487
 S    11.82441     2.16339     6.96739
 S     2.49467    -1.96985     8.13853
 S     8.82578     1.60173     4.40174
Ca     4.65673     0.94626     8.82562
Ca     1.76602    -4.69503     3.73679
Ca     9.86197    -5.81679     3.73336
Ca    11.38707    -5.61028    -0.00507
 H     5.75153    -5.24943     3.70838
 H     8.25840    -7.37273     1.81088
 H     6.65954    -7.62594     5.65420
 H    12.99078    -4.05792     1.91561
 H    13.84866    -6.37287     3.70838
 H    16.15473    -3.43042     4.35439
 H    15.49751    -6.17765     0.01990
 H     8.96678    -4.68517     6.30365
 H    14.12502    -4.63834     1.14536
 H    14.37766    -7.14442    -0.16773
 H     7.79509    -8.21161     4.88559
 H     6.87034    -4.28454     3.89079
 H    14.96733    -5.40442     3.89258
 H    15.02035    -2.84643     5.12644
 H     7.12284    -6.78706     2.57949
 H     7.84811    -5.65362     6.11944
 O     5.25313    -6.81202     2.82999
 O     8.53480    -3.70938     3.22506
 O     6.17970    -6.22587     6.78796
 O    15.99474    -4.61338     0.89485
 O    12.70939    -7.72024     0.49899
 O    13.15063    -2.87140     5.37694
 O    16.63560    -4.82860     3.22586
 O     9.66099    -8.18729     4.63607
 O     3.66761    -8.09392     5.30797
 O     3.30275    -5.70532     5.46513
 O     4.72078    -5.41394     8.44429
 O    11.25033    -6.90474     2.15711
 O     3.51924    -8.17158     2.00338
 O    11.41571    -4.23285     4.54510
 O     9.99871    -4.52233     1.57117
 O    11.39973    -6.82519     5.46692
 O    13.17326    -4.69017     1.23618
 O    15.22164    -6.89133    -0.54247
 O     6.84333    -8.26344     4.97640
 O     6.02637    -4.53764     4.26552
 O    14.12335    -5.65752     4.26732
 O    15.97211    -2.79460     5.03562
 O     8.07460    -6.73523     2.48867
 O     8.69209    -5.40053     5.74471
 S     4.12388    -6.84363     1.87792
 S    12.02403    -2.90068     4.42044
 S     2.69429    -7.03392     5.59159
 S     9.02540    -3.46233     1.85479
Ca     4.85635    -4.11780     6.27867
Ca     1.96564    -9.75910     1.18984
Ca    10.06159   -10.88086     1.18641
Ca    11.58669   -10.67435    -2.55202
 H     5.95115   -10.31350     1.16143
 H     8.45802   -12.43680    -0.73607
 H     6.85916   -12.69001     3.10725
 H    13.19040    -9.12199    -0.63134
 H    14.04828   -11.43694     1.16143
 H    16.35435    -8.49449     1.80744
 H    15.69713   -11.24172    -2.52705
 H     9.16640    -9.74924     3.75670
 H    14.32464    -9.70241    -1.40159
 H    14.57728   -12.20849    -2.71468
 H     7.99471   -13.27568     2.33864
 H     7.06996    -9.34861     1.34384
 H    15.16695   -10.46848     1.34564
 H    15.21997    -7.91050     2.57949
 H     7.32246   -11.85112     0.03254
 H     8.04773   -10.71769     3.57249
 O     5.45275   -11.87609     0.28305
 O     8.73442    -8.77345     0.67811
 O     6.37932   -11.28993     4.24101
 O    16.19436    -9.67745    -1.65209
 O    12.90901   -12.78431    -2.04796
 O    13.35025    -7.93546     2.82999
 O    16.83522    -9.89267     0.67891
 O     9.86061   -13.25136     2.08912
 O     3.86723   -13.15799     2.76102
 O     3.50237   -10.76939     2.91818
 O     4.92040   -10.47801     5.89734
 O    11.44995   -11.96881    -0.38984
 O     3.71886   -13.23565    -0.54356
 O    11.61533    -9.29692     1.99815
 O    10.19833    -9.58640    -0.97578
 O    11.59935   -11.88926     2.91997
 O    13.37288    -9.75424    -1.31077
 O    15.42126   -11.95539    -3.08942
 O     7.04295   -13.32751     2.42946
 O     6.22598    -9.60171     1.71857
 O    14.32297   -10.72158     1.72037
 O    16.17173    -7.85867     2.48867
 O     8.27422   -11.79929    -0.05827
 O     8.89171   -10.46459     3.19776
 S     4.32350   -11.90770    -0.66903
 S    12.22364    -7.96474     1.87349
 S     2.89391   -12.09799     3.04464
 S     9.22501    -8.52640    -0.69216
Ca     5.05597    -9.18187     3.73172
Ca     3.13280     0.73807    12.56748
Ca    11.22875    -0.38369    12.56405
Ca    12.75386    -0.17718     8.82562
 H     7.11831     0.18368    12.53907
 H     9.62518    -1.93962    10.64157
 H     8.02632    -2.19283    14.48489
 H    14.35757     1.37518    10.74630
 H    15.21544    -0.93977    12.53907
 H    17.52151     2.00268    13.18508
 H    16.86429    -0.74454     8.85059
 H    10.33357     0.74794    15.13434
 H    15.49180     0.79476     9.97605
 H    15.74444    -1.71132     8.66296
 H     9.16188    -2.77851    13.71628
 H     8.23713     1.14856    12.72148
 H    16.33411     0.02869    12.72328
 H    16.38713     2.58667    13.95713
 H     8.48962    -1.35395    11.41018
 H     9.21490    -0.22052    14.95013
 O     6.61991    -1.37892    11.66069
 O     9.90158     1.72372    12.05575
 O     7.54648    -0.79276    15.61865
 O    17.36152     0.81973     9.72555
 O    14.07617    -2.28713     9.32968
 O    14.51741     2.56171    14.20763
 O    18.00238     0.60450    12.05655
 O    11.02777    -2.75419    13.46676
 O     5.03439    -2.66082    14.13866
 O     4.66953    -0.27222    14.29582
 O     6.08756     0.01916    17.27498
 O    12.61711    -1.47164    10.98780
 O     4.88602    -2.73848    10.83408
 O    12.78249     1.20026    13.37579
 O    11.36550     0.91077    10.40186
 O    12.76652    -1.39209    14.29761
 O    14.54004     0.74293    10.06687
 O    16.58842    -1.45822     8.28822
 O     8.21011    -2.83034    13.80710
 O     7.39315     0.89546    13.09621
 O    15.49013    -0.22441    13.09801
 O    17.33889     2.63850    13.86631
 O     9.44139    -1.30212    11.31936
 O    10.05887     0.03258    14.57540
 S     5.49066    -1.41053    10.70861
 S    13.39081     2.53243    13.25113
 S     4.06107    -1.60082    14.42228
 S    10.39218     1.97077    10.68548
Ca     6.22313     1.31530    15.10936
Ca     3.33242    -4.32599    10.02054
Ca    11.42837    -5.44776    10.01710
Ca    12.95347    -5.24125     6.27867
 H     7.31793    -4.88039     9.99212
 H     9.82480    -7.00369     8.09462
 H     8.22594    -7.25690    11.93794
 H    14.55718    -3.68889     8.19935
 H    15.41506    -6.00384     9.99212
 H    17.72113    -3.06138    10.63813
 H    17.06391    -5.80861     6.30364
 H    10.53319    -4.31613    12.58739
 H    15.69142    -4.26931     7.42910
 H    15.94406    -6.77539     6.11601
 H     9.36149    -7.84257    11.16933
 H     8.43675    -3.91551    10.17453
 H    16.53373    -5.03538    10.17633
 H    16.58675    -2.47739    11.41018
 H     8.68924    -6.41802     8.86323
 H     9.41451    -5.28459    12.40318
 O     6.81953    -6.44298     9.11374
 O    10.10120    -3.34034     9.50880
 O     7.74610    -5.85683    13.07170
 O    17.56114    -4.24434     7.17860
 O    14.27579    -7.35120     6.78273
 O    14.71703    -2.50236    11.66069
 O    18.20200    -4.45957     9.50960
 O    11.22739    -7.81826    10.91982
 O     5.23401    -7.72489    11.59171
 O     4.86915    -5.33629    11.74887
 O     6.28718    -5.04491    14.72803
 O    12.81673    -6.53571     8.44085
 O     5.08564    -7.80255     8.28713
 O    12.98211    -3.86381    10.82884
 O    11.56512    -4.15330     7.85491
 O    12.96614    -6.45616    11.75067
 O    14.73966    -4.32114     7.51992
 O    16.78804    -6.52229     5.74127
 O     8.40973    -7.89440    11.26015
 O     7.59277    -4.16861    10.54926
 O    15.68975    -5.28848    10.55106
 O    17.53851    -2.42556    11.31937
 O     9.64101    -6.36619     8.77242
 O    10.25849    -5.03149    12.02845
 S     5.69028    -6.47459     8.16166
 S    13.59043    -2.53164    10.70418
 S     4.26069    -6.66488    11.87533
 S    10.59180    -3.09330     8.13853
Ca     6.42275    -3.74877    12.56241
Ca     3.53204    -9.39006     7.47359
Ca    11.62799   -10.51183     7.47015
Ca    13.15309   -10.30532     3.73172
 H     7.51755    -9.94446     7.44517
 H    10.02442   -12.06776     5.54767
 H     8.42556   -12.32097     9.39100
 H    14.75680    -8.75295     5.65241
 H    15.61468   -11.06790     7.44517
 H    17.92075    -8.12545     8.09118
 H    17.26353   -10.87268     3.75670
 H    10.73280    -9.38020    10.04044
 H    15.89104    -9.33337     4.88215
 H    16.14368   -11.83946     3.56906
 H     9.56111   -12.90664     8.62238
 H     8.63636    -8.97958     7.62758
 H    16.73335   -10.09945     7.62938
 H    16.78637    -7.54146     8.86323
 H     8.88886   -11.48209     6.31628
 H     9.61413   -10.34866     9.85624
 O     7.01915   -11.50705     6.56679
 O    10.30082    -8.40441     6.96185
 O     7.94572   -10.92090    10.52475
 O    17.76076    -9.30841     4.63165
 O    14.47541   -12.41527     4.23578
 O    14.91665    -7.56643     9.11374
 O    18.40162    -9.52364     6.96266
 O    11.42701   -12.88233     8.37287
 O     5.43363   -12.78895     9.04476
 O     5.06877   -10.40035     9.20192
 O     6.48680   -10.10898    12.18108
 O    13.01635   -11.59978     5.89391
 O     5.28526   -12.86661     5.74018
 O    13.18173    -8.92788     8.28190
 O    11.76473    -9.21737     5.30797
 O    13.16575   -11.52023     9.20372
 O    14.93928    -9.38520     4.97297
 O    16.98766   -11.58636     3.19433
 O     8.60935   -12.95847     8.71320
 O     7.79239    -9.23268     8.00231
 O    15.88937   -10.35255     8.00411
 O    17.73813    -7.48963     8.77242
 O     9.84062   -11.43026     6.22547
 O    10.45811   -10.09556     9.48150
 S     5.88990   -11.53866     5.61471
 S    13.79005    -7.59571     8.15723
 S     4.46031   -11.72895     9.32838
 S    10.79142    -8.15737     5.59159
Ca     6.62237    -8.81284    10.01546
