  216
 
Na     0.00000     0.00000     0.00000
Cl     2.82000     0.00000     0.00000
Na     0.00000     3.98808     0.00000
Cl     2.82000     3.98808     0.00000
Na     2.82000     1.99404    -1.99404
Cl     0.00000     1.99404    -1.99404
Na     2.82000     1.99404     1.99404
Cl     0.00000     1.99404     1.99404
Na    -5.64000     0.00000     0.00000
Cl    -2.82000     0.00000     0.00000
Na    -5.64000     3.98808     0.00000
Cl    -2.82000     3.98808     0.00000
Na    -2.82000     1.99404    -1.99404
Cl    -5.64000     1.99404    -1.99404
Na    -2.82000     1.99404     1.99404
Cl    -5.64000     1.99404     1.99404
Na   -11.28000     0.00000    -0.00000
Cl    -8.46000     0.00000    -0.00000
Na   -11.28000     3.98808    -0.00000
Cl    -8.46000     3.98808     0.00000
Na    -8.46000     1.99404    -1.99404
Cl   -11.28000     1.99404    -1.99404
Na    -8.46000     1.99404     1.99404
Cl   -11.28000     1.99404     1.99404
Na     0.00000    -3.98808    -3.98808
Cl     2.82000    -3.98808    -3.98808
Na     0.00000     0.00000    -3.98808
Cl     2.82000     0.00000    -3.98808
Na     2.82000    -1.99404    -5.98212
Cl     0.00000    -1.99404    -5.98212
Na     2.82000    -1.99404    -1.99404
Cl     0.00000    -1.99404    -1.99404
Na    -5.64000    -3.98808    -3.98808
Cl    -2.82000    -3.98808    -3.98808
Na    -5.64000     0.00000    -3.98808
Cl    -2.82000     0.00000    -3.98808
Na    -2.82000    -1.99404    -5.98212
Cl    -5.64000    -1.99404    -5.98212
Na    -2.82000    -1.99404    -1.99404
Cl    -5.64000    -1.99404    -1.99404
Na   -11.28000    -3.98808    -3.98808
Cl    -8.46000    -3.98808    -3.98808
Na   -11.28000     0.00000    -3.98808
Cl    -8.46000     0.00000    -3.98808
Na    -8.46000    -1.99404    -5.98212
Cl   -11.28000    -1.99404    -5.98212
Na    -8.46000    -1.99404    -1.99404
Cl   -11.28000    -1.99404    -1.99404
Na     0.00000    -7.97616    -7.97616
Cl     2.82000    -7.97616    -7.97616
Na     0.00000    -3.98808    -7.97616
Cl     2.82000    -3.98808    -7.97616
Na     2.82000    -5.98212    -9.97021
Cl     0.00000    -5.98212    -9.97021
Na     2.82000    -5.98212    -5.98212
Cl     0.00000    -5.98212    -5.98212
Na    -5.64000    -7.97616    -7.97616
Cl    -2.82000    -7.97616    -7.97616
Na    -5.64000    -3.98808    -7.97616
Cl    -2.82000    -3.98808    -7.97616
Na    -2.82000    -5.98212    -9.97021
Cl    -5.64000    -5.98212    -9.97021
Na    -2.82000    -5.98212    -5.98212
Cl    -5.64000    -5.98212    -5.98212
Na   -11.28000    -7.97616    -7.97616
Cl    -8.46000    -7.97616    -7.97616
Na   -11.28000    -3.98808    -7.97616
Cl    -8.46000    -3.98808    -7.97616
Na    -8.46000    -5.98212    -9.97021
Cl   -11.28000    -5.98212    -9.97021
Na    -8.46000    -5.98212    -5.98212
Cl   -11.28000    -5.98212    -5.98212
Na     0.00000    -3.98808     3.98808
Cl     2.82000    -3.98808     3.98808
Na     0.00000     0.00000     3.98808
Cl     2.82000     0.00000     3.98808
Na     2.82000    -1.99404     1.99404
Cl     0.00000    -1.99404     1.99404
Na     2.82000    -1.99404     5.98212
Cl     0.00000    -1.99404     5.98212
Na    -5.64000    -3.98808     3.98808
Cl    -2.82000    -3.98808     3.98808
Na    -5.64000     0.00000     3.98808
Cl    -2.82000     0.00000     3.98808
Na    -2.82000    -1.99404     1.99404
Cl    -5.64000    -1.99404     1.99404
Na    -2.82000    -1.99404     5.98212
Cl    -5.64000    -1.99404     5.98212
Na   -11.28000    -3.98808     3.98808
Cl    -8.46000    -3.98808     3.98808
Na   -11.28000     0.00000     3.98808
Cl    -8.46000     0.00000     3.98808
Na    -8.46000    -1.99404     1.99404
Cl   -11.28000    -1.99404     1.99404
Na    -8.46000    -1.99404     5.98212
Cl   -11.28000    -1.99404     5.98212
Na     0.00000    -7.97616    -0.00000
Cl     2.82000    -7.97616    -0.00000
Na     0.00000    -3.98808    -0.00000
Cl     2.82000    -3.98808    -0.00000
Na     2.82000    -5.98212    -1.99404
Cl     0.00000    -5.98212    -1.99404
Na     2.82000    -5.98212     1.99404
Cl     0.00000    -5.98212     1.99404
Na    -5.64000    -7.97616    -0.00000
Cl    -2.82000    -7.97616    -0.00000
Na    -5.64000    -3.98808    -0.00000
Cl    -2.82000    -3.98808    -0.00000
Na    -2.82000    -5.98212    -1.99404
Cl    -5.64000    -5.98212    -1.99404
Na    -2.82000    -5.98212     1.99404
Cl    -5.64000    -5.98212     1.99404
Na   -11.28000    -7.97616    -0.00000
Cl    -8.46000    -7.97616    -0.00000
Na   -11.28000    -3.98808    -0.00000
Cl    -8.46000    -3.98808    -0.00000
Na    -8.46000    -5.98212    -1.99404
Cl   -11.28000    -5.98212    -1.99404
Na    -8.46000    -5.98212     1.99404
Cl   -11.28000    -5.98212     1.99404
Na     0.00000   -11.96425    -3.98808
Cl     2.82000   -11.96425    -3.98808
Na     0.00000    -7.97616    -3.98808
Cl     2.82000    -7.97616    -3.98808
Na     2.82000    -9.97021    -5.98212
Cl     0.00000    -9.97021    -5.98212
Na     2.82000    -9.97021    -1.99404
Cl     0.00000    -9.97021    -1.99404
Na    -5.64000   -11.96425    -3.98808
Cl    -2.82000   -11.96425    -3.98808
Na    -5.64000    -7.97616    -3.98808
Cl    -2.82000    -7.97616    -3.98808
Na    -2.82000    -9.97021    -5.98212
Cl    -5.64000    -9.97021    -5.98212
Na    -2.82000    -9.97021    -1.99404
Cl    -5.64000    -9.97021    -1.99404
Na   -11.28000   -11.96425    -3.98808
Cl    -8.46000   -11.96425    -3.98808
Na   -11.28000    -7.97616    -3.98808
Cl    -8.46000    -7.97616    -3.98808
Na    -8.46000    -9.97021    -5.98212
Cl   -11.28000    -9.97021    -5.98212
Na    -8.46000    -9.97021    -1.99404
Cl   -11.28000    -9.97021    -1.99404
Na     0.00000    -7.97616     7.97616
Cl     2.82000    -7.97616     7.97616
Na     0.00000    -3.98808     7.97616
Cl     2.82000    -3.98808     7.97616
Na     2.82000    -5.98212     5.98212
Cl     0.00000    -5.98212     5.98212
Na     2.82000    -5.98212     9.97021
Cl     0.00000    -5.98212     9.97021
Na    -5.64000    -7.97616     7.97616
Cl    -2.82000    -7.97616     7.97616
Na    -5.64000    -3.98808     7.97616
Cl    -2.82000    -3.98808     7.97616
Na    -2.82000    -5.98212     5.98212
Cl    -5.64000    -5.98212     5.98212
Na    -2.82000    -5.98212     9.97021
Cl    -5.64000    -5.98212     9.97021
Na   -11.28000    -7.97616     7.97616
Cl    -8.46000    -7.97616     7.97616
Na   -11.28000    -3.98808     7.97616
Cl    -8.46000    -3.98808     7.97616
Na    -8.46000    -5.98212     5.98212
Cl   -11.28000    -5.98212     5.98212
Na    -8.46000    -5.98212     9.97021
Cl   -11.28000    -5.98212     9.97021
Na     0.00000   -11.96425     3.98808
Cl     2.82000   -11.96425     3.98808
Na     0.00000    -7.97616     3.98808
Cl     2.82000    -7.97616     3.98808
Na     2.82000    -9.97021     1.99404
Cl     0.00000    -9.97021     1.99404
Na     2.82000    -9.97021     5.98212
Cl     0.00000    -9.97021     5.98212
Na    -5.64000   -11.96425     3.98808
Cl    -2.82000   -11.96425     3.98808
Na    -5.64000    -7.97616     3.98808
Cl    -2.82000    -7.97616     3.98808
Na    -2.82000    -9.97021     1.99404
Cl    -5.64000    -9.97021     1.99404
Na    -2.82000    -9.97021     5.98212
Cl    -5.64000    -9.97021     5.98212
Na   -11.28000   -11.96425     3.98808
Cl    -8.46000   -11.96425     3.98808
Na   -11.28000    -7.97616     3.98808
Cl    -8.46000    -7.97616     3.98808
Na    -8.46000    -9.97021     1.99404
Cl   -11.28000    -9.97021     1.99404
Na    -8.46000    -9.97021     5.98212
Cl   -11.28000    -9.97021     5.98212
Na     0.00000   -15.95233    -0.00000
Cl     2.82000   -15.95233    -0.00000
Na     0.00000   -11.96425    -0.00000
Cl     2.82000   -11.96425     0.00000
Na     2.82000   -13.95829    -1.99404
Cl     0.00000   -13.95829    -1.99404
Na     2.82000   -13.95829     1.99404
Cl     0.00000   -13.95829     1.99404
Na    -5.64000   -15.95233    -0.00000
Cl    -2.82000   -15.95233    -0.00000
Na    -5.64000   -11.96425    -0.00000
Cl    -2.82000   -11.96425     0.00000
Na    -2.82000   -13.95829    -1.99404
Cl    -5.64000   -13.95829    -1.99404
Na    -2.82000   -13.95829     1.99404
Cl    -5.64000   -13.95829     1.99404
Na   -11.28000   -15.95233    -0.00000
Cl    -8.46000   -15.95233    -0.00000
Na   -11.28000   -11.96425    -0.00000
Cl    -8.46000   -11.96425     0.00000
Na    -8.46000   -13.95829    -1.99404
Cl   -11.28000   -13.95829    -1.99404
Na    -8.46000   -13.95829     1.99404
Cl   -11.28000   -13.95829     1.99404
