  192
 
Zn     0.00000     0.00000     0.00000
 O     6.92246     3.40793     0.47368
Zn     5.28806     2.51368    -0.08854
Ca     8.14479     4.89085    -0.95038
 O     1.89516     5.20796     3.41999
 O     7.95591     5.77719     1.07096
Si     8.10952     2.52069     1.12424
 O     2.71910     1.95569    -2.79418
Ca     3.81903     4.23293    -3.17583
Si     5.63199     6.79243    -2.66721
 O     5.81558     3.56242    -3.54024
 O     5.28859     6.34789    -4.15519
Ca     1.91011     3.60077     1.05645
 O     1.46844     4.54240    -1.00215
 O     3.30295     2.64319    -0.39983
Si     2.63984     1.43467    -1.20548
Si     3.35632     5.85277     2.96621
 O     4.29425     2.70502     3.28380
Ca     6.02876     4.05498     3.43248
 O     4.28535     5.27185     4.12247
 O     3.65149     4.97523     1.63706
 O     1.09378     1.53672    -0.89667
 O     5.03699     5.55046    -1.80487
 O     9.35263     3.39925     0.62378
Zn    -1.14813     5.95383     0.28509
 O     5.91460     7.49611     0.69279
Zn     4.60067     5.82834     0.11112
Ca     6.15900     9.39269    -0.61528
 O     0.94656     9.69480     3.29164
 O     6.02574    10.20791     1.46554
Si     7.27453     7.12848     1.43315
 O     1.95766     6.64600    -2.63504
Ca     2.98049     8.68109    -2.01330
Si     4.43870    11.38196    -2.56378
 O     5.14950     8.17290    -2.11988
 O     3.77895    10.21974    -3.48890
Ca     1.88381     8.25060     1.31212
 O     1.42048     9.30832    -0.52915
 O     2.55609     6.92765    -0.26289
Si     1.51916     6.10089    -1.13766
Si     2.41064    10.45490     3.38310
 O     3.32999     7.38067     2.68115
Ca     4.99957     8.80381     2.74890
 O     3.33326     9.49500     4.29459
 O     3.02971    10.11244     1.94653
 O     0.06689     6.81815    -1.00469
 O     4.19489    10.71875    -1.13958
 O     8.25915     8.40440     1.35247
Zn     5.57943     1.24096    -5.98658
 O    12.00857     4.75657    -4.58863
Zn    10.61527     4.12962    -5.82602
Ca    13.55303     6.44482    -6.84013
 O     7.26514     6.61620    -2.63083
 O    13.28834     7.29737    -4.84425
Si    13.44819     4.01486    -4.63393
 O     8.22376     3.51123    -8.55944
Ca     9.31863     5.66051    -9.13740
Si    10.91415     8.29615    -8.41569
 O    11.51880     5.18070    -9.29650
 O    10.69208     7.91365    -9.94124
Ca     6.97622     4.93257    -4.83002
 O     6.68944     5.96368    -6.83328
 O     8.64056     4.10082    -6.07768
Si     8.09419     2.92276    -7.03674
Si     8.74939     7.34282    -2.75047
 O     9.54644     4.12669    -2.43414
Ca    11.29749     5.49285    -2.57578
 O     9.39790     6.86898    -1.36908
 O     9.58204     6.49329    -3.82693
 O     6.55085     2.86770    -6.68679
 O    10.33008     7.01325    -7.62446
 O    14.43908     4.96881    -5.44566
Zn     4.15591     7.38572    -5.59108
 O    11.06658     8.93798    -5.03459
Zn     9.83650     7.27137    -5.67590
Ca    11.45325    10.86350    -6.44325
 O     6.02999    11.43708    -2.83006
 O    11.38648    11.73278    -4.42619
Si    12.55404     8.63648    -4.52013
 O     7.28951     8.11412    -8.40552
Ca     8.23922    10.23128    -8.01666
Si     9.96560    12.96438    -8.26416
 O    10.37417     9.67515    -7.89814
 O     9.32765    11.81089    -9.19691
Ca     7.32398     9.71312    -4.54561
 O     6.95922    10.81994    -6.36271
 O     7.88527     8.16142    -5.93684
Si     6.83160     7.52655    -6.93433
Si     7.52967    11.86774    -2.32715
 O     8.67746     8.86236    -3.07930
Ca    10.33863    10.29238    -3.17586
 O     7.79176    10.80633    -1.11665
 O     8.44935    11.37708    -3.53069
 O     5.43855     8.35686    -6.78435
 O     9.65851    12.49419    -6.78908
 O    13.30107     9.92712    -5.13593
Zn     5.74134     0.76845     5.53731
 O    13.19039     4.52282     6.01986
Zn    11.05720     3.15231     5.41754
Ca    13.85331     5.93317     4.41892
 O     7.68018     6.01088     8.02592
 O    13.82441     6.76587     6.50026
Si    14.00293     3.28376     6.73585
 O     8.05791     2.84501     2.74431
Ca     9.70848     5.01967     2.09634
Si    11.50765     7.60036     2.87474
 O    11.80108     4.44476     2.05125
 O    10.73032     6.89163     1.68812
Ca     7.63083     4.19246     6.58336
 O     7.22225     5.28574     4.73526
 O     9.18597     3.42562     5.02572
Si     8.40173     2.23791     4.23932
Si     9.13631     6.72004     8.33079
 O     9.87287     3.60227     8.78561
Ca    11.59040     5.02564     8.98432
 O     9.69544     6.18296     9.72322
 O    10.15932     5.93104     7.34956
 O     6.97126     2.37709     4.92624
 O    11.68801     6.49270     4.06013
 O    14.73617     4.50118     5.90579
Zn     4.52488     6.76925     5.94904
 O    11.58311     8.38955     6.52671
Zn    10.45087     6.68260     5.58076
Ca    12.07906    10.25660     4.79643
 O     6.61355    10.66551     8.41030
 O    11.82535    11.08180     6.99619
Si    13.12699     8.14373     6.79973
 O     6.80777     7.23086     3.02895
Ca     8.73939     9.41321     3.35414
Si    10.31987    12.23987     3.03353
 O    11.02290     9.00098     3.36545
 O     9.64624    11.05332     2.19682
Ca     7.33308     9.01752     6.84446
 O     7.21293    10.11378     4.84214
 O     8.68205     7.56745     4.78102
Si     7.30016     6.83570     4.55494
Si     8.05143    11.35629     8.90279
 O     8.94252     8.25491     8.04247
Ca    10.65322     9.57769     8.18282
 O     8.49352    10.28731    10.02334
 O     9.05295    11.15137     7.66823
 O     6.25746     7.64441     5.50160
 O    10.23502    11.78109     4.56071
 O    13.76628     9.39477     6.01953
Zn    11.03763     2.29272    -0.29395
 O    17.80263     5.65220     0.85979
Zn    16.41424     4.84034    -0.30772
Ca    19.14814     7.33584    -1.27978
 O    13.04437     7.55812     2.25869
 O    19.19692     8.25377     0.68787
Si    19.25634     4.94774     0.90208
 O    13.94203     4.29370    -3.08643
Ca    14.99289     6.52145    -3.71534
Si    16.81925     9.11406    -2.92794
 O    17.08133     5.92314    -3.73111
 O    15.90055     8.48753    -4.05644
Ca    12.91057     5.77815     0.71048
 O    12.51487     6.78936    -1.25712
 O    14.44166     4.89889    -0.63731
Si    13.81236     3.72573    -1.55328
Si    14.51947     8.26352     2.50482
 O    15.24289     5.06342     3.02478
Ca    17.05968     6.44850     2.84577
 O    15.04289     7.73295     3.90933
 O    15.47127     7.43114     1.51098
 O    12.28438     3.70426    -1.18342
 O    17.02173     7.97430    -1.78363
 O    20.25336     5.90886     0.10444
Zn     9.88079     8.23798     0.12794
 O    16.98627     9.88770     0.66733
Zn    15.79721     8.16716    -0.24840
Ca    17.49400    11.82135    -0.94337
 O    11.91832    12.11427     2.66122
 O    17.28696    12.64620     1.19727
Si    18.50695     9.61197     1.01480
 O    12.35111     8.90422    -2.89418
Ca    14.18707    10.97519    -2.23256
Si    15.65601    13.72696    -2.77103
 O    16.40233    10.52794    -2.39299
 O    15.00231    12.52844    -3.64060
Ca    12.71709    10.52407     1.03785
 O    12.64606    11.60568    -0.85553
 O    14.04325     9.02999    -1.03994
Si    12.64420     8.34644    -1.35956
Si    13.35652    12.80660     3.14796
 O    14.35539     9.78500     2.19771
Ca    16.05687    11.16358     2.24628
 O    13.66200    11.80457     4.39468
 O    14.27821    12.41905     1.92710
 O    11.60247     9.14412    -0.41177
 O    15.54785    13.18629    -1.29310
 O    19.18428    10.92769     0.34631
