  120
 
 C     0.00000     0.00000     0.00000
 C     1.41031     0.00000     0.00000
 C    -0.70623     1.22228     0.00000
 C    -0.76372    -1.31320    -0.03653
 C     2.17935    -1.30600     0.06657
 C    -2.21991     1.24590     0.08311
 H    -0.99016    -1.66280     0.75860
 H    -0.22071    -2.02613    -0.53592
 H    -1.53453    -1.23769    -0.59779
 H     3.02712    -1.22325     0.60323
 H     2.32697    -1.59936    -0.73017
 H     1.70673    -1.98612     0.59291
 H    -2.52803     1.92377     0.69661
 H    -2.62698     1.46207    -0.73426
 H    -2.56782     0.44846     0.48847
 C     2.11925     1.21978    -0.04659
 C     1.41302     2.44206    -0.04659
 C     0.00307     2.44297    -0.04678
 C    -0.76668     3.74910    -0.11405
 H    -1.61374     3.66622    -0.65000
 H    -0.91359     4.04233     0.68340
 H    -0.29335     4.42909    -0.63968
 C     2.17604     3.75539    -0.01077
 H     2.40354     4.10577    -0.80538
 H     1.63339     4.46924     0.48844
 H     2.94754     3.67975     0.55120
 C     3.63329     1.19707    -0.12988
 H     3.94141     0.51920    -0.74339
 H     4.04036     0.98090     0.68749
 H     3.98120     1.99451    -0.53525
 C     4.93862    -1.24630     3.53304
 C     6.34893    -1.24630     3.53304
 C     4.23239    -0.02402     3.53304
 C     4.17490    -2.55949     3.49651
 C     7.11798    -2.55229     3.59961
 C     2.71871    -0.00040     3.61615
 H     3.94846    -2.90909     4.29164
 H     4.71791    -3.27243     2.99712
 H     3.40409    -2.48399     2.93525
 H     7.96574    -2.46955     4.13627
 H     7.26559    -2.84566     2.80287
 H     6.64535    -3.23242     4.12595
 H     2.41059     0.67747     4.22965
 H     2.31164     0.21577     2.79878
 H     2.37080    -0.79784     4.02151
 C     7.05787    -0.02652     3.48645
 C     6.35164     1.19576     3.48645
 C     4.94169     1.19667     3.48626
 C     4.17195     2.50280     3.41899
 H     3.32488     2.41992     2.88304
 H     4.02503     2.79603     4.21644
 H     4.64527     3.18280     2.89336
 C     7.11466     2.50909     3.52227
 H     7.34216     2.85947     2.72766
 H     6.57201     3.22294     4.02148
 H     7.88616     2.43345     4.08424
 C     8.57191    -0.04922     3.40316
 H     8.88003    -0.72709     2.78965
 H     8.97898    -0.26540     4.22053
 H     8.91982     0.74821     2.99779
 C    -3.24856     2.00898     3.61642
 C    -1.83825     2.00898     3.61642
 C    -3.95479     3.23126     3.61642
 C    -4.01228     0.69579     3.57989
 C    -1.06920     0.70299     3.68299
 C    -5.46847     3.25488     3.69952
 H    -4.23872     0.34619     4.37502
 H    -3.46927    -0.01715     3.08050
 H    -4.78308     0.77129     3.01863
 H    -0.22144     0.78573     4.21965
 H    -0.92158     0.40962     2.88624
 H    -1.54182     0.02286     4.20933
 H    -5.77659     3.93275     4.31303
 H    -5.87554     3.47105     2.88216
 H    -5.81638     2.45744     4.10489
 C    -1.12930     3.22876     3.56982
 C    -1.83554     4.45104     3.56982
 C    -3.24548     4.45195     3.56964
 C    -4.01523     5.75808     3.50237
 H    -4.86229     5.67520     2.96641
 H    -4.16215     6.05131     4.29982
 H    -3.54191     6.43808     2.97673
 C    -1.07252     5.76437     3.60565
 H    -0.84502     6.11475     2.81104
 H    -1.61516     6.47822     4.10486
 H    -0.30101     5.68873     4.16761
 C     0.38474     3.20606     3.48654
 H     0.69285     2.52819     2.87303
 H     0.79180     2.98988     4.30390
 H     0.73265     4.00349     3.08117
 C     1.69007     0.76268     7.14946
 C     3.10037     0.76268     7.14946
 C     0.98383     1.98496     7.14946
 C     0.92635    -0.55051     7.11293
 C     3.86942    -0.54331     7.21603
 C    -0.52985     2.00858     7.23257
 H     0.69990    -0.90011     7.90806
 H     1.46935    -1.26345     6.61354
 H     0.15554    -0.47501     6.55167
 H     4.71718    -0.46057     7.75269
 H     4.01704    -0.83668     6.41929
 H     3.39680    -1.22344     7.74237
 H    -0.83796     2.68645     7.84607
 H    -0.93692     2.22475     6.41520
 H    -0.87776     1.21115     7.63793
 C     3.80932     1.98246     7.10287
 C     3.10308     3.20474     7.10287
 C     1.69314     3.20565     7.10268
 C     0.92339     4.51179     7.03541
 H     0.07633     4.42891     6.49946
 H     0.77647     4.80502     7.83286
 H     1.39671     5.19178     6.50978
 C     3.86610     4.51807     7.13869
 H     4.09361     4.86845     6.34408
 H     3.32346     5.23192     7.63790
 H     4.63761     4.44243     7.70066
 C     5.32336     1.95976     7.01958
 H     5.63148     1.28189     6.40607
 H     5.73043     1.74359     7.83695
 H     5.67127     2.75719     6.61421
