  168
 
 C     0.00000     0.00000     0.00000
 C     5.02298     0.00000     0.00000
 C     4.10123     2.30539     0.00000
 C     3.21719     3.20754    -0.43020
 C     1.42606     3.80960    -2.01052
 C     0.57220     3.47004    -3.01630
 C     0.46647     2.14311    -3.41664
 C     1.16900     1.15744    -2.76255
 C     2.04532     1.45579    -1.69185
 C     2.20712     2.84035    -1.36094
 C     2.85354     0.46384    -1.02905
 C    -1.22379     0.42136     0.47179
 C     3.99037     0.91794    -0.33121
 C     2.64611    -0.95991    -1.15002
 C     3.78938    -1.79028    -1.02652
 C     1.37254    -1.60923    -1.37280
 C     1.37737    -2.90329    -1.92954
 C     0.10259    -1.07431    -0.90501
 C    -1.08888    -1.74402    -1.27122
 C    -2.38341    -0.21111     0.05304
 C    -2.32222    -1.26179    -0.77884
 C    -1.00741    -2.94849    -2.06757
 C     0.16279    -3.50926    -2.32609
 C     2.62361    -3.60944    -2.01486
 C     3.72359    -3.12398    -1.49725
 C     4.95660    -1.25769    -0.42148
 H     0.77740     0.40222     0.35416
 H     5.86694     0.51198     0.64332
 H     4.73698     2.63967     0.67350
 H     3.31559     4.17006    -0.31132
 H     1.59239     4.73176    -1.74315
 H    -0.12020     4.15548    -3.57074
 H    -0.03947     1.88301    -4.11976
 H     1.08355     0.22393    -3.01710
 H    -1.32127     1.26933     1.19496
 H    -3.16594     0.11288     0.44844
 H    -3.17676    -1.70395    -1.08277
 H    -1.81828    -3.43685    -2.41636
 H     0.32860    -4.43996    -2.96071
 H     2.67453    -4.58589    -2.50004
 H     4.59601    -3.62444    -1.34776
 H     5.70769    -1.90702    -0.18278
 C    -6.22135     2.82326     7.16895
 C    -3.41617     3.12586     3.01326
 C    -3.79294     0.77027     3.70260
 C    -3.87638    -0.16927     4.64640
 C    -3.53206    -0.82726     6.99478
 C    -3.19814    -0.50780     8.27658
 C    -3.00591     0.82247     8.63099
 C    -3.21322     1.82729     7.71401
 C    -3.59255     1.54815     6.37948
 C    -3.69256     0.16598     6.01576
 C    -3.74842     2.56531     5.37038
 C    -7.26974     2.31406     7.90338
 C    -3.66354     2.15845     4.02396
 C    -3.84996     3.97712     5.65536
 C    -3.36368     4.87048     4.66679
 C    -4.41601     4.55533     6.85474
 C    -4.03067     5.86447     7.20434
 C    -5.48003     3.93019     7.62596
 C    -5.88368     4.53824     8.83897
 C    -7.60990     2.88856     9.11831
 C    -6.95078     3.96708     9.56779
 C    -5.25101     5.77031     9.25621
 C    -4.41828     6.40851     8.45143
 C    -3.30751     6.64676     6.24418
 C    -3.09132     6.21217     5.02786
 C    -3.18031     4.39010     3.34477
 H    -6.05598     2.45748     6.31431
 H    -3.44713     2.64531     1.93835
 H    -3.97408     0.45357     2.78776
 H    -3.86091    -1.12738     4.46706
 H    -3.60571    -1.74584     6.67820
 H    -3.08394    -1.21559     9.13796
 H    -2.72241     1.07397     9.45221
 H    -3.10658     2.76162     7.95731
 H    -7.87140     1.43907     7.55136
 H    -8.35452     2.50553     9.53362
 H    -7.20231     4.36649    10.45890
 H    -5.44471     6.21985    10.13828
 H    -3.85670     7.36732     8.69991
 H    -2.93561     7.63955     6.50490
 H    -2.75793     6.75924     4.23825
 H    -2.99745     5.07554     2.61027
 C    -8.02195     5.69120     0.90668
 C   -12.20316     3.29181     2.31763
 C   -12.53713     4.56570     0.21284
 C   -12.35302     5.65864    -0.53016
 C   -11.59356     7.99724    -0.67909
 C   -11.00312     9.08764    -0.11484
 C   -10.39371     8.97889     1.12974
 C   -10.32394     7.76319     1.77016
 C   -10.89516     6.59519     1.21086
 C   -11.59827     6.75357    -0.02737
 C   -10.90791     5.31976     1.88139
 C    -7.07201     6.05038    -0.02411
 C   -11.87511     4.38216     1.46787
 C   -10.08913     5.00090     3.02709
 C   -10.60945     4.05566     3.94774
 C    -8.78139     5.55286     3.30713
 C    -8.32365     5.52841     4.63921
 C    -7.84838     5.97836     2.27457
 C    -6.63955     6.59857     2.66989
 C    -5.92222     6.71091     0.37814
 C    -5.70495     6.96784     1.67678
 C    -6.35571     6.76176     4.07856
 C    -7.13455     6.20699     4.99307
 C    -9.04769     4.74609     5.59983
 C   -10.04983     3.98174     5.24621
 C   -11.66552     3.20623     3.52902
 H    -8.76172     5.18172     0.61559
 H   -12.96954     2.55870     1.80435
 H   -13.03683     3.84362    -0.23261
 H   -12.86131     5.86447    -1.33609
 H   -12.09741     8.03715    -1.51220
 H   -10.90992    10.11015    -0.56476
 H   -10.04582     9.68950     1.56795
 H    -9.87839     7.67028     2.62830
 H    -7.19279     5.82454    -1.11312
 H    -5.31454     6.88528    -0.31031
 H    -4.86777     7.45951     1.95160
 H    -5.54542     7.25178     4.42638
 H    -7.00626     6.29939     6.12065
 H    -8.75994     4.75717     6.65270
 H   -10.49500     3.26435     5.81288
 H   -11.91351     2.42154     4.13359
 C     0.53994     8.08556    -1.47342
 C    -3.10702    10.18234     1.27131
 C    -1.47454     8.95865     2.68677
 C    -0.69116     7.90310     2.91617
 C    -0.00381     5.62043     2.29704
 C    -0.07431     4.55013     1.45677
 C    -0.77022     4.65553     0.25811
 C    -1.33522     5.85209    -0.11941
 C    -1.26098     7.00088     0.70372
 C    -0.61966     6.84011     1.97476
 C    -1.90057     8.25109     0.37950
 C     1.86217     7.81421    -1.74885
 C    -2.15509     9.14146     1.44159
 C    -2.41040     8.58189    -0.93022
 C    -3.51961     9.46415    -0.98580
 C    -1.87850     8.10105    -2.18685
 C    -2.72641     8.11042    -3.31180
 C    -0.47753     7.76577    -2.39331
 C    -0.09125     7.20722    -3.63543
 C     2.21216     7.21166    -2.94728
 C     1.27457     6.92688    -3.86353
 C    -1.08923     7.01643    -4.66498
 C    -2.31333     7.49377    -4.51620
 C    -3.97177     8.81661    -3.22694
 C    -4.28580     9.53008    -2.17462
 C    -3.81414    10.26136     0.14990
 H     0.33693     8.55860    -0.68185
 H    -3.15364    10.88402     2.21620
 H    -1.42945     9.66314     3.37356
 H    -0.29674     7.69287     3.78255
 H     0.40736     5.57694     3.17936
 H     0.41069     3.54997     1.59975
 H    -0.89566     3.95353    -0.29818
 H    -1.80195     5.94418    -0.96630
 H     2.68208     8.06708    -1.03099
 H     3.13162     7.09632    -3.06953
 H     1.54348     6.47797    -4.72553
 H    -0.89495     6.56525    -5.54609
 H    -3.16900     7.37326    -5.25764
 H    -4.68236     8.78918    -4.05534
 H    -5.04646    10.20085    -2.10116
 H    -4.50009    11.00995     0.04113
