  172
 
Sb     0.00000     0.00000     0.00000
 F    -2.18483    -4.57498    -6.67481
 F    -1.54659    -1.95083    -6.45931
 F    -0.43859    -2.33818    -4.29625
 F    -0.23148    -4.63133    -5.45289
 F    -3.67262    -2.93380    -5.25126
 F    -2.09502    -4.88541    -3.89888
Sb    -1.79339    -3.42460    -5.16100
Sb    -1.32381     4.23414     1.28011
 F     0.40993     5.09320     1.32627
 F    -1.36363     5.35973    -0.36282
 F    -2.47345     3.13839     0.17400
 F    -0.23225     2.62509     0.85984
 F    -2.21906     5.85667     1.87178
 F    -1.00679     3.67135     3.11990
Sb     3.62781    -0.37234    -2.70270
 F     2.03270    -0.11723    -3.74749
 F     2.47999    -0.02172    -1.14412
 F     4.04530     1.48699    -2.41205
 F     4.88484    -1.13530    -1.44823
 F     3.40699    -2.30211    -2.75728
 F     4.69196    -0.35126    -4.30195
Sb    -5.24116     0.57630    -3.16333
 F    -4.32534     2.07041    -2.37414
 F    -6.58878     0.78367    -1.74474
 F    -6.42290     1.65337    -4.24683
 F    -6.17860    -1.00589    -3.73378
 F    -4.25673    -0.64575    -2.00864
 F    -3.87331     0.45198    -4.51123
Sb    -2.42346     0.88556     6.08451
 F    -3.80864     0.99886     7.47622
 F    -0.98294     0.76343     4.81790
 F    -3.39024     2.18515     5.01729
 F    -1.58454     2.37618     6.97515
 F    -3.46475    -0.52656     5.30189
 F    -1.52046    -0.34590     7.27057
Sb    -3.38927    -6.57998    -0.74078
 F    -4.25680    -6.19515     0.98853
 F    -2.66088    -7.43194    -2.29920
 F    -2.28014    -4.99635    -0.71935
 F    -4.40008    -5.13565    -1.55796
 F    -2.21372    -7.54943     0.44465
 F    -4.86641    -7.79374    -0.94552
Sb    -4.38873     1.95826    10.05709
Sb    -6.21479     0.13821     8.47127
 C    -2.51002     1.04210    10.37765
 H    -2.18288     1.05547    11.46358
 H    -2.42081    -0.04948    10.10317
 H    -1.65206     1.53481     9.83494
 C    -3.99583     3.71874     8.93278
 H    -2.88954     3.92521     8.80489
 H    -4.41192     3.77598     7.89167
 H    -4.37937     4.65976     9.43062
 C    -5.15353     2.61490    11.90113
 H    -4.61131     3.53845    12.29334
 H    -6.24403     2.89620    11.93126
 H    -5.05376     1.88783    12.76115
 C    -6.71943     1.16863     6.68386
 H    -7.83428     1.21650     6.49582
 H    -6.39675     2.24354     6.59769
 H    -6.30780     0.70039     5.74096
 C    -8.08327    -0.23179     9.36461
 H    -8.78821    -0.85262     8.71450
 H    -8.05231    -0.81200    10.33134
 H    -8.70028     0.67849     9.61690
 C    -5.34067    -1.70761     7.93088
 H    -5.88758    -2.60023     8.36445
 H    -5.32035    -1.90559     6.81952
 H    -4.26593    -1.90043     8.24539
Sb    -6.64783    -6.72459     2.30903
Sb    -4.25421    -5.43730     3.62285
 C    -6.24922    -8.71839     1.75536
 H    -6.39450    -8.93000     0.65189
 H    -6.96369    -9.46151     2.23615
 H    -5.22883    -9.14140     1.97869
 C    -7.25373    -5.63777     0.58872
 H    -7.30015    -6.26886    -0.35164
 H    -6.63987    -4.74539     0.28773
 H    -8.30203    -5.22378     0.68050
 C    -8.32547    -6.69462     3.57854
 H    -9.20273    -7.25890     3.11430
 H    -8.75362    -5.69052     3.84246
 H    -8.20233    -7.20638     4.57725
 C    -3.68421    -3.68026     2.58275
 H    -3.56551    -2.77581     3.25947
 H    -4.37390    -3.31200     1.77316
 H    -2.68577    -3.74817     2.05406
 C    -4.69895    -4.83369     5.59225
 H    -3.89472    -4.19156     6.07262
 H    -4.81601    -5.68576     6.32827
 H    -5.64053    -4.22993     5.73318
 C    -2.59268    -6.73733     3.69728
 H    -2.19984    -6.89658     4.74710
 H    -1.69281    -6.38584     3.11066
 H    -2.73720    -7.79616     3.32146
Sb     0.80613    -2.95055     3.93523
 F     0.02824    -4.26297     2.75091
 F     1.36020    -1.82818     2.43546
 F     1.80583    -1.67710     4.97476
 F     2.30302    -4.20012     3.85457
 F    -0.87193    -2.00025     3.92151
 F     0.18520    -3.76955     5.57735
Sb    -7.97993    -2.03667     3.30166
 F    -6.32529    -1.25921     3.90476
 F    -7.78387    -1.07058     1.61638
 F    -9.43346    -2.97647     2.45810
 F    -6.88852    -3.60859     2.89864
 F    -9.00384    -0.50323     3.86829
 F    -8.41680    -2.79942     5.02367
Sb    -9.12551     0.16240    -0.96739
Sb    -7.33348     1.98339     0.65699
 C    -8.25926    -1.74660    -1.31553
 H    -8.27020    -2.05160    -2.40690
 H    -7.19647    -1.90757    -0.99014
 H    -8.82822    -2.58530    -0.81045
 C    -9.57009     1.00968    -2.85121
 H   -10.68105     1.02308    -3.08359
 H    -9.27273     2.08779    -3.00751
 H    -9.11847     0.46916    -3.73473
 C   -10.93096    -0.31478     0.00595
 H   -11.55643    -1.06329    -0.56260
 H   -10.82423    -0.77989     1.03089
 H   -11.64234     0.54298     0.19749
 C    -6.71577     3.70923    -0.38294
 H    -5.59627     3.85141    -0.39529
 H    -6.98281     3.77705    -1.49184
 H    -7.12780     4.67896     0.02348
 C    -8.12775     2.46663     2.55006
 H    -7.43396     2.20886     3.41017
 H    -8.32120     3.56909     2.70266
 H    -9.10861     1.98505     2.83732
 C    -5.51232     0.97757     1.10692
 H    -4.60863     1.47148     0.64203
 H    -5.27930     0.95821     2.21461
 H    -5.42124    -0.10072     0.80173
Sb     2.32021     1.29492     1.43107
 C     3.98236    -0.01451     1.56955
 H     4.37267    -0.12097     2.62576
 H     4.89175     0.32866     0.98828
 H     3.82882    -1.07752     1.23342
 C     2.90101     3.03708     0.41193
 H     3.03875     3.93102     1.10127
 H     2.20580     3.43383    -0.38447
 H     3.89718     2.97806    -0.13166
 C     1.86145     1.76032     3.42939
 H     2.50877     2.58627     3.85386
 H     1.98719     0.91301     4.16768
 H     0.81113     2.12306     3.64255
 C    -0.46516     0.99981    -1.79461
 H    -0.50427     0.33277    -2.70507
 H     0.24771     1.82874    -2.13198
 H    -1.46281     1.53133    -1.78577
 C    -1.72479    -0.11941     1.20874
 H    -2.19390    -1.15293     1.21543
 H    -2.57026     0.55195     0.87865
 H    -1.59978     0.12128     2.30294
 C     0.40877    -2.02096    -0.51207
 H     0.39598    -2.22039    -1.62259
 H    -0.36507    -2.74567    -0.10378
 H     1.38418    -2.46101    -0.16381
 S    -0.89447    -2.63490     7.82039
 O    -2.24936    -3.01857     8.07316
 O     0.03622    -2.15159     8.78608
 S   -10.77483    -2.13508     6.34841
 O   -10.48657    -1.89898     7.72729
 O   -12.06370    -2.27019     5.74956
 S    -4.08571     3.85325     3.45033
 O    -5.17536     3.00819     3.70105
 O    -3.12404     3.81477     2.35431
 S    -3.14113    -2.86562    -1.93516
 O    -2.63959    -2.62942    -0.64832
 O    -2.51682    -2.78186    -3.24502
