  480
 
 B     0.00000     0.00000     0.00000
 F     1.25239    -0.06430     0.56300
 F    -0.40199     1.31647    -0.07043
 F     0.03979    -0.50973    -1.27806
 F    -0.88315    -0.74249     0.73985
 B    -8.46157     7.40800     4.83549
 F    -7.74308     6.91611     5.88969
 F    -8.50931     8.78643     4.88747
 F    -7.85018     7.03303     3.66773
 F    -9.74284     6.90393     4.85627
 B     7.61477     3.12853    -5.43219
 F     6.43533     3.76715    -5.14122
 F     8.66314     3.98089    -5.17405
 F     7.64253     2.77139    -6.75578
 F     7.73047     1.98897    -4.66599
 B    -0.79208    12.44183    -1.09208
 F    -1.65974    13.31776    -1.70249
 F     0.27479    13.15671    -0.58902
 F    -0.33061    11.52479    -2.00459
 F    -1.43957    11.76674    -0.08887
Cr    -0.75836     5.04796    -0.28161
 N    -2.29115     6.92056     1.73660
 N    -3.22509     2.97728    -0.13993
 N     0.51438     3.59056     2.28567
 C    -1.68615     6.20411     0.95187
 C    -2.28355     3.71535    -0.20420
 C     0.07422     4.08667     1.27625
 C    -3.99241    10.42086     6.11649
 H    -4.14351     9.99034     7.08539
 C    -4.10391    11.76446     5.77418
 H    -4.36826    12.55893     6.44236
 C    -3.79539    11.91423     4.39823
 H    -3.77431    12.84135     3.86431
 C    -3.10974    10.40140     2.53843
 H    -3.07998    11.29538     1.88155
 C    -2.76296     9.21243     1.96377
 H    -2.48424     9.24849     0.89568
 C    -2.71497     7.91761     2.55630
 C    -3.06324     7.51987     3.85596
 H    -2.98096     6.43995     4.05575
 C    -3.47344     8.30872     4.91697
 H    -3.69837     7.77594     5.86157
 C    -3.62573     9.68123     4.95120
 C    -3.48594    10.65232     3.86807
 C    -7.97465    -0.47210    -0.68021
 H    -8.78930    -0.10714    -1.26965
 C    -7.89925    -1.65493     0.02531
 H    -8.65734    -2.40879     0.11003
 C    -6.62359    -1.73515     0.66844
 H    -6.30791    -2.55077     1.28523
 C    -4.58671    -0.29793     0.81539
 H    -4.11085    -1.09899     1.41498
 C    -3.85766     0.83275     0.62100
 H    -2.85849     0.87211     1.09517
 C    -4.20296     2.00153    -0.12572
 C    -5.34901     2.29209    -0.83839
 H    -5.38425     3.26918    -1.34896
 C    -6.48152     1.48593    -1.02414
 H    -7.26390     1.92192    -1.67981
 C    -6.73941     0.25334    -0.49219
 C    -5.89611    -0.58776     0.36665
 C     2.11577    -1.35281     4.92599
 H     1.66317    -2.28231     4.65563
 C     3.20919    -1.21444     5.84347
 H     3.66855    -2.03789     6.35646
 C     3.55790     0.11360     5.93863
 H     4.33937     0.54078     6.53367
 C     2.79070     2.22380     4.86150
 H     3.59179     2.75327     5.41435
 C     2.03405     3.02491     3.99028
 H     2.34635     4.07987     3.93662
 C     0.98407     2.64618     3.17776
 C     0.29030     1.39637     3.10688
 H    -0.63906     1.41385     2.50985
 C     0.67535     0.19691     3.61015
 H     0.05681    -0.67990     3.33417
 C     1.77054    -0.09157     4.45903
 C     2.69159     0.87906     5.06724
 C     0.21017     3.79194    -1.57835
 N     0.73432     3.07076    -2.39009
 C     1.22895     1.99121    -3.09458
 C     2.02835     1.09354    -2.32596
 C     2.52553    -0.12566    -2.67397
 H     3.03153    -0.69791    -1.87369
 C     2.46218    -0.78654    -3.91973
 C     2.99298    -2.04603    -4.20741
 C     2.63167    -2.38479    -5.55060
 C     1.92458    -1.33954    -6.11094
 H     1.50731    -1.29184    -7.09765
 C     1.80350    -0.28770    -5.13199
 C     1.17879     0.91235    -5.35472
 C     0.89916     1.93395    -4.44034
 H     0.32255     2.78419    -4.83986
 H     0.81911     1.08937    -6.38706
 H     2.86269    -3.31316    -6.03312
 H     3.50673    -2.69158    -3.52101
 H     2.22229     1.42997    -1.28841
 C     0.75925     6.39065    -0.35046
 N     1.61871     7.22653    -0.37504
 C     2.52951     8.26761    -0.37127
 C     2.10767     9.41108    -1.11447
 C     2.77034    10.58344    -1.31040
 H     2.25751    11.35460    -1.91870
 C     4.04352    10.96724    -0.83429
 C     4.66317    12.18666    -1.09398
 C     5.92225    12.21320    -0.41834
 C     6.09690    11.02541     0.26316
 H     6.92758    10.74025     0.87256
 C     4.94260    10.18957     0.02756
 C     4.77347     8.92964     0.53108
 C     3.69394     8.05490     0.34115
 H     3.79280     7.08244     0.85184
 H     5.58706     8.53435     1.17229
 H     6.60572    13.03915    -0.46936
 H     4.28270    12.97801    -1.70085
 H     1.11080     9.31937    -1.58388
 C    -1.67630     6.06662    -1.73753
 N    -2.31962     6.75659    -2.49516
 C    -2.89683     7.75427    -3.24499
 C    -3.78623     7.28952    -4.25700
 C    -4.46199     8.01286    -5.19424
 H    -5.13277     7.44738    -5.86962
 C    -4.42258     9.39758    -5.43760
 C    -5.05437    10.05676    -6.49938
 C    -4.79461    11.44967    -6.38776
 C    -4.02748    11.67328    -5.25275
 H    -3.69470    12.61534    -4.87071
 C    -3.74534    10.41167    -4.63063
 C    -2.97402    10.24746    -3.50367
 C    -2.56624     9.05860    -2.89736
 H    -1.88261     9.18535    -2.03943
 H    -2.61159    11.18054    -3.02396
 H    -5.16227    12.19497    -7.06498
 H    -5.65493     9.59800    -7.25588
 H    -3.93057     6.19465    -4.27255
Cr     6.34453    -2.99272    -4.66303
 N     5.90467    -0.33053    -2.92749
 N     4.20825    -5.36992    -4.89764
 N     7.80514    -4.64491    -2.23329
 C     6.28830    -1.18550    -3.62550
 C     5.13747    -4.66569    -4.97324
 C     7.21366    -4.04201    -3.06890
 C     3.86190     3.14455     1.38446
 H     3.82008     2.72918     2.37480
 C     3.52657     4.40542     0.97871
 H     3.15498     5.20976     1.58914
 C     3.75359     4.51760    -0.44979
 H     3.57436     5.41351    -1.01414
 C     4.59353     3.03647    -2.26685
 H     4.44341     3.87765    -2.97110
 C     5.07720     1.88484    -2.78855
 H     5.25596     1.86066    -3.87797
 C     5.38739     0.67115    -2.09677
 C     5.21818     0.30226    -0.79244
 H     5.51839    -0.72244    -0.50256
 C     4.69365     1.08438     0.27311
 H     4.60384     0.55910     1.24351
 C     4.31124     2.37948     0.22599
 C     4.24104     3.31987    -0.92168
 C    -0.54283    -8.74999    -5.39485
 H    -1.29946    -8.55665    -6.12693
 C    -0.54938    -9.89384    -4.51333
 H    -1.32461   -10.63986    -4.49866
 C     0.55120    -9.84327    -3.69988
 H     0.81540   -10.52561    -2.91894
 C     2.47905    -8.29336    -3.42849
 H     2.85791    -8.93867    -2.61346
 C     3.31648    -7.19120    -3.74025
 H     4.22203    -7.10715    -3.10650
 C     3.15024    -6.27181    -4.73921
 C     2.05189    -6.03521    -5.62495
 H     2.15046    -5.14011    -6.26702
 C     0.91997    -6.76823    -5.76666
 H     0.16540    -6.39684    -6.48666
 C     0.57078    -7.98229    -5.12010
 C     1.32220    -8.65332    -4.03366
 C    10.23824    -9.04940     0.77910
 H     9.93838   -10.06603     0.63717
 C    11.30070    -8.65022     1.67166
 H    11.88419    -9.33821     2.25152
 C    11.42422    -7.28606     1.63693
 H    12.12248    -6.67465     2.18063
 C    10.30274    -5.43840     0.39965
 H    10.97073    -4.73264     0.93110
 C     9.41785    -4.83738    -0.53132
 H     9.51978    -3.74575    -0.62328
 C     8.48189    -5.45441    -1.31886
 C     8.07490    -6.82895    -1.36748
 H     7.21685    -7.02430    -2.03459
 C     8.62078    -7.89607    -0.73356
 H     8.17740    -8.88637    -0.94609
 C     9.70600    -7.92365     0.18020
 C    10.44577    -6.75338     0.69695
 C     7.43012    -4.16908    -5.94359
 N     7.93892    -4.93867    -6.66644
 C     8.45235    -5.93337    -7.51149
 C     8.86187    -7.08048    -6.89630
 C     9.25833    -8.30644    -7.50646
 H     9.51781    -9.11104    -6.79275
 C     9.31281    -8.59397    -8.82648
 C     9.63943    -9.90653    -9.38172
 C     9.56441    -9.83631   -10.74573
 C     9.21927    -8.48276   -11.13101
 H     9.11208    -8.15848   -12.14954
 C     9.06976    -7.71747    -9.99633
 C     8.76966    -6.32963    -9.96771
 C     8.47537    -5.55571    -8.89646
 H     8.23379    -4.49620    -9.09572
 H     8.77098    -5.84646   -10.96422
 H     9.72987   -10.62987   -11.45076
 H     9.87944   -10.76166    -8.77932
 H     8.87083    -7.09839    -5.78844
 C     8.17991    -2.09704    -4.93612
 N     9.12992    -1.41343    -4.96725
 C    10.17725    -0.48100    -5.02344
 C     9.96495     0.56442    -5.87766
 C    10.77973     1.71366    -6.07286
 H    10.36955     2.45152    -6.78798
 C    11.96035     2.00376    -5.47872
 C    12.72730     3.22537    -5.70795
 C    13.86452     3.17555    -4.94705
 C    13.88169     1.93625    -4.20075
 H    14.66596     1.64312    -3.53094
 C    12.74754     1.21299    -4.50668
 C    12.40736    -0.05689    -3.96855
 C    11.28389    -0.78786    -4.16960
 H    11.20248    -1.73677    -3.61518
 H    13.17577    -0.48599    -3.29585
 H    14.64706     3.90998    -4.90082
 H    12.41163     4.00160    -6.37362
 H     9.04292     0.54945    -6.49584
 C     5.52476    -1.92276    -6.25273
 N     5.03748    -1.20839    -7.06532
 C     4.45721    -0.24611    -7.89163
 C     3.50464    -0.68103    -8.77447
 C     2.81629     0.07682    -9.75300
 H     2.03418    -0.47560   -10.31174
 C     3.03857     1.37004   -10.09742
 C     2.40294     2.04092   -11.22060
 C     2.94239     3.29625   -11.34429
 C     3.90646     3.50137   -10.29150
 H     4.46945     4.40611   -10.16873
 C     3.96438     2.36186    -9.51338
 C     4.73128     2.20823    -8.33055
 C     4.94579     1.07404    -7.62074
 H     5.58708     1.15656    -6.72715
 H     5.20700     3.13686    -7.95996
 H     2.69963     4.04953   -12.06835
 H     1.64556     1.58092   -11.82131
 H     3.22900    -1.74788    -8.74486
Cr    -0.93903    -1.68779     9.12436
 N    -0.06391    -0.47388    12.01190
 N    -0.57446    -4.40014    10.87855
 N    -4.06924    -1.63059    10.05673
 C    -0.34366    -0.99424    10.99535
 C    -0.64879    -3.38104    10.30254
 C    -2.90915    -1.57720     9.77993
 C    -0.03453     2.51702    17.11123
 H    -0.87032     2.38831    17.77476
 C     1.06367     3.31666    17.28470
 H     1.26622     3.96793    18.11581
 C     1.94829     3.15401    16.15186
 H     2.88467     3.66642    16.04482
 C     1.97602     1.79296    14.06416
 H     2.97518     2.21948    13.85550
 C     1.48011     0.91153    13.16035
 H     2.11986     0.67497    12.29108
 C     0.21414     0.24433    13.18304
 C    -0.76344     0.20913    14.13823
 H    -1.64948    -0.42351    13.94216
 C    -0.79775     0.90096    15.37838
 H    -1.67466     0.67543    16.01656
 C     0.09973     1.79932    15.84943
 C     1.38714     2.25072    15.27173
 C     0.57283    -9.73888    13.05706
 H     1.57949   -10.05471    13.23804
 C    -0.59341   -10.56139    13.25703
 H    -0.56713   -11.56898    13.62624
 C    -1.71345    -9.84279    12.92029
 H    -2.72989   -10.16706    12.96757
 C    -2.14456    -7.52120    12.11740
 H    -3.22669    -7.74779    12.12214
 C    -1.82339    -6.20929    11.68596
 H    -2.70321    -5.57188    11.47592
 C    -0.58192    -5.68017    11.45674
 C     0.71698    -6.21993    11.70198
 H     1.55970    -5.56879    11.41649
 C     1.03243    -7.43007    12.23238
 H     2.10789    -7.64147    12.39233
 C     0.17147    -8.49881    12.59147
 C    -1.30125    -8.51395    12.49481
 C    -9.46732    -3.88081     9.80646
 H    -9.62847    -4.93910     9.83525
 C   -10.51574    -2.91056     9.61107
 H   -11.54377    -3.17302     9.44495
 C    -9.97683    -1.64974     9.65206
 H   -10.49288    -0.71393     9.56216
 C    -7.67082    -0.72403     9.85921
 H    -8.10159     0.29195     9.75912
 C    -6.25695    -0.76410     9.95392
 H    -5.77165     0.22251     9.87353
 C    -5.44523    -1.85661    10.10810
 C    -5.78106    -3.24386    10.25908
 H    -4.91756    -3.90961    10.43521
 C    -7.00348    -3.82282    10.16657
 H    -7.04686    -4.92646    10.25555
 C    -8.26411    -3.21451     9.94533
 C    -8.53774    -1.76741     9.83731
 C    -1.37171    -3.36380     7.94852
 N    -1.35672    -4.09478     7.03364
 C    -1.34282    -4.84446     5.85560
 C    -2.55010    -5.31024     5.41827
 C    -2.80178    -6.10366     4.27053
 H    -3.86294    -6.38235     4.12320
 C    -1.89623    -6.56745     3.37478
 C    -2.22397    -7.49202     2.30190
 C    -1.07509    -7.82929     1.63630
 C     0.02968    -7.09898     2.21249
 H     1.04061    -7.16730     1.85914
 C    -0.43971    -6.33695     3.26527
 C     0.34661    -5.52863     4.12563
 C    -0.03198    -4.90878     5.26991
 H     0.74802    -4.36341     5.82681
 H     1.40532    -5.43547     3.81734
 H    -0.97653    -8.52812     0.82481
 H    -3.21972    -7.84277     2.13259
 H    -3.44375    -5.06576     6.02109
 C    -0.39511     0.39690     8.98280
 N    -0.12732     1.38853     8.41863
 C     0.12752     2.57588     7.72291
 C     1.43997     2.93382     7.60512
 C     1.96345     4.18452     7.18069
 H     3.06484     4.27130     7.24436
 C     1.26251     5.27373     6.78645
 C     1.84727     6.58230     6.52137
 C     0.84826     7.44151     6.15167
 C    -0.41183     6.73269     6.14899
 H    -1.34470     7.18272     5.87444
 C    -0.18731     5.42381     6.52023
 C    -1.16968     4.39946     6.59936
 C    -1.05017     3.17053     7.15698
 H    -1.94825     2.53089     7.17549
 H    -2.15097     4.67018     6.16833
 H     0.95891     8.47123     5.85904
 H     2.89379     6.79074     6.58632
 H     2.19735     2.18966     7.91276
 C     1.09711    -1.88112     8.61198
 N     2.28180    -1.97301     8.67953
 C     3.66815    -1.94826     8.85409
 C     4.32527    -3.14643     8.74326
 C     5.69852    -3.41151     8.97534
 H     5.98305    -4.47788     8.88367
 C     6.68835    -2.53306     9.28020
 C     8.08764    -2.88848     9.47968
 C     8.80812    -1.73924     9.68693
 C     7.91106    -0.61056     9.65718
 H     8.21929     0.40467     9.78941
 C     6.62487    -1.06565     9.42993
 C     5.45650    -0.26319     9.38926
 C     4.17522    -0.63999     9.14989
 H     3.41005     0.15505     9.17857
 H     5.63334     0.80994     9.60002
 H     9.86523    -1.66207     9.85049
 H     8.45683    -3.89741     9.46841
 H     3.73415    -4.02369     8.43420
Cr    -4.72161    -5.68847    -0.69605
 N    -4.72250    -4.32515     2.02820
 N    -4.98502    -8.62984     0.69687
 N    -7.97011    -5.55285    -0.47894
 C    -4.57526    -4.89284     0.86344
 C    -4.88653    -7.57985     0.14656
 C    -6.78047    -5.59563    -0.60325
 C    -3.39690    -1.42070     6.86280
 H    -4.18714    -1.24199     7.55968
 C    -2.03353    -1.01073     7.02393
 H    -1.83623    -0.11829     7.60482
 C    -1.36589    -1.33598     5.80764
 H    -0.34045    -1.10472     5.59286
 C    -1.99357    -2.40738     3.61778
 H    -0.96650    -2.17735     3.26611
 C    -2.79718    -3.05511     2.73578
 H    -2.36224    -3.28907     1.75246
 C    -4.15536    -3.51305     2.89542
 C    -5.05743    -3.13583     3.96904
 H    -6.10358    -3.42732     3.76994
 C    -4.79368    -2.51053     5.13431
 H    -5.64226    -2.33845     5.82239
 C    -3.54963    -2.02257     5.61445
 C    -2.27239    -1.97009     4.93913
 C    -4.41548   -14.16375     2.47281
 H    -3.45936   -14.55572     2.74340
 C    -5.60993   -14.94970     2.33673
 H    -5.66536   -16.00906     2.50678
 C    -6.65551   -14.12542     1.99318
 H    -7.67757   -14.40206     1.85576
 C    -6.89288   -11.70826     1.44005
 H    -7.97172   -11.87870     1.26411
 C    -6.44657   -10.40646     1.13680
 H    -7.22321    -9.73245     0.73313
 C    -5.17126    -9.90269     1.22537
 C    -3.99870   -10.48296     1.80556
 H    -3.12985    -9.80713     1.88039
 C    -3.81298   -11.75511     2.24295
 H    -2.82078   -12.00144     2.66921
 C    -4.72166   -12.83967     2.19716
 C    -6.15347   -12.77244     1.85616
 C   -13.40478    -7.74132    -0.13872
 H   -13.56238    -8.77587     0.06536
 C   -14.44686    -6.79563    -0.43061
 H   -15.48884    -7.04081    -0.48642
 C   -13.88229    -5.55801    -0.63262
 H   -14.38500    -4.63704    -0.85591
 C   -11.56053    -4.65158    -0.63848
 H   -12.00551    -3.65386    -0.81254
 C   -10.15277    -4.68228    -0.61744
 H    -9.66120    -3.72263    -0.84304
 C    -9.33748    -5.76224    -0.36641
 C    -9.68878    -7.09542     0.02062
 H    -8.82297    -7.73864     0.26653
 C   -10.91700    -7.67044     0.08135
 H   -10.95495    -8.74012     0.36126
 C   -12.18149    -7.08956    -0.18041
 C   -12.44214    -5.67951    -0.49757
 C    -4.92007    -6.59145    -2.66473
 N    -4.95478    -7.06061    -3.75260
 C    -5.07997    -7.74257    -4.96038
 C    -6.33532    -8.41705    -5.10057
 C    -6.70357    -9.34466    -6.01675
 H    -7.71144    -9.78895    -5.90973
 C    -5.94617    -9.83227    -7.11242
 C    -6.33289   -10.84463    -7.97006
 C    -5.30752   -11.02706    -8.96740
 C    -4.30367   -10.11797    -8.74712
 H    -3.40075    -9.99284    -9.31454
 C    -4.63686    -9.32626    -7.57336
 C    -3.84767    -8.35193    -7.05127
 C    -4.02083    -7.65966    -5.82797
 H    -3.18422    -7.00269    -5.54190
 H    -2.93767    -8.08486    -7.61910
 H    -5.33868   -11.76962    -9.74146
 H    -7.23010   -11.42542    -7.90286
 H    -7.08694    -8.13060    -4.34229
 C    -4.58646    -3.89090    -1.67978
 N    -4.45359    -2.83729    -2.21851
 C    -4.31226    -1.54686    -2.71459
 C    -3.07614    -0.96744    -2.55261
 C    -2.67386     0.33786    -2.90425
 H    -1.61255     0.57720    -2.69836
 C    -3.43640     1.34289    -3.41868
 C    -2.97420     2.69855    -3.64440
 C    -4.04883     3.46823    -4.02873
 C    -5.22071     2.64291    -4.08818
 H    -6.20778     2.98311    -4.31854
 C    -4.86891     1.34422    -3.74841
 C    -5.75004     0.23749    -3.72816
 C    -5.50489    -1.03075    -3.31065
 H    -6.33569    -1.75078    -3.39510
 H    -6.77434     0.45663    -4.09312
 H    -4.03475     4.51838    -4.25494
 H    -1.96195     3.01794    -3.50112
 H    -2.28884    -1.57762    -2.07219
 C    -2.69209    -5.82189    -0.83226
 N    -1.49294    -5.80817    -0.86789
 C    -0.14369    -5.49614    -0.83116
 C     0.73655    -6.61659    -0.82175
 C     2.09894    -6.63136    -0.77772
 H     2.58890    -7.62270    -0.70716
 C     2.99137    -5.54107    -0.80607
 C     4.38527    -5.62545    -0.81279
 C     4.91898    -4.30331    -0.82259
 C     3.87811    -3.39171    -0.82611
 H     3.94767    -2.32556    -0.81373
 C     2.63667    -4.11824    -0.81080
 C     1.40108    -3.52898    -0.76505
 C     0.14364    -4.14360    -0.78067
 H    -0.71060    -3.44194    -0.75984
 H     1.39076    -2.42209    -0.70796
 H     5.96320    -4.06986    -0.78142
 H     4.96703    -6.52381    -0.79099
 H     0.23030    -7.59830    -0.83013
