  144
 
 I     0.00000     0.00000     0.00000
 I     3.49770     0.00000     0.00000
 I    -1.76148     3.04523     0.00000
 C     2.44820     1.83144     0.10962
 C     0.34438     3.02859     0.08478
 C     1.06065     1.81629     0.05599
 I     3.48531     6.07566     0.27658
 I    -0.01239     6.07565     0.27658
 I     5.24679     3.03042     0.27658
 C     1.03711     4.24422     0.16696
 C     3.14093     3.04706     0.19179
 C     2.42466     4.25937     0.22058
 I     4.10108    -1.72132    -4.34043
 I     1.17526    -2.41143    -2.55474
 I     4.97463    -3.69078    -7.12231
 C     1.74747    -3.66638    -4.15726
 C     3.25862    -4.14566    -5.98465
 C     2.88425    -3.34765    -4.88839
 I     0.12716    -7.20331    -6.15000
 I     3.05388    -6.51341    -7.93606
 I    -0.74577    -5.23371    -3.36939
 C     2.48139    -5.25812    -6.33444
 C     0.96962    -4.77896    -4.50578
 C     1.34490    -5.57719    -5.60242
 I     1.20673    -1.46080     3.77631
 I     4.70443    -1.46080     3.77631
 I    -0.55475     1.58443     3.77631
 C     3.65493     0.37064     3.88593
 C     1.55111     1.56780     3.86109
 C     2.26737     0.35549     3.83230
 I     4.69204     4.61486     4.05289
 I     1.19433     4.61486     4.05289
 I     6.45352     1.56963     4.05289
 C     2.24384     2.78342     3.94327
 C     4.34766     1.58626     3.96810
 C     3.63139     2.79857     3.99689
 I     5.30781    -3.18212    -0.56413
 I     2.38199    -3.87223     1.22157
 I     6.18136    -5.15158    -3.34600
 C     2.95420    -5.12717    -0.38095
 C     4.46535    -5.60646    -2.20834
 C     4.09098    -4.80845    -1.11208
 I     1.33389    -8.66411    -2.37369
 I     4.26061    -7.97421    -4.15976
 I     0.46096    -6.69451     0.40692
 C     3.68812    -6.71892    -2.55813
 C     2.17635    -6.23976    -0.72948
 C     2.55163    -7.03798    -1.82611
 I     2.41346    -2.92160     7.55262
 I     5.91116    -2.92160     7.55262
 I     0.65197     0.12363     7.55262
 C     4.86165    -1.09016     7.66223
 C     2.75784     0.10700     7.63740
 C     3.47410    -1.10531     7.60861
 I     5.89877     3.15406     7.82919
 I     2.40106     3.15406     7.82919
 I     7.66025     0.10883     7.82919
 C     3.45057     1.32262     7.71957
 C     5.55438     0.12546     7.74441
 C     4.83812     1.33777     7.77320
 I     6.51454    -4.64291     3.21218
 I     3.58872    -5.33303     4.99788
 I     7.38808    -6.61238     0.43030
 C     4.16092    -6.58797     3.39536
 C     5.67208    -7.06726     1.56797
 C     5.29771    -6.26925     2.66423
 I     2.54062   -10.12491     1.40262
 I     5.46734    -9.43501    -0.38345
 I     1.66769    -8.15531     4.18323
 C     4.89485    -8.17972     1.21817
 C     3.38308    -7.70056     3.04683
 C     3.75835    -8.49878     1.95020
 I    -7.95688     1.89232     3.27465
 I    -4.45917     1.89232     3.27465
 I    -9.71836     4.93755     3.27465
 C    -5.50868     3.72376     3.38427
 C    -7.61250     4.92091     3.35943
 C    -6.89623     3.70861     3.33064
 I    -4.47157     7.96797     3.55123
 I    -7.96927     7.96797     3.55123
 I    -2.71008     4.92274     3.55123
 C    -6.91976     6.13654     3.44161
 C    -4.81595     4.93938     3.46644
 C    -5.53221     6.15169     3.49523
 I    -3.85580     0.17100    -1.06578
 I    -6.78161    -0.51911     0.71991
 I    -2.98225    -1.79846    -3.84766
 C    -6.20941    -1.77406    -0.88261
 C    -4.69826    -2.25334    -2.71000
 C    -5.07263    -1.45534    -1.61374
 I    -7.82971    -5.31099    -2.87535
 I    -4.90299    -4.62109    -4.66141
 I    -8.70264    -3.34139    -0.09474
 C    -5.47548    -3.36580    -3.05979
 C    -6.98725    -2.88664    -1.23113
 C    -6.61198    -3.68487    -2.32777
 I    -6.75015     0.43152     7.05096
 I    -3.25245     0.43152     7.05096
 I    -8.51163     3.47675     7.05096
 C    -4.30195     2.26296     7.16058
 C    -6.40577     3.46011     7.13574
 C    -5.68950     2.24781     7.10695
 I    -3.26484     6.50718     7.32753
 I    -6.76254     6.50717     7.32753
 I    -1.50336     3.46194     7.32753
 C    -5.71304     4.67574     7.21792
 C    -3.60922     3.47858     7.24275
 C    -4.32549     4.69089     7.27154
 I    -2.64907    -1.28980     2.71052
 I    -5.57489    -1.97991     4.49622
 I    -1.77552    -3.25926    -0.07136
 C    -5.00268    -3.23486     2.89370
 C    -3.49153    -3.71414     1.06631
 C    -3.86590    -2.91613     2.16257
 I    -6.62299    -6.77179     0.90096
 I    -3.69626    -6.08189    -0.88511
 I    -7.49592    -4.80219     3.68157
 C    -4.26876    -4.82660     0.71652
 C    -5.78053    -4.34744     2.54517
 C    -5.40525    -5.14567     1.44854
 I    -5.54342    -1.02928    10.82726
 I    -2.04572    -1.02928    10.82726
 I    -7.30490     2.01595    10.82726
 C    -3.09522     0.80216    10.93688
 C    -5.19904     1.99932    10.91205
 C    -4.48278     0.78701    10.88326
 I    -2.05811     5.04638    11.10384
 I    -5.55581     5.04638    11.10384
 I    -0.29663     2.00115    11.10384
 C    -4.50631     3.21494    10.99422
 C    -2.40249     2.01778    11.01906
 C    -3.11876     3.23009    11.04785
 I    -1.44234    -2.75059     6.48683
 I    -4.36816    -3.44071     8.27252
 I    -0.56879    -4.72006     3.70495
 C    -3.79595    -4.69565     6.67001
 C    -2.28480    -5.17494     4.84262
 C    -2.65917    -4.37693     5.93888
 I    -5.41626    -8.23259     4.67727
 I    -2.48954    -7.54269     2.89120
 I    -6.28919    -6.26299     7.45788
 C    -3.06203    -6.28740     4.49282
 C    -4.57380    -5.80824     6.32148
 C    -4.19852    -6.60646     5.22485
