  152
 
Co     0.00000     0.00000     0.00000
Co    -0.94832     1.12287     7.11651
Co    -6.32185    -1.09179    -7.08090
Co    -2.66594     3.05503    -3.55216
Co    -3.61680     4.19846     3.57540
Co    -3.65191    -4.15540    -3.52386
 N    -0.17918     3.81051    -2.20319
 N    -5.69677    -3.97132     6.11148
 N    -3.52839    -5.67436     2.99359
 N    -7.09755    -3.73066     2.20800
 N    -1.61088     4.00500    -6.10558
 N    -3.75896     5.72899    -3.00683
 N    -1.12403     4.95741     4.90242
 N    -4.70221     3.28282     6.12918
 N    -2.53647     1.52116     3.05241
 N    -6.11981     3.44733     2.23808
 N    -2.49340     5.13966     1.02836
 N    -4.74557     6.84597     4.09739
 N    -1.16545    -3.37963    -2.17782
 N    -4.79094    -5.11328    -0.99388
 N    -2.54390    -6.80387    -4.09541
 N    -6.14586    -4.88111    -4.88452
 N    -2.61716    -3.18200    -6.08461
 N    -4.76956    -1.49030    -3.00136
 C    -1.17848     3.49921    -2.74535
 C    -5.25458    -3.58286     5.09010
 C    -3.96432    -4.60505     3.22995
 C    -6.10386    -3.45522     2.78019
 C    -2.03771     3.62245    -5.07512
 C    -3.30567     4.65874    -3.20357
 C    -2.12750     4.64833     4.36716
 C    -4.26075     3.65281     5.10094
 C    -2.96667     2.59990     3.25071
 C    -5.11702     3.73068     2.78765
 C    -2.95028     4.76756     2.04845
 C    -4.26681     5.78591     3.90355
 C    -2.15983    -3.70215    -2.72099
 C    -4.31862    -4.72581    -2.00106
 C    -2.99004    -5.73752    -3.86236
 C    -5.15033    -4.60399    -4.31743
 C    -3.01996    -3.59445    -5.05630
 C    -4.30435    -2.55688    -3.18576
 N    -4.63158    -0.53101    -6.10051
 N    -7.09922    -1.82431    -5.35205
 N    -5.48729    -2.90201    -7.47745
 N    -2.64035     0.56825     6.13449
 N    -0.17306     1.85196     5.38465
 N    -1.78153     2.93516     7.50964
 N     1.68005     0.55881     0.99670
 N    -8.04532    -0.67721     1.77245
 N    -6.44346    -1.77394    -0.37736
 N    -8.01670    -1.64783    -8.05542
 N    -5.54970    -0.37507    -8.81894
 N    -7.14623     0.72166    -6.68344
 N     0.74600     1.68213     8.08987
 N    -1.72743     0.40635     8.85166
 N    -0.12314    -0.69010     6.71725
 N    -8.95653    -0.51634    -0.96562
 N     0.76822     0.71098    -1.74381
 N    -0.82827     1.81482     0.40490
 H    -4.85373    -0.06778    -5.21866
 H    -7.53484    -2.73493    -5.50452
 H    -4.51453    -2.79923    -7.76905
 H    -2.42219     0.12177     5.24254
 H     0.25527     2.76656     5.53181
 H    -2.75590     2.83463     7.79702
 H     1.44895     0.99998     1.88770
 H    -8.44312    -1.60786     1.63433
 H    -5.47894    -1.67037    -0.69385
 H    -7.78794    -2.09637    -8.94406
 H    -5.13660     0.54724    -8.67726
 H    -8.11466     0.62819    -6.37457
 H     0.51825     2.13449     8.97687
 H    -2.13925    -0.51687     8.71238
 H     0.84632    -0.59779     6.41134
 H    -8.72433    -0.95844    -1.85553
 H     1.16580     1.64287    -1.61025
 H    -1.80053     1.72176     0.69991
 H     1.36228     0.89563     8.29316
 H    -1.04485     0.33813     9.60526
 H    -0.13775    -1.30551     7.53014
 H    -8.63582    -0.86246    -8.25316
 H    -6.23345    -0.30604    -9.57049
 H    -7.13324     1.33462    -7.49767
 H    -4.01212    -1.31476    -5.89810
 H    -6.39022    -1.93421    -4.62820
 H    -5.50921    -3.53608    -6.68032
 H    -9.58271     0.26360    -1.15942
 H    -7.18869     0.86577    -2.43621
 H    -0.79951     2.44381    -0.39727
 H     2.31010    -0.21802     1.19117
 H    -0.09252    -0.83379     2.46761
 H    -6.44791    -2.40243     0.42513
 H    -3.26262     1.35332     5.94635
 H    -0.88310     1.94942     4.66003
 H    -1.75422     3.57008     6.71361
 H    -4.08593     0.12027    -6.67824
 H    -7.80919    -1.18843    -4.96910
 H    -6.00271    -3.37441    -8.23072
 H    -3.18139    -0.09566     6.70215
 H     0.54210     1.22086     5.00363
 H    -1.26941     3.40774     8.26523
 H     2.21445     1.23158     0.43286
 H    -1.50681    -0.10150     2.10217
 H    -6.97647    -2.25739    -1.11067
 H    -8.55857    -2.30948    -7.48861
 H    -4.82011    -1.00702    -9.17025
 H    -6.62150     1.21148    -5.94847
 H     1.29243     2.33867     7.52034
 H    -2.45881     1.03787     9.20074
 H    -0.64816    -1.17714     5.98045
 H    -9.49625    -1.18682    -0.40454
 H    -5.77217     0.13806    -2.07602
 H    -0.30678     2.29415     1.14949
Co    -7.27462     0.03676     0.03192
Co    -4.61101    -3.01014     3.57439
 N    -2.11809    -2.24187     4.90905
 N    -3.54286    -2.00073     1.03447
 N    -5.73709    -0.35591     4.16210
 N    -3.76390     2.08779    -1.01672
 N    -1.54637     0.40121    -4.17250
 N    -5.16670     2.28783    -4.87692
 C    -3.11429    -2.56402     4.36914
 C    -3.95851    -2.41726     2.05573
 C    -5.26359    -1.41216     3.94361
 C    -3.31497     2.47944    -2.03354
 C    -1.99369     1.45983    -3.91468
 C    -4.16164     2.60185    -4.34823
 N    -1.68791    -0.55146    -0.99004
 N    -5.59104     0.59289     1.02542
 N    -0.78639    -0.73012     1.72778
 N     0.84006    -1.80401    -0.40286
 N    -6.49231     0.76549    -1.69857
 N    -8.11079     1.84353     0.43241
 H    -1.45948    -1.00142    -1.87752
 H    -5.82276     1.05486     1.90602
 H    -1.21369    -1.64336     1.56740
 H     1.80265    -1.69917    -0.73011
 H    -6.06541     1.67928    -1.54003
 H    -9.07028     1.73682     0.76823
 H     0.86098    -2.41056     0.41634
 H    -8.13764     2.44592    -0.38944
 H    -4.98732    -0.20113     1.23765
 H    -7.35158    -0.74316     2.51701
 H    -2.29801     0.24158    -1.18684
 H     0.07608     0.77171    -2.49015
 H    -2.24368    -1.20996    -0.43077
 H     1.50754     0.09027    -2.09281
 H    -5.02947     1.24004     0.45960
 H    -8.78316    -0.05515     2.12255
 H     0.31089    -2.30797    -1.12464
 H    -7.57833     2.35086     1.14899
