  144
 
Ca     0.00000     0.00000     0.00000
 P     3.44435     0.04159     0.07762
Be     2.23427     2.26197     0.21643
 O     4.79033     0.73212    -0.16540
 O     3.34400    -1.31302    -0.66481
 O     2.20962     0.75746    -0.51741
 O     3.32699    -0.08642     1.60240
 O     3.35531     2.76054     1.29568
Ca     3.59655    -1.67774    -2.95721
Ca     5.38610     2.86671     0.27266
Be     4.44241    -2.31947     0.05042
Be     2.23831    -1.30066     1.89378
 O     6.98030    -3.89220    -0.27469
 O     2.00203     5.08350    -2.40120
 O     0.61625     2.18537     0.54322
 O     1.89984    -0.54950     3.35012
 O     2.04541     2.91571    -1.29372
 O     1.11726    -1.80467     0.81714
 P     6.32408    -3.13559    -1.43378
 O     4.77867    -3.07593    -1.40324
 O     6.93165    -1.72759    -1.38476
 O     5.56427    -1.81623     1.12697
Ca     3.39838    -5.09486    -1.22681
Be     6.74554    -1.07365    -2.89456
 O     1.88697    -4.34949     2.11056
 O     4.46576    -4.37929     2.46419
 O     3.34807    -3.53023     0.34231
 O     5.62521    -1.57371    -3.97392
 P     2.65548     4.32287    -1.24314
 O     2.45014     5.03382     0.11633
 O     3.33854    -2.30560     2.60881
 P     3.23379    -3.66033     1.86677
 H     1.66743    -2.17764     0.06450
 H     5.01342    -1.44171     1.87817
 H     5.89811    -2.51738    -4.17435
 H     3.08417     3.70420     1.49914
Ca    -3.28350    -1.47722    -3.17336
 P     0.16222    -1.43446    -3.09313
Be    -1.04818     0.78229    -2.95656
 O     1.50797    -0.74332    -3.33631
 O     0.06539    -2.79000    -3.83456
 O    -1.07316    -0.72207    -3.69075
 O     0.04552    -1.56225    -1.56834
 O     0.07113     1.28096    -1.87549
Ca     0.31412    -3.15403    -6.12651
Ca     2.10212     1.39020    -2.89671
Be     1.16287    -3.79735    -3.12068
Be    -1.04409    -2.77615    -1.27913
 O     3.69871    -5.37071    -3.44833
 O    -1.28198     3.60497    -5.57314
 O    -2.66638     0.70752    -2.63050
 O    -1.38184    -2.02651     0.17844
 O    -1.23602     1.43591    -4.46699
 O    -2.16421    -3.27838    -2.35742
 P     3.04201    -4.61419    -4.60707
 O     1.49656    -4.55455    -4.57487
 O     3.64751    -3.20525    -4.55883
 O     2.28378    -3.29253    -2.04423
Ca     0.11501    -6.57210    -4.39744
Be     3.46200    -2.55140    -6.06852
 O    -1.39386    -5.82579    -1.06106
 O     1.18485    -5.85561    -0.70959
 O     0.06691    -5.00648    -2.82996
 O     2.34120    -3.05073    -7.14662
 P    -0.62749     2.84378    -4.41628
 O    -0.83389     3.55328    -3.05613
 O     0.05625    -3.78128    -0.56422
 P    -0.04754    -5.13604    -1.30537
 H    -1.61237    -3.65024    -3.11005
 H     1.73433    -2.91763    -1.29249
 H     2.61165    -3.99483    -7.34861
 H    -0.20198     2.22392    -1.67150
Ca     2.30121     4.81049    -4.62366
 P     5.74636     4.85635    -4.54703
Be     4.53546     7.07913    -4.41037
 O     7.09473     5.54545    -4.77962
 O     5.64306     3.50067    -5.28696
 O     4.51765     5.57839    -5.14915
 O     5.61765     4.72850    -3.02332
 O     5.65702     7.57419    -3.32946
Ca     5.89917     3.13616    -7.58082
Ca     7.68757     7.68310    -4.34571
Be     6.74402     2.49377    -4.57492
Be     4.53694     3.50754    -2.73118
 O     9.27222     0.90885    -4.90260
 O     4.31405     9.91419    -7.02283
 O     2.91788     6.99760    -4.08258
 O     4.20036     4.25862    -1.27435
 O     4.33391     7.74277    -5.91749
 O     3.41484     3.00433    -3.80772
 P     8.62663     1.67811    -6.05986
 O     7.08206     1.74689    -6.03396
 O     9.24927     3.08004    -6.00861
 O     7.86611     2.99503    -3.49750
Ca     5.70006    -0.29082    -5.85201
Be     9.05173     3.74102    -7.51545
 O     4.19084     0.45757    -2.52333
 O     6.77061     0.43047    -2.16122
 O     5.66187     1.27325    -4.28517
 O     7.93351     3.24472    -8.59832
 P     4.95906     9.14296    -5.86551
 O     4.75595     9.85621    -4.50670
 O     5.64061     2.50307    -2.02130
 P     5.53795     1.14674    -2.76073
 H     3.96422     2.63132    -4.56063
 H     7.31671     3.36712    -2.74409
 H     8.20736     2.30179    -8.80311
 H     5.38334     8.51662    -3.12323
Ca    -0.98209     3.33470    -7.79712
 P     2.46452     3.38031    -7.71755
Be     1.25403     5.59934    -7.58173
 O     3.81215     4.07058    -7.95197
 O     2.36420     2.02458    -8.45789
 O     1.23420     4.09880    -8.32064
 O     2.33798     3.25180    -6.19384
 O     2.37348     6.09411    -6.49904
Ca     2.61642     1.65896   -10.75073
Ca     4.40322     6.20659    -7.51599
Be     3.46365     1.01713    -7.74613
Be     1.25526     2.03201    -5.90407
 O     5.99125    -0.56901    -8.07528
 O     1.03063     8.43415   -10.19454
 O    -0.36380     5.52060    -7.25520
 O     0.91759     2.78183    -4.44672
 O     1.05480     6.26237    -9.08930
 O     0.13419     1.53104    -6.98241
 P     5.34486     0.20015    -9.23204
 O     3.80019     0.26873    -9.20498
 O     5.96626     1.60266    -9.18158
 O     4.58596     1.51876    -6.66973
Ca     2.41648    -1.76545    -9.02320
Be     5.76900     2.26378   -10.68827
 O     0.90925    -1.01715    -5.69398
 O     3.48828    -1.04664    -5.33577
 O     2.37824    -0.20028    -7.45708
 O     4.64947     1.76646   -11.76923
 P     1.67701     7.66385    -9.03770
 O     1.47305     8.37634    -7.67872
 O     2.35860     1.02792    -5.19245
 P     2.25603    -0.32759    -5.93258
 H     0.68424     1.16050    -7.73573
 H     4.04072     1.88813    -5.91362
 H     4.92155     0.82366   -11.97429
 H     2.09589     7.03521    -6.28907
