  176
 
Ca     0.00000     0.00000     0.00000
 P    -5.13381    -1.97677   -11.81909
 O    -5.19324    -0.44881   -12.06278
 O    -4.49604    -2.49241   -10.49810
 O    -4.39447    -2.74088   -12.94593
 O    -6.52794    -2.66939   -11.82124
Ca    -0.61744     5.83029    -1.96360
 O     0.55314    -0.04589     2.12484
 H    -0.12749     0.41806     2.60789
 P     0.32717    -3.10176     0.73923
 O     0.87412    -3.63779     2.06722
 O    -0.16507    -4.06813    -0.40524
 O    -0.92787    -2.17358     0.85844
 O     1.32146    -2.18996    -0.02741
 P     0.20664     3.32387     0.18999
 O    -0.26479     2.36902    -0.92302
 O    -0.02900     4.84803     0.01336
 O     1.73216     3.28828     0.53278
 O    -0.39160     2.90090     1.56377
Ca     1.53475     2.85363     2.97622
Ca    -0.68646     5.94687     2.03389
Ca     0.68301    -3.12592    -2.48683
Ca     2.37598     5.72340     0.63218
Ca    -2.38155     2.44751    -1.83794
Ca    -4.21045    -6.33083    -5.39935
Ca     0.55163     2.29088    -3.07227
Ca    -1.23623    -6.40168    -6.41407
Ca    -2.33850    -2.86378    -0.94706
 P    -3.49748    -4.16454    -7.84898
 O    -7.36126    -5.61012    -8.39195
 O    -2.81180     5.90681     1.09176
 O    -7.30612    -2.73346    -8.36004
 O    -1.08911    -1.14390    -1.66770
 O    -3.72827    -5.09038    -9.06856
 O    -4.87580    -3.45952    -7.73400
 O    -5.54995    -7.07387    -7.22320
 O    -4.80020     5.24167    -0.43139
 O    -2.08411     0.73882     0.41906
 O    -7.85861    -7.27376    -6.52819
 O    -2.49531    -3.02364    -8.13531
 O    -2.61596     5.01755    -1.35348
 O    -4.38643     0.93752     1.08786
Ca    -3.70835    -1.14793    -8.73518
Ca    -0.99490     0.86857     5.55667
Ca    -2.36804    -1.77073     2.58086
Ca    -2.45738     1.10266    -5.64683
Ca    -2.53444     2.37201     2.13455
 P    -1.33909    -0.59083    -3.08805
 O    -1.26819     0.93767    -3.27530
 O    -0.36469    -1.46838    -3.94843
 O    -2.70421    -1.05397    -3.66494
Ca    -2.12623    -2.72571    -5.29759
 O    -3.12870    -1.00183    -6.27323
 H    -4.01410    -1.01605    -5.88732
 O    -3.00082    -4.83310    -6.54015
 P    -1.93974    -5.31274    -3.15495
 O    -2.21743    -6.14763    -4.41438
 O    -1.28528    -3.95456    -3.30300
 O    -1.49991    -6.35189    -2.14348
 O    -3.39744    -4.87237    -2.52646
 O    -5.70603     3.10543    -5.04436
 O    -4.46693    -2.76106    -2.11778
 O    -3.45079    -1.41762     0.41490
 O    -4.45980     1.13957    -4.47468
 O    -6.45349    -3.96393    -3.26999
 O    -5.84784    -0.72715    -7.98185
 O    -6.03287     1.75374    -2.74620
 O    -4.44658    -3.92533    -4.53327
 O    -8.18619    -0.36039    -7.62111
Ca    -4.83819    -0.64117    -2.91675
Ca    -6.16820    -3.10483    -5.97250
Ca    -6.24766     0.77885    -6.27363
 P    -6.86566    -6.23192    -7.07680
 O    -6.44992    -5.33118    -5.85998
 O    -2.27463     0.64096     3.64954
 H    -3.15822     0.55236     4.01961
 P    -3.34262     4.92994     0.02976
 O    -3.34795     3.39439     0.28766
 P    -3.47319     0.10874     0.14108
 O    -3.89099     0.61607    -1.26737
 P    -4.72758    -3.96238    -3.03720
 P    -7.22286    -1.20623    -8.52382
 O    -4.15758     3.29993    -2.97896
 O    -5.76917    -4.98926    -2.33562
 O    -7.55517    -0.62964    -9.92378
 P    -5.09562     2.40251    -3.79418
 O    -6.19499    -1.11715    -4.86547
 H    -7.10030    -1.04847    -4.51890
Ca     6.08581    -0.15711    -2.60092
 P     0.81057    -2.17104   -14.53259
 O     0.87742    -0.62858   -14.65754
 O     1.11695    -2.77482   -13.12525
 O     1.81207    -2.98585   -15.39652
 O    -0.56475    -2.64578   -15.03097
Ca     5.37834     5.66063    -4.68659
 O     6.52296     0.11003    -0.46344
 H     5.67252     0.12368    -0.00648
 P     6.29951    -3.29768    -1.84786
 O     6.76369    -3.90403    -0.49866
 O     6.15406    -4.25266    -3.05220
 O     4.88647    -2.64546    -1.80346
 O     7.28153    -2.14066    -2.14789
 P     6.16879     3.12997    -2.54959
 O     5.58418     2.15723    -3.59126
 O     6.37026     4.61990    -2.92291
 O     7.52249     2.54760    -2.05178
 O     5.40273     3.26021    -1.18711
Ca     7.35053     2.52130     0.29224
Ca     5.31902     5.62404    -0.59944
Ca     6.71354    -3.31682    -5.09272
Ca     8.33162     5.57417    -2.03003
Ca     3.50475     2.13067    -4.51052
Ca     1.91439    -6.47543    -7.81017
Ca     6.44187     2.03409    -5.76602
Ca     4.76890    -6.63775    -9.05995
Ca     3.62485    -3.28313    -3.68343
 P     2.53572    -4.42035   -10.47884
 O    -1.33662    -5.83509   -10.93473
 O     3.15066     5.72805    -1.54788
 O    -1.29515    -3.00867   -11.01124
 O     5.47592    -1.40710    -4.36930
 O     2.04577    -5.35589   -11.62082
 O     1.34121    -3.44236   -10.28088
 O     0.36261    -7.42338    -9.85926
 O     1.12106     4.82916    -2.95948
 O     3.95549     0.36117    -1.89943
 O    -1.75694    -7.13549    -8.70382
 O     3.57166    -3.45789   -11.12443
 O     3.23712     5.13545    -4.03318
 O     1.58838     0.63873    -1.42196
Ca     2.10329    -1.53187   -11.57407
Ca     4.93177     0.69101     2.87048
Ca     3.52212    -2.29970    -0.12018
Ca     3.66211     0.87088    -8.16517
Ca     3.50188     2.28451    -0.46748
 P     4.71469    -0.89571    -5.61992
 O     4.59225     0.61485    -5.88964
 O     5.41492    -1.66164    -6.79539
 O     3.37183    -1.68188    -5.51251
Ca     3.78820    -3.16702    -7.63903
 O     3.06409    -1.25147    -8.45858
 H     2.11316    -1.27298    -8.51970
 O     3.08948    -5.03942    -9.17403
 P     4.62474    -5.75166    -5.69023
 O     4.01986    -6.62055    -6.82120
 O     4.77319    -4.22713    -5.92513
 O     5.97525    -6.35710    -5.23192
 O     3.81335    -5.78386    -4.36020
 O     0.28072     2.59130    -7.76612
 O     1.56012    -3.17908    -4.60808
 O     2.50661    -1.70577    -2.21359
 O     2.05184     1.05672    -6.57058
 O    -0.20317    -3.24197    -6.32570
 O     0.06649    -0.82120   -11.05179
 O    -0.26170     0.91910    -5.94658
 O     1.93753    -4.27922    -6.95871
 O    -2.21349    -0.64214   -10.31322
Ca     1.33416    -0.89549    -5.27281
Ca    -0.24601    -3.19082    -8.68787
Ca    -0.25826     0.68931    -9.29683
 P    -0.75183    -6.36915    -9.61038
 O    -0.10709    -5.39158    -8.58308
 O     3.64451     0.79962     1.13909
 H     2.80905     0.36655     1.28276
 P     2.64753     4.76627    -2.64048
 O     2.85016     3.23451    -2.45529
 P     2.57216    -0.16346    -2.31567
 O     2.20788     0.43392    -3.71951
 P     0.99000    -4.05614    -5.76313
 P    -1.33045    -1.49607   -11.28578
 O     1.18691     2.88285    -5.27223
 O     0.57169    -5.46728    -5.30558
 O    -1.75744    -0.92280   -12.65934
 P     0.78401     1.94578    -6.45017
 O    -0.30199    -1.09428    -8.13699
 H    -0.75351    -0.96076    -7.30651
