  200
 
Zn     0.00000     0.00000     0.00000
Zn     3.12329    -0.10408     0.14024
Zn    -1.54351     3.08469    -0.02102
 C    -4.22230    -3.59201     8.44060
 O    -4.08825    -2.90639     7.33008
 O    -3.34102    -3.42912     9.34164
 O    -5.21928    -4.37005     8.53844
 O    -0.05123    -0.93352    -1.85254
 O     1.18595     3.26409     3.51978
Zn     1.45575     2.29528     1.55063
 O    -1.55620     1.22689    -0.63076
Zn    -1.65118     1.48018     2.67222
 C    -0.78516     0.67689     5.32498
 O    -0.88773    -0.07877     6.38323
 O    -1.65385     0.54881     4.41038
 O     0.16102     1.52668     5.28548
 O     1.53474    -1.26579     0.68581
 O     0.10333     3.72683     0.80265
 O     0.04809     0.87747     1.91012
Zn    -2.46185    -1.51700     6.82801
Zn     0.64593    -1.57306     6.89303
Zn     2.17377    -3.82498     5.70511
 O    -1.61035    -1.40623     0.50429
 O     1.61673     1.35488    -0.44921
Zn    -0.82525    -3.04984     4.16080
 C    -1.73464    -2.13511     1.59118
 O    -0.82252    -2.02761     2.46639
 O    -2.74940    -2.88763     1.68864
 O    -2.52698    -2.42182     4.95549
 O     1.98724    -3.01931     7.62518
 O    -0.80442    -4.92779     3.54192
Zn    -0.92986    -4.64438     6.86323
 C     1.76134     2.05827    -1.55008
 O     0.88087     1.92161    -2.45181
 O     2.76697     2.82802    -1.62551
 O    -0.93051    -2.76194     7.47072
 O     0.81229    -2.40756     4.99460
 O    -2.47060    -0.65331     8.75248
 H    -0.45358    -0.28662    -2.47389
 H     0.77591     2.60414     4.11391
 H    -1.54034     1.22761    -1.61264
 H     1.48061    -1.27730     1.66639
 H     0.54537     4.31390     0.15090
 H     0.43526     0.21216     2.51871
 H    -2.93761    -1.78624     4.33635
 H     1.54959    -3.63573     8.24736
 H    -0.77908    -4.94024     2.56324
 H    -0.94075    -2.77101     8.45065
 H     1.22224    -1.76780     4.37842
 H    -2.10223    -1.34677     9.33517
Zn    -4.56080    -2.28553    -1.53383
Zn    -1.45560    -2.37160    -1.44418
Zn    -6.08964     0.83421    -1.56417
 C    -8.79588    -5.85463     6.86951
 O    -8.64930    -5.15545     5.76519
 O    -7.94541    -5.68158     7.79398
 O    -9.77758    -6.65139     6.92875
 O    -4.59892    -3.20335    -3.41074
 O    -3.30659     0.84736     1.90208
Zn    -3.12044     0.03585    -0.04308
 O    -6.11656    -1.03207    -2.17045
Zn    -6.22531    -0.75161     1.14013
 C    -5.37865    -1.63972     3.74494
 O    -5.49713    -2.38191     4.81442
 O    -6.32262    -1.67539     2.88968
 O    -4.33888    -0.92313     3.63233
 O    -3.04427    -3.58317    -0.89390
 O    -4.48045     1.49476    -0.72492
 O    -4.54924    -1.39263     0.35239
Zn    -7.03883    -3.80021     5.32593
Zn    -3.91985    -3.86443     5.36590
Zn    -2.39670    -6.08410     4.11889
 O    -6.16366    -3.65957    -1.04300
 O    -2.96897    -0.92290    -2.01786
Zn    -5.39935    -5.29713     2.62837
 C    -6.28779    -4.38934     0.04405
 O    -5.38002    -4.28759     0.92266
 O    -7.30867    -5.13328     0.13437
 O    -7.11309    -4.60262     3.39288
 O    -2.56747    -5.30457     6.05710
 O    -5.35029    -7.17980     2.00974
Zn    -5.50880    -6.91210     5.31258
 C    -2.83500    -0.22585    -3.12415
 O    -3.72428    -0.37262    -4.01699
 O    -1.83464     0.54600    -3.21863
 O    -5.50732    -5.04507     5.94619
 O    -3.76246    -4.65341     3.43525
 O    -7.03520    -2.88467     7.21242
 H    -4.99562    -2.54261    -4.02394
 H    -3.70894     0.20140     2.51855
 H    -6.09337    -1.02988    -3.15444
 H    -3.08590    -3.57845     0.08701
 H    -4.04445     2.11318    -1.34940
 H    -4.15085    -2.03896     0.97458
 H    -7.46197    -3.92827     2.78841
 H    -2.99263    -5.92932     6.67470
 H    -5.30283    -7.18009     1.03572
 H    -5.51165    -5.05599     6.92607
 H    -3.35159    -4.01194     2.82039
 H    -6.62618    -3.55236     7.80982
Zn     3.21148    -4.68905    -2.63446
Zn     6.34961    -4.74673    -2.66930
Zn     1.63856    -1.53922    -2.63850
 C    -1.02075    -8.25018     5.80209
 O    -0.88310    -7.55312     4.69674
 O    -0.13424    -8.09857     6.69788
 O    -2.02289    -9.01989     5.89895
 O     3.22282    -5.59608    -4.47453
 O     4.56551    -1.65737     0.73451
Zn     4.59781    -2.29016    -1.20436
 O     1.69198    -3.42019    -3.23665
Zn     1.50057    -3.11232     0.07049
 C     2.50456    -4.07223     2.63835
 O     2.37126    -4.80514     3.71281
 O     1.61943    -4.16945     1.73726
 O     3.53116    -3.32688     2.55353
 O     4.81347    -5.92180    -1.98983
 O     3.28310    -0.88866    -1.81092
 O     3.19037    -3.80305    -0.76663
Zn     0.73662    -6.15412     4.20497
Zn     3.86061    -6.26397     4.30066
Zn     5.39494    -8.54973     3.13184
 O     1.65057    -6.05163    -2.10223
 O     4.87964    -3.30550    -3.00839
Zn     2.38601    -7.73835     1.55701
 C     1.52660    -6.78131    -1.02355
 O     2.42917    -6.67077    -0.13200
 O     0.51564    -7.54577    -0.95491
 O     0.71448    -7.08878     2.34603
 O     5.21605    -7.68764     5.01917
 O     2.43206    -9.59345     0.92955
Zn     2.29564    -9.32055     4.26328
 C     4.98287    -2.60900    -4.14385
 O     4.08670    -2.77996    -5.01231
 O     5.97582    -1.83566    -4.24702
 O     2.27434    -7.44649     4.84982
 O     4.05122    -7.10999     2.35803
 O     0.77550    -5.27498     6.07533
 H     2.82295    -4.95367    -5.09657
 H     4.10017    -2.22715     1.38327
 H     1.70390    -3.40729    -4.21532
 H     4.80145    -6.07176    -1.05049
 H     3.69247    -0.24935    -2.43515
 H     3.29839    -4.57613    -0.19183
 H     0.30415    -6.46332     1.71502
 H     4.75987    -8.30075     5.63101
 H     2.44017    -9.59200    -0.04967
 H     2.23413    -7.43398     5.82938
 H     4.50331    -6.57329     1.73483
 H     1.16565    -5.92977     6.69097
Zn    -1.29440    -6.86711    -4.25657
Zn     1.80580    -7.05461    -4.09311
Zn    -2.90120    -3.80557    -4.19150
 C    -5.56874   -10.53313     4.21410
 O    -5.42209    -9.84845     3.10451
 O    -4.68232   -10.40804     5.11343
 O    -6.58151   -11.29033     4.29890
 O    -1.38819    -7.84039    -6.01786
 O    -0.10287    -3.82788    -0.74776
Zn     0.09303    -4.60174    -2.65261
 O    -2.88266    -5.75102    -4.79078
Zn    -2.99457    -5.43469    -1.51110
 C    -2.07224    -6.44192     1.02213
 O    -2.24420    -7.11786     2.12584
 O    -2.89505    -6.63938     0.06608
 O    -1.09076    -5.64088     0.95909
 O     0.11622    -8.19171    -3.54050
 O    -1.25225    -3.20183    -3.38697
 O    -1.33975    -6.15306    -2.33510
Zn    -3.83430    -8.45869     2.68917
Zn    -0.68534    -8.53806     2.81444
Zn     0.86101   -10.78771     1.54536
 O    -4.02529    -8.66680    -2.33719
 O     0.30522    -5.58662    -4.58217
Zn    -2.07715   -10.06597     0.27449
 C    -2.79530    -9.15018    -2.14142
 O    -1.68116    -8.90657    -1.81952
 O    -3.65583   -10.13312    -2.52930
 O    -3.80740    -9.36363     0.71242
 O     0.66452    -9.97938     3.45576
 O    -2.17097   -11.78002    -0.56160
Zn    -2.28744   -11.65232     2.79941
 C     0.42063    -4.89719    -5.69548
 O    -0.49652    -5.06918    -6.56098
 O     1.41131    -4.12741    -5.81992
 O    -2.29330    -9.73431     3.31633
 O    -0.46019    -9.27832     0.84058
 O    -3.80518    -7.53340     4.53124
 H    -1.73982    -7.16947    -6.65315
 H    -0.50390    -4.47568    -0.13313
 H    -2.85096    -5.68706    -5.77880
 H     0.21311    -8.15060    -2.56734
 H    -0.82413    -2.56714    -3.99992
 H    -0.87489    -6.72718    -1.69924
 H    -4.21625    -8.66730     0.17319
 H     0.24213   -10.60538     4.07470
 H    -2.10248   -11.82439    -1.53600
 H    -2.33849    -9.72042     4.29971
 H    -0.04472    -8.64879     0.22711
 H    -3.40257    -8.16181     5.16643
