   80
 
 I     0.00000     0.00000     0.00000
 I    -2.67853     0.89054    -3.06251
 I     1.11745    -0.23617    -3.80667
 I    -3.34636     1.71625     1.44536
 O    -0.21345    -1.67920    -0.64654
 O    -3.79423     0.82697    -4.48885
 O     0.93434     0.64177    -2.23220
 O    -1.83410     2.58108     1.94376
 O    -0.67157    -0.31467     1.74445
 O    -1.37164     2.03824    -3.81615
 O     0.76812    -1.98426    -3.16224
 O    -3.63235     2.63131    -0.18988
 O    -1.50172     0.77420    -0.56891
 O    -1.71019    -0.58302    -3.32544
 O     2.88319    -0.47690    -3.85558
 O    -4.57872     2.65634     2.32610
 H    -0.80666    -1.29328     1.87523
 H    -1.70799     2.39871    -4.68216
 H     0.44508    -1.93129    -2.22103
 H    -2.83788     3.19649    -0.39586
 I    -1.80864    -3.65439     4.23214
 I    -4.48717    -2.76385     1.16963
 I    -0.69119    -3.89056     0.42547
 I    -5.15500    -1.93814     5.67750
 O    -2.02209    -5.33359     3.58561
 O    -5.60287    -2.82742    -0.25671
 O    -0.87430    -3.01262     1.99994
 O    -3.64274    -1.07331     6.17591
 O    -2.48021    -3.96906     5.97659
 O    -3.18028    -1.61615     0.41599
 O    -1.04052    -5.63865     1.06990
 O    -5.44098    -1.02308     4.04227
 O    -3.31035    -2.88019     3.66324
 O    -3.51883    -4.23741     0.90670
 O     1.07455    -4.13129     0.37657
 O    -6.38736    -0.99805     6.55824
 H    -2.61530    -4.94767     6.10737
 H    -3.51662    -1.25568    -0.45002
 H    -1.36356    -5.58568     2.01111
 H    -4.64651    -0.45790     3.83628
 I     2.44088     3.20046     3.80667
 I    -0.23765     4.09100     0.74416
 I     3.55832     2.96429     0.00000
 I    -0.90548     4.91671     5.25203
 O     2.22743     1.52126     3.16014
 O    -1.35335     4.02743    -0.68218
 O     3.37522     3.84223     1.57447
 O     0.60678     5.78154     5.75044
 O     1.76931     2.88579     5.55112
 O     1.06924     5.23870    -0.00948
 O     3.20899     1.21620     0.64443
 O    -1.19147     5.83177     3.61680
 O     0.93916     3.97466     3.23777
 O     0.73069     2.61744     0.48123
 O     5.32407     2.72356    -0.04891
 O    -2.13785     5.85680     6.13277
 H     1.63422     1.90718     5.68190
 H     0.73289     5.59917    -0.87549
 H     2.88596     1.26917     1.58564
 H    -0.39700     6.39695     3.41081
 I     0.63224    -0.45393     8.03882
 I    -2.04629     0.43661     4.97631
 I     1.74969    -0.69010     4.23214
 I    -2.71412     1.26232     9.48418
 O     0.41879    -2.13312     7.39228
 O    -3.16199     0.37304     3.54997
 O     1.56658     0.18784     5.80662
 O    -1.20186     2.12715     9.98258
 O    -0.03933    -0.76860     9.78327
 O    -0.73940     1.58431     4.22266
 O     1.40036    -2.43819     4.87657
 O    -3.00010     2.17738     7.84894
 O    -0.86948     0.32027     7.46991
 O    -1.07795    -1.03695     4.71338
 O     3.51543    -0.93083     4.18324
 O    -3.94648     2.20241    10.36492
 H    -0.17442    -1.74721     9.91405
 H    -1.07575     1.94478     3.35666
 H     1.07732    -2.38522     5.81778
 H    -2.20564     2.74256     7.64295
