  288
 
 O     0.00000     0.00000     0.00000
 H     0.73112    -0.32180     4.15759
 O     0.01367     0.04552     3.59721
 O     4.03279     4.11221    -1.75180
 H     3.87234     3.36106    -2.36986
 H     4.70686     3.77554    -1.12798
 H    -0.22944     4.41689     5.14290
 O     0.00468     3.63555     4.59193
 H     0.62427     3.99677     3.92407
 O     2.08289    -9.29991    -2.32032
 H     1.76846    -9.92380    -1.63709
 H     2.92365    -8.93024    -1.97892
 O     1.82532   -11.27235    -0.53348
 H     2.67412   -11.64285    -0.85216
 H     2.03832   -10.60146     0.14648
 O    -9.04353   -10.50012    -1.22683
 H    -9.65852   -10.18952    -1.92394
 H    -8.60090    -9.69176    -0.87815
 O     1.46591     1.72153    -1.39433
 H     0.92011     2.44212    -1.75872
 H     0.88201     1.06789    -0.96216
 O    -9.94007     1.00142     5.07219
 H   -10.25973     1.62260     4.38184
 H   -10.70024     0.40884     5.27779
 O     4.19181    -0.21582    -1.00583
 H     4.51912    -0.90791    -0.39996
 H     3.89700     0.51861    -0.42676
 H     2.68033     2.07812     3.33886
 O     3.34186     1.88299     4.04780
 H     2.74157     1.57835     4.76704
 H   -10.34007   -10.45764     3.47059
 O   -11.00993   -10.12915     4.10905
 H   -11.46907   -10.91325     4.47984
 H   -10.03444     2.28009    -0.99812
 O   -10.31887     2.93739    -0.32575
 H    -9.50047     3.34076     0.03661
 H    -0.26594    -0.74151    -0.58605
 H     0.71622    -0.37218     0.55837
 O     3.96337     4.05317     1.84443
 H     3.80754     3.30376     1.22318
 H     4.64543     3.73258     2.46370
 H    -0.21192     4.51375     1.53530
 O     0.00760     3.72193     0.99671
 H     0.63939     4.05749     0.32595
 O     1.97522    -9.31070     1.27457
 H     1.64541    -9.91970     1.96339
 H     2.79974    -8.92344     1.63366
 O     1.76968   -11.28834     3.06199
 H     2.60797   -11.66620     2.72759
 H     2.00339   -10.61551     3.73285
 O    -9.06971   -10.46830     2.36932
 H    -9.68706   -10.17511     1.66642
 H    -8.62443    -9.65574     2.70409
 O     1.42546     1.85404     2.26859
 H     0.86925     2.56390     1.89868
 H     0.85114     1.17860     2.68033
 O    -9.92764     0.99545     1.47612
 H   -10.23205     1.61969     0.78240
 H   -10.69777     0.41516     1.67658
 O     4.09456    -0.22286     2.58901
 H     4.43259    -0.90462     3.20067
 H     3.82659     0.52902     3.15889
 H     2.67502     1.99506    -0.27728
 O     3.33210     1.85744     0.45127
 H     2.72454     1.61202     1.18627
 H   -10.30751   -10.50991    -0.12322
 O   -10.97137   -10.16338     0.51305
 H   -11.44149   -10.93663     0.88944
 H   -10.08177     2.27175     2.59884
 O   -10.35297     2.93320     3.26990
 H    -9.52628     3.32629     3.62871
 H    -0.24377    -0.69535     3.01017
 H    -8.75269     0.23185     4.13432
 H    -7.35347    -0.48321     4.08282
 O    -8.10208    -0.18279     3.53192
 O    -4.01339     4.12572    -1.83801
 H    -4.23207     3.34288    -2.39423
 H    -3.35156     3.79023    -1.19715
 H    -8.36742     4.40192     5.06938
 O    -8.08956     3.65900     4.49601
 H    -7.45166     4.04319     3.86371
 O    -5.94762    -9.31177    -2.35157
 H    -6.24603    -9.98483    -1.70918
 H    -5.21650    -8.84923    -1.88815
 O    -6.20004   -11.28206    -0.56794
 H    -5.36145   -11.64683    -0.93269
 H    -5.94602   -10.59641     0.07850
 O    -0.71345   -10.25526    -1.40704
 H    -1.32951   -10.09669    -2.16083
 H    -1.36082   -10.46871    -0.69621
 O    -6.75108     1.76804    -1.33710
 H    -7.28837     2.47243    -1.74494
 H    -7.33683     1.07471    -0.97722
 O    -2.06584     0.92139     5.03340
 H    -2.38656     1.59215     4.39567
 H    -1.28647     0.52323     4.59567
 O    -3.95331    -0.24484    -0.80135
 H    -4.26858     0.48759    -0.23240
 H    -3.22708     0.13627    -1.33484
 H    -5.54075     2.03956     3.38804
 O    -4.89111     1.86587     4.11006
 H    -5.51438     1.64119     4.84162
 O    -2.71516   -10.31552     3.97688
 H    -3.28716    -9.59107     3.66861
 H    -3.24410   -10.97035     4.46862
 H    -1.87244     2.25670    -0.99798
 O    -2.16678     2.90433    -0.33003
 H    -1.36708     3.26867     0.10551
 H    -8.72283     0.23241     0.54289
 H    -7.31266    -0.46502     0.48080
 O    -8.06968    -0.17185    -0.06295
 O    -4.05478     4.08529     1.75738
 H    -4.28118     3.30072     1.20875
 H    -3.39160     3.75475     2.39995
 H    -8.33371     4.44974     1.46616
 O    -8.06792     3.69665     0.90031
 H    -7.42502     4.06355     0.26456
 O    -6.01791    -9.32207     1.24414
 H    -6.28534   -10.00251     1.89360
 H    -5.30123    -8.83033     1.70042
 O    -6.23226   -11.30065     3.02851
 H    -5.39703   -11.67096     2.66358
 H    -5.97162   -10.61843     3.67851
 O    -0.74340   -10.18037     2.18929
 H    -1.35977   -10.04378     1.42953
 H    -1.39027   -10.39432     2.89817
 O    -6.80464     1.80183     2.30146
 H    -7.34080     2.51713     1.91238
 H    -7.39081     1.08243     2.60420
 O    -2.03861     0.94705     1.43743
 H    -2.35825     1.61759     0.79870
 H    -1.27717     0.52526     0.98885
 O    -3.99057    -0.26738     2.79513
 H    -4.29970     0.46875     3.36612
 H    -3.27029     0.12016     2.25520
 H    -5.51771     2.03827    -0.22549
 O    -4.88549     1.87047     0.51384
 H    -5.52471     1.66974     1.23872
 O    -2.65178   -10.33837     0.38118
 H    -3.23751    -9.62864     0.06331
 H    -3.16980   -11.00154     0.87456
 H    -1.90097     2.24583     2.59872
 O    -2.19472     2.89093     3.26638
 H    -1.39231     3.24509     3.70733
 H    -0.26844    -8.77601     3.02847
 H     0.72919    -8.43600     4.16787
 O     0.00609    -8.05266     3.62787
 O     4.05791    -4.00827    -1.73298
 H     3.88883    -4.74381    -2.36570
 H     4.73086    -4.35853    -1.11398
 H    -0.23880    -3.64066     5.18032
 O    -0.00538    -4.40267     4.59838
 H     0.63644    -4.02209     3.96200
 O     2.07488    -1.18545    -2.31145
 H     1.75503    -1.81374    -1.63467
 H     2.92042    -0.83119    -1.96389
 O     1.81539    -3.16651    -0.53965
 H     2.64348    -3.55222    -0.88609
 H     2.05027    -2.51867     0.15355
 O    -9.03626    -2.36366    -1.22237
 H    -9.67128    -2.04807    -1.90151
 H    -8.58168    -1.56157    -0.87803
 O     1.46939    -6.29912    -1.39613
 H     0.92556    -5.57659    -1.76484
 H     0.88280    -6.96373    -0.99051
 O    -9.89496    -7.12069     5.06670
 H   -10.19048    -6.47565     4.38605
 H   -10.66668    -7.70042     5.25612
 O     4.20608    -8.30988    -1.02691
 H     4.53160    -9.00550    -0.42546
 H     3.91773    -7.57532    -0.44558
 H     2.67781    -6.02584     3.31877
 O     3.34301    -6.20944     4.02738
 H     2.74372    -6.48754     4.75825
 H   -10.34072    -2.33832     3.47844
 O   -11.01363    -2.02890     4.12301
 H   -11.48780    -2.82076     4.45683
 H    -9.99249    -5.82927    -0.99763
 O   -10.28161    -5.17702    -0.32184
 H    -9.47139    -4.71051    -0.01984
 H    -0.26080    -8.81991    -0.61640
 H     0.71340    -8.44450     0.52840
 O     0.00437    -8.07313    -0.03878
 O     4.00211    -4.07059     1.86164
 H     3.83273    -4.80849     1.23274
 H     4.67732    -4.41274     2.48251
 H    -0.20306    -3.60141     1.57003
 O    -0.00124    -4.38029     1.00229
 H     0.64841    -4.03216     0.35308
 O     1.98396    -1.22059     1.28380
 H     1.65796    -1.84268     1.96709
 H     2.80834    -0.83848     1.64611
 O     1.78954    -3.16040     3.05638
 H     2.60764    -3.56018     2.69854
 H     2.04630    -2.51197     3.74298
 O    -9.08298    -2.35254     2.37332
 H    -9.70801    -2.04812     1.68074
 H    -8.63101    -1.54872     2.72045
 O     1.41762    -6.26718     2.23365
 H     0.85929    -5.55476     1.87011
 H     0.84402    -6.92234     2.67398
 O    -9.90374    -7.12584     1.46987
 H   -10.19394    -6.48775     0.78092
 H   -10.68514    -7.69438     1.66082
 O     4.09807    -8.32049     2.56809
 H     4.43775    -9.00791     3.17334
 H     3.83530    -7.57344     3.14624
 H     2.70028    -6.06922    -0.29326
 O     3.35423    -6.23449     0.43119
 H     2.74023    -6.48604     1.15907
 H   -10.29549    -2.38132    -0.11435
 O   -10.96648    -2.05831     0.52674
 H   -11.44776    -2.84405     0.86500
 H   -10.04227    -5.85863     2.60175
 O   -10.31236    -5.19379     3.27234
 H    -9.50044    -4.71343     3.54405
 H    -8.71986    -7.87197     4.10092
 H    -7.31174    -8.56600     4.02860
 O    -8.06755    -8.26680     3.48690
 O    -4.00516    -3.97616    -1.81185
 H    -4.24878    -4.73070    -2.39677
 H    -3.35864    -4.35317    -1.17461
 H    -8.35596    -3.65740     5.10306
 O    -8.10161    -4.37661     4.49040
 H    -7.41115    -3.98480     3.91922
 O    -5.96513    -1.17705    -2.29191
 H    -6.21880    -1.86882    -1.64305
 H    -5.23835    -0.69643    -1.84675
 O    -6.14293    -3.11786    -0.51656
 H    -5.33929    -3.50844    -0.93117
 H    -5.84418    -2.47544     0.15315
 O    -0.74093    -2.16056    -1.38225
 H    -1.35700    -1.98955    -2.13784
 H    -1.38853    -2.36570    -0.67003
 O    -6.81205    -6.35695    -1.42122
 H    -7.35916    -5.65226    -1.81019
 H    -7.38745    -7.05640    -1.05974
 O    -2.07522    -7.19688     5.07078
 H    -2.37696    -6.53250     4.41637
 H    -1.28293    -7.59598     4.65863
 O    -3.99282    -8.35687    -0.80989
 H    -4.31491    -7.61540    -0.25563
 H    -3.25777    -7.97890    -1.33387
 H    -5.55293    -5.97054     3.30797
 O    -4.91384    -6.15772     4.03616
 H    -5.54303    -6.40403     4.75359
 O    -2.68050    -2.24142     4.00149
 H    -3.23101    -1.49934     3.68911
 H    -3.24290    -2.89980     4.45322
 H    -1.88769    -5.86769    -0.97019
 O    -2.17855    -5.21436    -0.30482
 H    -1.37803    -4.83108     0.11167
 H    -8.73672    -7.89495     0.49789
 H    -7.32847    -8.59061     0.43482
 O    -8.08725    -8.30275    -0.10974
 O    -4.04415    -4.04012     1.78356
 H    -4.27944    -4.78955     1.19589
 H    -3.38089    -4.40228     2.41021
 H    -8.31266    -3.59638     1.49424
 O    -8.06471    -4.32864     0.89469
 H    -7.37066    -3.95465     0.31463
 O    -5.99720    -1.16743     1.30385
 H    -6.25941    -1.84776     1.95664
 H    -5.26531    -0.68916     1.74915
 O    -6.19805    -3.13920     3.07631
 H    -5.39327    -3.53213     2.67506
 H    -5.90870    -2.48071     3.73793
 O    -0.72833    -2.11679     2.21416
 H    -1.35493    -1.94984     1.46889
 H    -1.36492    -2.33317     2.93207
 O    -6.82498    -6.25281     2.24907
 H    -7.37546    -5.55054     1.85693
 H    -7.39123    -6.96132     2.60823
 O    -2.01268    -7.18699     1.47513
 H    -2.30420    -6.50367     0.83545
 H    -1.26584    -7.62458     1.01533
 O    -4.05073    -8.34134     2.76930
 H    -4.34948    -7.58386     3.31515
 H    -3.30375    -7.98721     2.24382
 H    -5.56617    -6.04733    -0.29302
 O    -4.91901    -6.18269     0.43883
 H    -5.54021    -6.36711     1.18209
 O    -2.64933    -2.21421     0.42833
 H    -3.20509    -1.47945     0.10924
 H    -3.20426    -2.87808     0.87885
 H    -1.87138    -5.87779     2.63196
 O    -2.18324    -5.23118     3.29136
 H    -1.38999    -4.84395     3.72107
