  368
 
 C     0.00000     0.00000     0.00000
 C    -5.58980     2.02612    -0.17268
 C     0.82870     4.02727    -4.32017
 C    -1.01133     4.76356     2.47534
 H     0.99204     0.08993    -4.13115
 H     0.34715    -3.85717     0.05284
 H    -3.83183     0.84772    -1.33126
 H     0.78240     3.64171     1.40363
 H    -6.60919     1.88721     3.96898
 H    -5.82693     5.94497    -0.35206
 H    -1.84051     1.14091     1.04434
 H    -6.15190    -1.48615    -1.63504
 H     0.09268     1.19898    -4.83387
 H    -0.59220    -2.75198    -0.60871
 H    -4.10427     0.08143    -2.70156
 H     0.45169     2.87516     0.05777
 H    -5.72828     0.75459     4.65903
 H    -5.02216     4.76180     0.34849
 H    -1.52144     1.90435     2.39413
 H    -5.89904    -0.77467    -0.23419
 H    -0.16341     3.18764    -2.20398
 H    -0.64344    -0.87554     2.15256
 H    -2.19280    -2.36104    -1.91875
 H     2.39472     0.37802     0.55065
 H    -5.68522    -1.10816     1.87037
 H    -4.98938     2.86665    -2.32149
 H    -3.54423     4.39643     1.83211
 H    -7.95819     1.69215    -0.87819
 H    -1.43691     3.15677    -1.32893
 H    -2.03246    -0.79883     2.86929
 H    -0.85048    -2.48644    -2.72424
 H     3.79825     0.28169    -0.08574
 H    -4.28335    -1.20448     1.17762
 H    -3.60214     2.76893    -3.05642
 H    -4.93707     4.47289     2.49701
 H    -9.33246     1.73889    -0.16533
 H    -1.54975     2.91559    -3.87796
 H    -2.27050    -1.06134     0.38282
 H    -2.67681    -1.46477    -4.05955
 H     1.73244     1.33814    -1.36942
 H    -3.98872    -0.90685     3.67827
 H    -3.35294     3.14492    -0.48898
 H    -2.80914     3.42700     3.78764
 H    -7.39009     0.79888     1.19969
 H    -2.46436     1.85623    -4.52294
 H    -3.16693    -2.14283    -0.25216
 H    -2.49901    -0.12356    -4.83140
 H     1.95627     2.66908    -2.15272
 H    -3.12188     0.18455     4.34918
 H    -2.38290     4.23065     0.08040
 H    -3.03592     2.13587     4.62974
 H    -7.51554    -0.52566     1.99600
 O     0.54307    -0.23457     1.11356
 O    -6.16742     2.20453    -1.28180
 O     1.47078     3.89147    -3.24388
 O    -1.53532     4.98893     1.35016
 O     0.66129     0.06455    -1.10261
 O    -3.76047    -2.71781    -3.89288
 O    -1.27055     0.18565    -0.12903
 O    -0.45825     4.11796    -4.35912
 O    -6.23623     1.99088     0.94350
 O    -1.69790     4.66197     3.56102
 O    -4.32119     1.84878    -0.06075
 O    -4.95204    -2.18780     4.13548
 O     0.28198     0.76090    -3.98844
 O    -0.38401    -3.21388     0.21982
 O    -3.42421     0.32380    -2.05968
 O     1.15876     3.08635     0.67432
 O    -5.93199     1.18866     3.81152
 O    -5.13348     5.25521    -0.47551
 O    -2.23116     1.67763     1.78592
 O    -6.56844    -0.95901    -0.91057
 O    -0.63465     2.61992    -1.56089
 O    -1.23564    -1.37631     2.76921
 O    -1.28425    -1.98331    -1.98990
 O     3.28024     0.79136     0.59107
 O    -5.05991    -0.60969     1.28651
 O    -4.38661     3.35320    -2.93354
 O    -4.43057     3.98390     1.78625
 O    -8.84189     1.26535    -0.89314
 O    -2.11132     2.12798    -3.64844
 O    -2.79722    -1.87915     0.61663
 O    -2.04566    -0.69549    -4.16854
 O     2.39042     2.07099    -1.50503
 O    -3.47368    -0.07377     3.46843
 O    -2.81393     3.94445    -0.75672
 O    -3.47038     2.69430     3.94586
 O    -7.99393     0.01120     1.32651
Ca    -1.17413     0.41196    -2.30997
Ca    -4.44582     1.56475     2.13474
Ca     3.39937     3.13764     0.38294
Ca    -3.68404     5.60075    -2.13980
 C     3.89864    -1.27670     6.93128
 C    -1.90097     0.75751     6.82992
 C     4.51443     2.68627     2.73784
 C     2.65383     3.44842     9.51138
 H     4.76213    -1.28204     2.98168
 H     4.17348    -5.11342     7.06463
 H    -0.10898    -0.46910     5.69135
 H     4.50473     2.32585     8.44002
 H    -2.76528     0.58043    10.83391
 H    -2.00490     4.68236     6.71318
 H     2.11709    -0.19386     8.16006
 H    -2.32801    -2.83385     5.41514
 H     3.98252    -0.11871     2.25234
 H     3.23794    -4.03445     6.35788
 H    -0.39787    -1.24351     4.33449
 H     4.22085     1.48046     7.12972
 H    -1.87020    -0.50045    11.56813
 H    -1.12062     3.51600     7.35481
 H     2.32166     0.57841     9.54956
 H    -2.08982    -2.14061     6.82610
 H     3.85279     1.74081     4.84080
 H     3.07796    -2.07008     9.16592
 H     1.59430    -3.71778     5.04169
 H     6.15700    -0.88444     7.71913
 H    -1.86139    -2.37430     8.92723
 H    -0.92758     1.58308     4.67072
 H     0.42639     3.11761     8.70185
 H    -4.13715     0.40269     6.00457
 H     2.46959     1.86421     5.55567
 H     1.75120    -2.10256     9.97430
 H     2.94027    -3.81205     4.23593
 H     7.50794    -1.00270     6.93104
 H    -0.46868    -2.53613     8.23251
 H     0.36486     1.59110     3.83082
 H    -0.93585     3.20771     9.48334
 H    -5.49627     0.46881     6.77623
 H     2.29109     1.54290     3.04794
 H     1.54895    -2.37600     7.35527
 H     1.13048    -2.79055     2.87467
 H     5.62489    -0.08797     5.57646
 H    -0.20378    -2.14093    10.69393
 H     0.45578     1.82796     6.38180
 H     0.90402     2.22901    10.82347
 H    -3.60322    -0.53128     8.18818
 H     1.33841     0.47855     2.44391
 H     0.62618    -3.44221     6.70320
 H     1.23185    -1.44147     2.11673
 H     5.75735     1.25407     4.83035
 H     0.71190    -1.04481    11.31287
 H     1.40494     2.86790     7.01643
 H     0.75704     0.90121    11.59113
 H    -3.73386    -1.86625     8.95056
 O     4.56787    -1.40124     7.99529
 O    -2.55292     0.95706     5.76876
 O     5.04606     2.46929     3.86241
 O     2.03327     3.60588     8.42586
 O     4.45715    -1.27977     5.77137
 O     0.02606    -4.03873     3.08713
 O     2.61839    -1.14040     6.91785
 O     3.24632     2.83596     2.58020
 O    -2.45625     0.67255     7.99088
 O     2.06774     3.41658    10.65662
 O    -0.62066     0.61233     6.84771
 O    -1.15352    -3.44795    11.13909
 O     4.06544    -0.58082     3.09105
 O     3.44276    -4.46382     7.20711
 O     0.28915    -1.02218     4.97465
 O     4.92233     1.78840     7.71380
 O    -2.07332    -0.11099    10.70496
 O    -1.29412     4.02169     6.54323
 O     1.67306     0.31646     8.87991
 O    -2.74289    -2.29689     6.12680
 O     3.22540     1.24971     5.42052
 O     2.56960    -2.63894     9.77981
 O     2.49353    -3.31790     4.97166
 O     7.07094    -0.50063     7.66642
 O    -1.22981    -1.92028     8.31776
 O    -0.43289     2.14645     4.04220
 O    -0.48041     2.72399     8.74579
 O    -5.03543    -0.01242     6.04116
 O     1.72830     0.75577     3.30079
 O     1.01249    -3.18745     7.56664
 O     1.72461    -1.99820     2.75745
 O     6.24604     0.68966     5.46863
 O     0.33372    -1.33579    10.45447
 O     1.02960     2.60615     6.14921
 O     0.27487     1.45594    10.94097
 O    -4.21133    -1.32072     8.29244
Ca     2.55327    -0.92539     4.70474
Ca    -0.56211     0.30775     9.04365
Ca     7.14324     1.86827     7.34493
Ca     0.10725     4.33774     4.82116
 C     5.24658     6.76292    -1.59437
 C    -0.44417     8.78160    -1.70693
 C     5.95021    10.78464    -5.87210
 C     4.11364    11.53389     0.95222
 H     6.23634     6.91050    -5.63975
 H     5.52133     2.76062    -1.49906
 H     1.35380     7.70638    -2.94365
 H     5.85028    10.31406    -0.24928
 H    -1.35176     8.79707     2.26759
 H    -0.64652    12.64123    -1.88931
 H     3.48357     7.96708    -0.54096
 H    -1.04723     5.16039    -3.25728
 H     5.35526     7.99635    -6.38762
 H     4.70552     3.96424    -2.15873
 H     1.12576     6.90691    -4.30808
 H     5.62885     9.63595    -1.67691
 H    -0.59271     7.60181     2.96850
 H     0.26720    11.54777    -1.17649
 H     3.79835     8.74114     0.80688
 H    -0.75752     6.01697    -1.95827
 H     5.34329     9.92151    -3.75628
 H     4.53486     5.87181     0.49779
 H     3.08051     4.38633    -3.51262
 H     7.64128     7.11098    -0.97081
 H    -0.35089     5.71235     0.36061
 H     0.42742     9.58958    -3.96384
 H     1.90939    11.21984     0.15332
 H    -2.69686     8.37361    -2.50536
 H     3.96268    10.04186    -3.01707
 H     3.18313     5.92090     1.28943
 H     4.43432     4.29060    -4.29633
 H     9.03132     7.05967    -1.64335
 H     1.02870     5.61605    -0.36553
 H     1.75195     9.61283    -4.77907
 H     0.55540    11.33010     0.93901
 H    -4.05676     8.49712    -1.74242
 H     3.71561     9.68823    -5.48398
 H     3.00514     5.66784    -1.18050
 H     2.53273     5.30485    -5.65711
 H     7.05169     8.05037    -2.99532
 H     1.23530     5.89956     2.16063
 H     1.91861     9.86049    -2.14814
 H     2.40386    10.25284     2.29163
 H    -2.14313     7.53641    -0.37423
 H     2.83508     8.60048    -6.15855
 H     2.10397     4.59944    -1.82278
 H     2.74659     6.62855    -6.43819
 H     7.21397     9.37370    -3.77585
 H     2.17485     6.96801     2.76255
 H     2.85227    10.91706    -1.50914
 H     2.26702     8.91343     3.07400
 H    -2.26107     6.19347     0.37566
 O     5.79899     6.50277    -0.49165
 O    -1.11027     8.91168    -2.77126
 O     6.54085    10.60178    -4.76482
 O     3.51246    11.73270    -0.14956
 O     5.88980     6.86235    -2.70638
 O     1.40366     4.08557    -5.47127
 O     3.97286     6.94108    -1.70532
 O     4.68071    10.97595    -5.95280
 O    -1.00555     8.75910    -0.54680
 O     3.48868    11.51705     2.07516
 O     0.83541     8.64968    -1.69170
 O     0.25808     4.62020     2.63416
 O     5.54899     7.60987    -5.51738
 O     4.83543     3.45302    -1.34885
 O     1.79019     7.21436    -3.68073
 O     6.27332     9.79277    -0.96864
 O    -0.64871     8.10713     2.15351
 O     0.06049    11.96904    -2.02937
 O     3.09714     8.53414     0.17931
 O    -1.45799     5.73017    -2.55432
 O     4.73486     9.44653    -3.14324
 O     3.96780     5.34906     1.10729
 O     3.99295     4.76689    -3.54837
 O     8.51711     7.54727    -0.94430
 O     0.26432     6.22048    -0.21755
 O     0.93495    10.15375    -4.58207
 O     1.00636    10.83303     0.21188
 O    -3.61254     7.99179    -2.46680
 O     3.17647     8.87304    -5.27913
 O     2.46080     4.86509    -0.95027
 O     3.18235     6.06162    -5.76306
 O     7.67985     8.81389    -3.12012
 O     1.78565     6.69336     1.90467
 O     2.47118    10.66019    -2.37735
 O     1.79725     9.47102     2.41687
 O    -2.75435     6.75312    -0.26220
Ca     4.03971     7.20565    -3.88138
Ca     0.88053     8.39646     0.52510
Ca     8.52331     9.91867    -1.18032
Ca     1.52633    12.35717    -3.67704
 C     9.17540     5.48829     5.30143
 C     3.52133     7.51025     5.19238
 C     9.73112     9.44165     1.10568
 C     7.90489    10.24955     7.95909
 H    10.10965     5.53880     1.27970
 H     9.30798     1.57252     5.55335
 H     5.30606     6.36420     4.13090
 H     9.70336     9.03024     6.83325
 H     2.55273     7.40936     9.27501
 H     3.19200    11.36308     5.09626
 H     7.39430     6.60141     6.51270
 H     2.71480     3.82745     3.78503
 H     9.35001     6.74055     0.58550
 H     8.48302     2.73705     4.85145
 H     4.97836     5.59074     2.78024
 H     9.39317     8.23457     5.49246
 H     3.43226     6.30545    10.01149
 H     4.12268    10.26614     5.78382
 H     7.64297     7.38879     7.88107
 H     3.04540     4.62003     5.11633
 H     9.16775     8.56102     3.25284
 H     8.28954     4.63710     7.55232
 H     7.02693     3.04927     3.32967
 H    11.42793     5.84664     6.11681
 H     3.67487     4.33674     7.39475
 H     4.15046     8.37089     3.07334
 H     5.71049     9.89823     7.11510
 H     1.07096     7.10402     4.63725
 H     7.77769     8.68925     3.95742
 H     6.98136     4.63380     8.39331
 H     8.43258     3.00829     2.68396
 H    12.78781     5.74677     5.34712
 H     4.94999     4.34494     6.52278
 H     5.52647     8.27181     2.32709
 H     4.36223    10.00074     7.90808
 H    -0.33267     7.18976     5.27351
 H     7.47772     8.36296     1.46118
 H     6.89712     4.33510     5.68204
 H     6.28205     4.02061     1.39516
 H    10.90684     6.70198     3.96330
 H     4.97297     4.59160     9.11983
 H     5.80138     8.61004     4.80686
 H     6.19307     8.99187     9.27246
 H     1.79028     6.17345     6.55324
 H     6.56853     7.27575     0.82849
 H     5.89894     3.27449     5.11053
 H     6.44591     5.32242     0.56597
 H    11.02984     8.04311     3.20703
 H     5.90151     5.64823     9.76500
 H     6.70574     9.68940     5.43996
 H     6.00199     7.65270    10.04418
 H     1.57961     4.84653     7.33970
 O     9.82540     5.35121     6.37417
 O     2.94254     7.71372     4.09223
 O    10.33202     9.24250     2.20803
 O     7.30540    10.44149     6.85780
 O     9.74708     5.51022     4.14535
 O     5.19615     2.77019     1.64778
 O     7.89649     5.62340     5.26773
 O     8.46718     9.65127     1.03023
 O     2.88723     7.42821     6.31099
 O     7.29300    10.24701     9.08935
 O     4.79978     7.35765     5.30034
 O     3.93943     3.33953     9.56713
 O     9.39396     6.21526     1.38870
 O     8.60222     2.24856     5.67761
 O     5.68377     5.79932     3.40255
 O    10.09258     8.49625     6.09273
 O     3.26400     6.73670     9.15844
 O     3.88677    10.68477     4.93859
 O     6.97222     7.11142     7.24566
 O     2.33720     4.38994     4.50931
 O     8.54980     8.08089     3.85228
 O     7.79541     4.09091     8.19640
 O     7.90368     3.48024     3.39153
 O    12.33771     6.24062     6.07786
 O     4.15647     4.89552     6.75138
 O     4.77183     8.87971     2.50278
 O     4.80680     9.51049     7.17123
 O     0.18961     6.68082     4.59872
 O     6.95359     7.54634     1.69160
 O     6.33011     3.55940     5.94833
 O     6.91889     4.77289     1.22845
 O    11.51261     7.49529     3.86292
 O     5.55203     5.37010     8.88940
 O     6.34070     9.41931     4.57363
 O     5.57158     8.21714     9.36154
 O     1.13510     5.43835     6.69287
Ca     7.89200     5.89862     3.05250
Ca     4.72778     7.08539     7.48643
Ca    12.33111     8.63009     5.75397
Ca     5.32959    11.07089     3.23703
