  120
 
Mg     0.00000     0.00000     0.00000
Ti    -2.91797    -0.21455     5.55913
 O    -4.96119    -3.32421     4.85661
 O    -2.43591    -1.98643     5.22570
 O    -3.60232     0.28510    -1.92920
Ti    -2.85404     0.60416    -0.25018
 O    -1.78831    -1.19473    -0.25018
 O    -4.31362    -0.59895     4.05033
 O    -2.16969     0.10452     7.23815
Mg    -0.93016    -2.15277    -1.84369
Mg    -4.84180    -1.32473    -2.18658
Mg    -4.84182     0.60883     2.48303
Mg    -0.97751    -2.97499     3.96708
Ti    -2.91794    -2.14811     0.88953
Ti    -3.83156    -2.37083     3.71690
 O    -3.98368    -0.34921     0.88953
 O    -0.11939    -1.99948     7.04318
 O    -2.43589    -3.91998     0.55609
 O    -7.27772    -3.31115     3.03912
 O     0.26200    -3.29873    -0.44515
 O    -1.78844     0.73871     4.42041
 O    -5.65262     2.38909    -1.73423
 O    -3.33610     2.37604     0.08325
 O     0.52821    -1.20778     1.56730
 O    -7.01150    -1.22021     5.05157
Mg    -5.77201     0.38962     5.30895
Mg    -5.77199    -1.54394     0.63934
 O    -4.57983    -2.68990     2.03788
 O    -2.16967    -1.82904     2.56854
Mg    -0.93018    -0.21921     2.82592
 O    -0.11937    -3.93304     2.37358
 O    -6.30031    -0.33628    -0.92697
 O     0.26197    -1.36517     4.22446
 O    -6.63025    -0.58602     2.23383
 O     0.52819     0.72578     6.23691
 O    -6.03409     1.75467     1.08548
Mg     3.91164    -0.82804     0.34289
Ti    -6.78128     1.43551    -0.59444
 O    -8.82451    -1.67415    -1.29696
 O    -8.44317     0.89372     0.55391
Ti    -7.69587     1.21299     2.23285
 O    -8.17693     1.05111    -2.10324
Mg    -9.68266    -0.71610     0.29654
Mg    -9.68268     1.21745     4.96614
Ti    -7.75880    -1.53948     3.37264
Ti    -7.69585    -0.72056    -2.43676
 O    -8.82453     0.25941     3.37264
 O     2.40594    -4.52881    -1.92694
 O     3.05349     0.13000     1.93639
 O    -8.17695     2.98467     2.56636
 O     2.67216    -2.43787     0.08552
Mg     2.93413    -3.80304     4.30997
 O    -8.44315    -1.03984    -4.11569
 O     2.40592    -2.59526     2.74267
 O     3.05341    -1.80368    -2.73222
 O     2.67213    -0.50431     4.75512
Ti     1.92388    -2.75694    -1.59350
Ti     1.01027    -2.97966     1.23387
Ti     1.92386    -0.82338     3.07610
Ti     1.01024    -1.04610     5.90347
Mg     0.97749     4.90855     0.70252
Ti    -1.94047     4.69400     6.26165
 O    -3.98370     1.58435     5.55913
 O    -1.45842     2.92212     5.92822
 O    -2.62482     5.19365    -1.22668
Ti    -1.87655     5.51272     0.45234
 O    -0.81082     3.71382     0.45234
 O    -3.33612     4.30960     4.75285
 O    -1.19220     5.01307     7.94067
Mg     0.04733     2.75578    -1.14116
Mg    -3.86431     3.58382    -1.48405
Mg    -3.86433     5.51738     3.18555
Mg    -0.00002     1.93356     4.66960
Ti    -1.94045     2.76044     1.59205
Ti    -2.85407     2.53772     4.41942
 O    -3.00618     4.55934     1.59205
 O     0.85810     2.90907     7.74571
 O    -1.45839     0.98857     1.25862
 O    -6.30022     1.59740     3.74165
 O     1.23949     1.60982     0.25738
 O    -0.81095     5.64726     5.12293
 O    -4.67513     7.29765    -1.03171
 O    -2.35860     7.28459     0.78577
 O     1.50571     3.70077     2.26983
 O    -6.03401     3.68834     5.75410
Mg    -4.79452     5.29817     6.01147
Mg    -4.79449     3.36461     1.34187
 O    -3.60234     2.21865     2.74040
 O    -1.19218     3.07951     3.27107
Mg     0.04731     4.68934     3.52844
 O     0.85813     0.97551     3.07610
 O    -5.32282     4.57227    -0.22445
 O     1.23947     3.54338     4.92698
 O    -5.65275     4.32253     2.93636
 O     1.50568     5.63433     6.93943
 O    -5.05660     6.66322     1.78800
Mg     4.88914     4.08051     1.04542
Ti    -5.80379     6.34406     0.10808
 O    -7.84701     3.23440    -0.59444
 O    -7.46568     5.80227     1.25644
Ti    -6.71838     6.12155     2.93537
 O    -7.19943     5.95966    -1.40072
Mg    -8.70516     4.19245     0.99906
Mg    -8.70519     6.12601     5.66867
Ti    -6.78130     3.36907     4.07517
Ti    -6.71835     4.18799    -1.73423
 O    -7.84704     5.16796     4.07517
 O     3.38343     0.37974    -1.22441
 O     4.03099     5.03855     2.63892
 O    -7.19946     7.89322     3.26889
 O     3.64965     2.47068     0.78804
Mg     3.91162     1.10551     5.01250
 O    -7.46565     3.86871    -3.41317
 O     3.38341     2.31329     3.44519
 O     4.03090     3.10487    -2.02970
 O     3.64963     4.40424     5.45764
Ti     2.90138     2.15161    -0.89098
Ti     1.98776     1.92889     1.93639
Ti     2.90135     4.08517     3.77863
Ti     1.98774     3.86245     6.60600
