   72
 
Ir     0.00000     0.00000     0.00000
Ir     3.10769    -0.99540    -1.20220
 O     0.43230    -2.40015     3.41465
 O    -3.71398    -1.02737     2.30336
 O    -2.24840    -1.26939     2.10418
 O    -1.63124    -3.02056     1.28990
Ir     0.53010    -8.27950     4.31389
Ir     4.73060   -15.55897     3.01586
 O     1.52128    -4.66625     1.76763
 O    -3.48707    -1.57990     2.95371
 O     3.73549    -4.26531     1.08669
 O     0.33712    -3.93926     0.99572
Ir     4.45106   -14.27775     5.50521
Ir     9.48325   -16.04075     3.30435
 O     8.74826   -13.83425     2.40724
 O     2.70708    -9.44213     3.73875
 O     3.47306    -9.32372     4.46738
 O     5.09681   -13.40217     2.84690
Ir     0.74455    -4.19465     7.05173
Ir     2.29616    -6.17488     5.49559
 O     0.35844    -1.20212     4.71517
 O    -5.13840     0.94126     5.24728
 O    -0.29285    -1.29087     3.43839
 O    -1.60865    -1.98293     3.99629
Ir     6.53363   -10.81860     4.12119
Ir     5.34848    -8.93927     6.83390
 O     4.71553    -4.17664     1.63471
 O     2.64896    -2.51777     2.87241
 O     1.28324    -2.61873     3.23228
 O     5.13413    -3.89773     2.72397
Ir     5.68456   -14.24254     4.59609
Ir     7.84091   -14.49830     6.30296
 O    11.47771   -13.95930     2.07358
 O     3.18463    -8.60859     5.40368
 O     5.61432    -9.69247     5.63485
 O     5.51046   -14.15797     2.68131
Ir     0.78997    -0.16692    -1.07281
Ir     2.11806    -0.14449    -1.80682
 O    -2.25532    -1.60623     3.00801
 O    -1.58114    -1.12789     3.19364
 O    -4.22431    -0.46501     1.31708
 O    -1.69389    -2.16279     1.85651
Ir     4.57359   -11.52745     1.68526
Ir     4.35190   -10.13437     4.00360
 O     1.21662    -4.00342     1.18668
 O     3.39931    -5.35819     0.62072
 O     1.15830    -3.77030     0.03069
 O     3.06679    -5.00268     1.58611
Ir     4.35023   -13.88211     0.70551
Ir    11.29606   -15.79721     2.35673
 O     7.84531   -15.02924     1.90090
 O     5.36674   -13.05027     1.86545
 O     3.01674   -13.10558     1.31292
 O     5.14469   -14.57327     0.46931
Ir    -2.91194    -3.21382     7.69802
Ir     6.46445    -8.95459     5.47751
 O     0.77195    -0.87436     2.70216
 O    -3.05687     1.57055     5.18079
 O     0.44534    -1.66384     2.94698
 O     1.15118    -2.04466     2.51174
Ir     4.82340    -8.64986     4.08906
Ir     7.57902   -12.23821     0.66531
 O     5.63791    -9.85723     4.78802
 O     2.43770    -2.09823     2.08858
 O     1.85916    -2.60049     2.63301
 O     4.70932    -8.62891     5.62803
Ir     5.63913    -9.88426     3.60404
Ir    13.56592   -15.90634     3.18176
 O    10.63378   -13.30388     2.31290
 O     4.76797   -11.73597     3.97034
 O     5.63375   -11.96713     4.20073
 O     7.74515   -13.59333     3.19475
