  168
 
Ir     0.00000     0.00000     0.00000
Ir     4.95191     0.00000     0.00000
Ir     1.97816    -4.42088     1.17265
Ir    -1.43046    -1.67296     4.99175
 F    -0.58718     1.01659     1.41286
 F     3.44786    -0.61595    -0.85606
 F     2.56533    -5.43747    -0.24021
 F     0.07360    -1.05701     5.84781
 F     3.20570    -5.22792     2.26555
 F    -0.68767    -1.24340     3.37424
 F    -1.22754    -1.29270     0.41791
 F     4.20912     1.67017     0.10670
 F    -1.22754     0.80704    -1.09289
 F     4.20912    -0.42956     1.61751
 F     3.20570    -3.12818     0.75474
 F    -0.68766    -3.34314     4.88505
 F     0.59390    -1.01392    -1.40916
 F     6.45868     0.61148     0.84984
 F     1.38426    -3.40696     2.58181
 F    -2.93722    -2.28444     4.14191
 F     0.75227    -5.71844     1.58571
 F    -2.16789     0.00072     5.10144
 F     1.22588    -0.80398     1.09904
 F     5.68935     0.42785    -1.62179
 F     1.22588     1.29756    -0.41306
 F     5.68935    -1.67369    -0.10969
 F     0.75227    -3.61690     0.07361
 F    -2.16789    -2.10081     6.61354
Ir    -1.54330    -2.74792    -3.81910
Ir     3.40861    -2.74792    -3.81910
Ir     0.43485    -7.16881    -2.64644
Ir    -2.97376    -4.42088     1.17265
 F    -2.13048    -1.73134    -2.40623
 F     1.90456    -3.36387    -4.67515
 F     1.02203    -8.18539    -4.05930
 F    -1.46971    -3.80493     2.02871
 F     1.66240    -7.97584    -1.55355
 F    -2.23097    -3.99132    -0.44485
 F    -2.77085    -4.04062    -3.40118
 F     2.66582    -1.07775    -3.71239
 F    -2.77085    -1.94088    -4.91199
 F     2.66582    -3.17749    -2.20159
 F     1.66240    -5.87610    -3.06435
 F    -2.23096    -6.09106     1.06595
 F    -0.94941    -3.76184    -5.22825
 F     4.91537    -2.13644    -2.96925
 F    -0.15904    -6.15489    -1.23728
 F    -4.48052    -5.03236     0.32281
 F    -0.79103    -8.46636    -2.23338
 F    -3.71119    -2.74720     1.28234
 F    -0.31742    -3.55190    -2.72005
 F     4.14605    -2.32007    -5.44088
 F    -0.31742    -1.45036    -4.23216
 F     4.14605    -4.42161    -3.92878
 F    -0.79103    -6.36482    -3.74548
 F    -3.71119    -4.84874     2.79444
Ir    -3.08660    -5.49584    -7.63819
Ir     1.86531    -5.49584    -7.63819
Ir    -1.10845    -9.91673    -6.46554
Ir    -4.51706    -7.16880    -2.64644
 F    -3.67378    -4.47926    -6.22533
 F     0.36126    -6.11179    -8.49425
 F    -0.52127   -10.93331    -7.87840
 F    -3.01301    -6.55285    -1.79038
 F     0.11910   -10.72376    -5.37264
 F    -3.77428    -6.73924    -4.26395
 F    -4.31415    -6.78854    -7.22028
 F     1.12252    -3.82567    -7.53149
 F    -4.31415    -4.68881    -8.73108
 F     1.12252    -5.92541    -6.02068
 F     0.11910    -8.62403    -6.88345
 F    -3.77427    -8.83898    -2.75315
 F    -2.49271    -6.50976    -9.04735
 F     3.37207    -4.88436    -6.78835
 F    -1.70234    -8.90281    -5.05638
 F    -6.02382    -7.78029    -3.49628
 F    -2.33433   -11.21428    -6.05248
 F    -5.25450    -5.49512    -2.53676
 F    -1.86072    -6.29982    -6.53915
 F     2.60274    -5.06799    -9.25998
 F    -1.86072    -4.19828    -8.05125
 F     2.60274    -7.16953    -7.74788
 F    -2.33433    -9.11275    -7.56458
 F    -5.25450    -7.59666    -1.02465
Ir     0.00000     6.93760    -4.99175
Ir     4.95192     6.93760    -4.99175
Ir     1.97816     2.51671    -3.81910
Ir    -1.43046     5.26463     0.00000
 F    -0.58718     7.95418    -3.57889
 F     3.44786     6.32164    -5.84781
 F     2.56533     1.50013    -5.23196
 F     0.07360     5.88058     0.85606
 F     3.20570     1.70968    -2.72620
 F    -0.68767     5.69420    -1.61751
 F    -1.22754     5.64490    -4.57384
 F     4.20912     8.60777    -4.88505
 F    -1.22754     7.74463    -6.08464
 F     4.20912     6.50803    -3.37424
 F     3.20570     3.80941    -4.23701
 F    -0.68766     3.59446    -0.10670
 F     0.59390     5.92368    -6.40091
 F     6.45868     7.54908    -4.14191
 F     1.38426     3.53063    -2.40994
 F    -2.93722     4.65315    -0.84984
 F     0.75227     1.21915    -3.40603
 F    -2.16789     6.93832     0.10969
 F     1.22588     6.13361    -3.89271
 F     5.68935     7.36545    -6.61354
 F     1.22588     8.23515    -5.40481
 F     5.68935     5.26391    -5.10144
 F     0.75227     3.32069    -4.91814
 F    -2.16789     4.83678     1.62179
Ir    -1.54330     4.18967    -8.81084
Ir     3.40861     4.18967    -8.81084
Ir     0.43485    -0.23121    -7.63819
Ir    -2.97376     2.51671    -3.81909
 F    -2.13048     5.20626    -7.39798
 F     1.90456     3.57372    -9.66690
 F     1.02203    -1.24779    -9.05105
 F    -1.46971     3.13266    -2.96304
 F     1.66240    -1.03825    -6.54530
 F    -2.23097     2.94628    -5.43660
 F    -2.77085     2.89697    -8.39293
 F     2.66582     5.85985    -8.70414
 F    -2.77085     4.99671    -9.90374
 F     2.66582     3.76011    -7.19333
 F     1.66240     1.06149    -8.05610
 F    -2.23096     0.84654    -3.92580
 F    -0.94941     3.17575   -10.22000
 F     4.91537     4.80115    -7.96100
 F    -0.15904     0.78271    -6.22903
 F    -4.48052     1.90523    -4.66894
 F    -0.79103    -1.52877    -7.22513
 F    -3.71119     4.19040    -3.70941
 F    -0.31742     3.38569    -7.71180
 F     4.14605     4.61753   -10.43263
 F    -0.31742     5.48723    -9.22391
 F     4.14605     2.51599    -8.92053
 F    -0.79103     0.57277    -8.73723
 F    -3.71119     2.08886    -2.19731
Ir    -3.08660     1.44175   -12.62994
Ir     1.86531     1.44175   -12.62994
Ir    -1.10845    -2.97913   -11.45729
Ir    -4.51706    -0.23121    -7.63819
 F    -3.67378     2.45834   -11.21708
 F     0.36126     0.82580   -13.48600
 F    -0.52127    -3.99572   -12.87015
 F    -3.01301     0.38474    -6.78213
 F     0.11910    -3.78617   -10.36439
 F    -3.77428     0.19836    -9.25570
 F    -4.31415     0.14905   -12.21203
 F     1.12252     3.11193   -12.52324
 F    -4.31415     2.24879   -13.72283
 F     1.12252     1.01219   -11.01243
 F     0.11910    -1.68643   -11.87520
 F    -3.77427    -1.90138    -7.74489
 F    -2.49271     0.42783   -14.03910
 F     3.37207     2.05323   -11.78010
 F    -1.70234    -1.96521   -10.04813
 F    -6.02382    -0.84269    -8.48803
 F    -2.33433    -4.27669   -11.04422
 F    -5.25450     1.44248    -7.52850
 F    -1.86072     0.63777   -11.53090
 F     2.60274     1.86961   -14.25173
 F    -1.86072     2.73931   -13.04300
 F     2.60274    -0.23193   -12.73963
 F    -2.33433    -2.17515   -12.55633
 F    -5.25450    -0.65906    -6.01640
