   72
 
Ir     0.00000     0.00000     0.00000
Ir     3.55041     0.00000     0.00000
 O     1.75538     0.87049     0.00000
 O    -0.70077     1.41313     1.22141
 O    -0.70077     1.41313    -1.22141
 O    -1.75538    -0.87049     0.00000
Ir     1.40155    -2.82627     0.00000
Ir     4.95195    -2.82627     0.00000
 O     3.15693    -1.95578     0.00000
 O     0.70077    -1.41313     1.22141
 O     0.70077    -1.41313    -1.22141
 O    -0.35383    -3.69676     0.00000
Ir     2.80310    -5.65254     0.00000
Ir     6.35350    -5.65254     0.00000
 O     4.55847    -4.78204     0.00000
 O     2.10232    -4.23940     1.22141
 O     2.10232    -4.23940    -1.22141
 O     1.04772    -6.52303     0.00000
Ir     2.84963     1.41313     3.18078
Ir     6.40004     1.41313     3.18078
 O     4.60501     2.28363     3.18078
 O     2.14886     2.82627     4.40219
 O     2.14886     2.82627     1.95937
 O     1.09425     0.54264     3.18078
Ir     4.25118    -1.41313     3.18078
Ir     7.80159    -1.41313     3.18078
 O     6.00656    -0.54264     3.18078
 O     3.55041    -0.00000     4.40219
 O     3.55041    -0.00000     1.95937
 O     2.49580    -2.28363     3.18078
Ir     5.65273    -4.23940     3.18078
Ir     9.20313    -4.23940     3.18078
 O     7.40811    -3.36891     3.18078
 O     4.95195    -2.82627     4.40219
 O     4.95195    -2.82627     1.95937
 O     3.89735    -5.10990     3.18078
Ir     2.84963     1.41313    -3.18078
Ir     6.40004     1.41313    -3.18078
 O     4.60501     2.28363    -3.18078
 O     2.14886     2.82627    -1.95937
 O     2.14886     2.82627    -4.40219
 O     1.09425     0.54264    -3.18078
Ir     4.25118    -1.41313    -3.18078
Ir     7.80159    -1.41313    -3.18078
 O     6.00656    -0.54264    -3.18078
 O     3.55041    -0.00000    -1.95937
 O     3.55041    -0.00000    -4.40219
 O     2.49580    -2.28363    -3.18078
Ir     5.65273    -4.23940    -3.18078
Ir     9.20313    -4.23940    -3.18078
 O     7.40811    -3.36891    -3.18078
 O     4.95195    -2.82627    -1.95937
 O     4.95195    -2.82627    -4.40219
 O     3.89735    -5.10990    -3.18078
Ir     5.69926     2.82627     0.00000
Ir     9.24967     2.82627     0.00000
 O     7.45464     3.69676     0.00000
 O     4.99849     4.23940     1.22141
 O     4.99849     4.23940    -1.22141
 O     3.94389     1.95578     0.00000
Ir     7.10081     0.00000     0.00000
Ir    10.65122     0.00000     0.00000
 O     8.85619     0.87049     0.00000
 O     6.40004     1.41313     1.22141
 O     6.40004     1.41313    -1.22141
 O     5.34543    -0.87049     0.00000
Ir     8.50236    -2.82627     0.00000
Ir    12.05277    -2.82627     0.00000
 O    10.25774    -1.95578     0.00000
 O     7.80159    -1.41313     1.22141
 O     7.80159    -1.41313    -1.22141
 O     6.74698    -3.69676     0.00000
