   96
 
Fe     0.00000     0.00000     0.00000
Fe    -0.00511     3.49644     0.00000
Fe    -5.80234    -1.74822     3.02800
Fe    -5.80744     1.74821     3.02800
Fe   -11.60467    -3.49644     0.00000
Cl    -7.16206    -0.00255     3.89038
Cl    -7.16206    -1.87421     1.08502
Cl    -7.16206    -3.36789     4.10860
Cl    -4.44772     0.00255     2.16562
Cl    -4.44772    -3.37044     1.94298
Cl    -4.44772    -1.87677     4.97539
Cl   -12.96439    -1.75077     0.86237
Cl   -12.96439    -3.62243    -1.94297
Cl   -12.96439    -5.11610     1.08060
Cl   -10.25006    -1.74567    -0.86238
Cl   -10.25006    -5.11866    -1.08503
Cl   -10.25006    -3.62499     1.94740
Cl    -1.35972     1.74566     0.86238
Cl    -1.35972    -0.12599    -1.94298
Cl    -1.35972    -1.61967     1.08060
Cl     1.35461     1.75077    -0.86237
Cl     1.35461    -1.62222    -1.08503
Cl     1.35461    -0.12855     1.94740
Fe   -11.60978     0.00000     0.00000
Fe     0.00000     0.00001    -6.05600
Fe    -0.00511     3.49644    -6.05600
Fe    -5.80234    -1.74821    -3.02800
Fe    -5.80744     1.74822    -3.02800
Fe   -11.60467    -3.49643    -6.05600
Cl    -7.16206    -0.00255    -2.16562
Cl    -7.16206    -1.87420    -4.97098
Cl    -7.16206    -3.36788    -1.94740
Cl    -4.44772     0.00255    -3.89038
Cl    -4.44772    -3.37044    -4.11302
Cl    -4.44772    -1.87676    -1.08061
Cl   -12.96439    -1.75076    -5.19363
Cl   -12.96439    -3.62242    -7.99897
Cl   -12.96439    -5.11610    -4.97540
Cl   -10.25006    -1.74566    -6.91838
Cl   -10.25006    -5.11865    -7.14103
Cl   -10.25006    -3.62498    -4.10860
Cl    -1.35972     1.74567    -5.19362
Cl    -1.35972    -0.12599    -7.99898
Cl    -1.35972    -1.61966    -4.97540
Cl     1.35461     1.75077    -6.91837
Cl     1.35461    -1.62222    -7.14103
Cl     1.35461    -0.12855    -4.10860
Fe   -11.60978     0.00001    -6.05600
Fe    -0.00000     5.24465     3.02800
Fe    -0.00511     8.74108     3.02800
Fe    -5.80234     3.49643     6.05600
Fe    -5.80744     6.99286     6.05601
Fe   -11.60467     1.74821     3.02800
Cl    -7.16206     5.24209     6.91838
Cl    -7.16206     3.37044     4.11302
Cl    -7.16206     1.87676     7.13661
Cl    -4.44772     5.24720     5.19363
Cl    -4.44772     1.87420     4.97098
Cl    -4.44772     3.36788     8.00340
Cl   -12.96439     3.49388     3.89038
Cl   -12.96439     1.62222     1.08503
Cl   -12.96439     0.12855     4.10860
Cl   -10.25006     3.49898     2.16562
Cl   -10.25006     0.12599     1.94298
Cl   -10.25006     1.61966     4.97540
Cl    -1.35972     6.99031     3.89038
Cl    -1.35972     5.11866     1.08503
Cl    -1.35972     3.62498     4.10860
Cl     1.35461     6.99541     2.16563
Cl     1.35461     3.62243     1.94298
Cl     1.35461     5.11609     4.97540
Fe   -11.60978     5.24465     3.02800
Fe     0.00000     5.24465    -3.02800
Fe    -0.00511     8.74109    -3.02800
Fe    -5.80234     3.49644     0.00000
Fe    -5.80744     6.99287     0.00001
Fe   -11.60467     1.74822    -3.02800
Cl    -7.16206     5.24210     0.86238
Cl    -7.16206     3.37044    -1.94298
Cl    -7.16206     1.87676     1.08061
Cl    -4.44772     5.24720    -0.86237
Cl    -4.44772     1.87421    -1.08502
Cl    -4.44772     3.36788     1.94740
Cl   -12.96439     3.49389    -2.16562
Cl   -12.96439     1.62223    -4.97097
Cl   -12.96439     0.12855    -1.94740
Cl   -10.25006     3.49899    -3.89038
Cl   -10.25006     0.12600    -4.11302
Cl   -10.25006     1.61967    -1.08060
Cl    -1.35972     6.99032    -2.16562
Cl    -1.35972     5.11866    -4.97097
Cl    -1.35972     3.62499    -1.94740
Cl     1.35461     6.99542    -3.89037
Cl     1.35461     3.62243    -4.11302
Cl     1.35461     5.11610    -1.08060
Fe   -11.60978     5.24465    -3.02800
