   64
 
Zr     0.00000     0.00000     0.00000
Zr    -6.81324     3.97740    -0.18301
Fe    -0.10177     3.11491    -0.14294
Fe    -5.53480     4.74231     2.69321
Cl    -8.63478     3.73689    -2.11038
Cl    -7.58877     5.38739     1.78489
Cl    -8.48082     2.47726     1.01048
Cl    -5.07847     4.16552    -2.05231
Cl    -5.10721     2.92118     1.27034
Cl    -6.66870     1.60360    -1.32541
Cl     2.13095    -1.22034     0.66886
Cl     0.39367    -1.62630    -1.91708
Cl     0.36899     1.73071    -1.99415
Cl    -1.32021    -1.84166     1.00189
Cl    -2.13165     0.09764    -1.54919
Cl    -1.55383     1.75154     1.04171
Zr    -3.00004    -4.45936    -3.46747
Zr    -9.62332    -1.05455    -2.58807
Fe    -1.61158    -1.55778    -3.09504
Fe    -8.15136     0.39631     0.00383
Cl   -11.82074    -0.49413    -3.63179
Cl   -10.16941     0.87527    -1.10048
Cl   -11.03821    -2.34176    -0.97183
Cl    -8.53479     0.83696    -3.97162
Cl    -7.80249    -1.75828    -0.90824
Cl    -9.78576    -3.05663    -4.20876
Cl    -0.98081    -5.53877    -2.36083
Cl    -3.34240    -6.97421    -4.28085
Cl    -1.03509    -3.29031    -4.55179
Cl    -3.91372    -5.95847    -1.50036
Cl    -5.55307    -4.22244    -3.53057
Cl    -2.91940    -2.82292    -1.60944
Zr     2.14871    -0.90232     4.68702
Zr    -4.47459     2.49764     5.59835
Fe     3.18727     2.23710     4.44390
Fe    -2.24618     3.87595     7.27350
Cl    -6.48601     3.59071     4.49146
Cl    -4.12805     5.00776     6.41121
Cl    -6.45153     1.33252     6.68420
Cl    -3.54882     3.99523     3.63331
Cl    -1.91601     2.27181     5.62150
Cl    -4.61275     0.89318     3.71907
Cl     4.33799    -1.47205     5.74805
Cl     2.69353    -2.84752     3.22074
Cl     3.58941     0.36658     3.08228
Cl     1.04108    -2.77048     6.08047
Cl     0.33378    -0.21142     2.99040
Cl     2.33644     1.08401     6.32512
Zr    -0.62646    -5.95746     2.28997
Zr    -7.46923    -1.96505     2.10633
Fe     0.68978    -2.37468     2.09187
Fe    -5.88911    -0.39137     5.21266
Cl    -9.59720    -0.75293     1.42514
Cl    -7.89358    -0.35481     4.03051
Cl    -7.81075    -3.70432     4.10723
Cl    -6.13784    -0.14152     1.08151
Cl    -5.34578    -2.03150     3.65867
Cl    -5.90059    -3.70820     1.07514
Cl     1.18820    -5.71014     4.22433
Cl     0.13913    -7.36779     0.31496
Cl     1.06034    -4.46751     1.11658
Cl    -2.37066    -6.12396     4.15321
Cl    -2.32424    -4.88866     0.83384
Cl    -0.79227    -3.57908     3.42202
