   96
 
Fe     0.00000     0.00000     0.00000
Fe     2.23283    -1.44609     2.50470
Fe    -4.46567     2.89218    -5.00940
Fe    -2.23283     1.44609    -2.50470
Fe     4.46567    -2.89218     5.00940
 F     3.34925    -2.68756     3.45774
 F     3.34925    -0.00000     3.10332
 F     3.34925    -1.65071     0.95304
 F    -3.34925     2.68756    -3.45774
 F    -3.34925     0.00000    -3.10333
 F    -3.34925     1.65071    -0.95304
 F    -1.11642     0.20462    -1.55166
 F    -1.11642    -1.44609     0.59862
 F    -1.11642     1.24147     0.95304
 F     5.58208    -3.09681     6.56106
 F     5.58208    -1.44609     4.41078
 F     5.58208    -4.13365     4.05637
 F    -5.58208     3.09681    -6.56106
 F    -5.58208     1.44609    -4.41078
 F    -5.58208     4.13365    -4.05637
 F     1.11642    -0.20462     1.55166
 F     1.11642     1.44609    -0.59862
 F     1.11642    -1.24147    -0.95304
Fe    -6.69850     4.33827    -7.51410
Fe     0.00000     0.00000    -5.00940
Fe     2.23283    -1.44609    -2.50470
Fe    -4.46567     2.89218   -10.01880
Fe    -2.23283     1.44609    -7.51410
Fe     4.46567    -2.89218    -0.00000
 F     3.34925    -2.68755    -1.55166
 F     3.34925    -0.00000    -1.90608
 F     3.34925    -1.65071    -4.05637
 F    -3.34925     2.68756    -8.46714
 F    -3.34925     0.00001    -8.11273
 F    -3.34925     1.65071    -5.96244
 F    -1.11642     0.20463    -6.56106
 F    -1.11642    -1.44609    -4.41078
 F    -1.11642     1.24147    -4.05637
 F     5.58208    -3.09680     1.55166
 F     5.58208    -1.44609    -0.59862
 F     5.58208    -4.13365    -0.95304
 F    -5.58208     3.09681   -11.57046
 F    -5.58208     1.44609    -9.42018
 F    -5.58208     4.13365    -9.06577
 F     1.11642    -0.20462    -3.45774
 F     1.11642     1.44609    -5.60803
 F     1.11642    -1.24146    -5.96244
Fe    -6.69850     4.33827   -12.52351
Fe    -0.00000     4.33827     2.50470
Fe     2.23283     2.89218     5.00940
Fe    -4.46567     7.23045    -2.50470
Fe    -2.23283     5.78436     0.00000
Fe     4.46567     1.44609     7.51410
 F     3.34925     1.65071     5.96244
 F     3.34925     4.33826     5.60803
 F     3.34925     2.68755     3.45774
 F    -3.34925     7.02582    -0.95304
 F    -3.34925     4.33827    -0.59862
 F    -3.34925     5.98898     1.55166
 F    -1.11642     4.54289     0.95304
 F    -1.11642     2.89217     3.10333
 F    -1.11642     5.57973     3.45774
 F     5.58208     1.24146     9.06576
 F     5.58208     2.89218     6.91548
 F     5.58208     0.20462     6.56107
 F    -5.58208     7.43507    -4.05636
 F    -5.58208     5.78436    -1.90608
 F    -5.58208     8.47191    -1.55166
 F     1.11642     4.13364     4.05636
 F     1.11642     5.78436     1.90608
 F     1.11642     3.09680     1.55166
Fe    -6.69850     8.67654    -5.00940
Fe    -0.00000     4.33827    -2.50470
Fe     2.23283     2.89218     0.00000
Fe    -4.46567     7.23045    -7.51410
Fe    -2.23283     5.78436    -5.00940
Fe     4.46567     1.44609     2.50470
 F     3.34925     1.65071     0.95304
 F     3.34925     4.33827     0.59862
 F     3.34925     2.68756    -1.55167
 F    -3.34925     7.02583    -5.96244
 F    -3.34925     4.33827    -5.60803
 F    -3.34925     5.98898    -3.45774
 F    -1.11642     4.54289    -4.05636
 F    -1.11642     2.89218    -1.90608
 F    -1.11642     5.57974    -1.55166
 F     5.58208     1.24146     4.05636
 F     5.58208     2.89218     1.90608
 F     5.58208     0.20462     1.55166
 F    -5.58208     7.43508    -9.06576
 F    -5.58208     5.78436    -6.91548
 F    -5.58208     8.47192    -6.56107
 F     1.11642     4.13364    -0.95304
 F     1.11642     5.78436    -3.10333
 F     1.11642     3.09680    -3.45774
Fe    -6.69850     8.67654   -10.01880
