  120
 
Fe     0.00000     0.00000     0.00000
Fe     6.88329    -0.17693    -0.09320
Fe    -7.93829     6.02624    -0.01743
Fe    -0.98961     5.82669    -0.07636
Fe    -4.84683     1.49775     1.92612
Fe     1.78427     1.63283     1.90685
Ti    -1.86274     2.31955     0.55813
Ti    -3.83352     4.83390     1.28130
Ti     2.85284     1.05108    -1.37444
Ti    -1.18643     0.76796     3.29860
Ti    -4.66803     6.44976    -1.46533
Ti     3.59261    -0.71346     1.34801
 O    -0.26337     1.30966     1.63484
 O    -2.09835     0.22186     0.10424
 O    -0.28116     1.90963    -0.87886
 O    -6.00780     6.18403    -0.11792
 O    -7.79661     4.35844     0.96439
 O    -7.86978     4.96956    -1.62658
 O     4.86426    -0.34347    -0.24168
 O     2.61249    -1.82905    -1.90064
 O     4.58207     0.35545    -2.93555
 O    -2.78520     1.78694     2.22566
 O    -5.14999    -0.33607     2.91743
 O    -4.82556     0.70035    -0.01624
 O    -3.12976     5.57387    -0.31160
 O    -2.88338     5.04076     2.90684
 O    -5.17384     3.50663     1.05256
 O     2.13434     0.25193     0.17611
 O    -0.19482    -1.91132     0.98348
 O     0.04592    -0.91694    -1.94224
Fe     2.03697     2.73695    -3.94036
Fe     4.75235    -0.64625    -4.75504
Fe    -5.77288     6.55738     4.75118
Fe    -3.05151     3.10685     3.84491
Fe    -2.79116     4.21199    -2.01185
Fe    -0.33976     1.11132    -2.82964
Ti    -3.93310    -0.38937     4.47670
Ti    -6.00432     4.33835    -3.55803
Ti     0.76810    -1.77240     2.60625
Ti    -3.30362     0.27718    -1.46499
Ti    -6.70662     3.84714     2.46584
Ti     1.52216    -1.23090    -3.36659
 O    -2.32529    -1.39704     5.54596
 O     0.03122     0.71241     4.84109
 O    -2.40706    -0.81211     3.04803
 O    -8.07174     3.54700     3.83152
 O    -5.72332     7.16159    -2.89988
 O    -5.81206     5.47268     3.13754
 O     2.96416    -3.03738     3.96824
 O     4.68020    -1.22137     2.90400
 O     2.86000    -2.36296     0.69209
 O    -4.82709    -0.94721     6.14318
 O    -3.07017     2.39502    -0.99423
 O    -2.72393     1.20273     4.71185
 O    -5.18457     2.90964     3.58869
 O    -5.00714     4.47227    -1.95018
 O    -3.16709     6.25543    -2.88464
 O     0.07693    -2.54048     4.18863
 O     1.83506     0.82589    -2.93081
 O     2.07318    -0.38907     2.75940
Fe    -4.18286    -3.20626    -0.81450
Fe     2.73327    -3.46208    -0.91241
Fe   -12.01266     2.64939    -0.87640
Fe    -5.16949     2.59248    -0.90796
Fe    -9.03352    -1.72692     1.11368
Fe    -2.39261    -1.59916     1.10385
Ti    -6.04412    -0.86877    -0.26477
Ti    -8.03489     1.64822     0.43385
Ti    -1.31303    -2.22973    -2.13863
Ti    -5.37880    -2.44626     2.46178
Ti    -8.78952     3.35245    -2.26968
Ti    -0.55722    -3.94238     0.55012
 O    -4.45240    -1.88924     0.81070
 O    -6.27271    -3.00331    -0.76454
 O    -4.51550    -1.31131    -1.69807
 O   -10.06921     3.00251    -0.94643
 O   -11.91106     1.04881     0.03128
 O   -12.10736     1.63701    -2.43639
 O     0.78710    -3.63160    -0.81038
 O    -1.59419    -5.00215    -2.73826
 O     0.58623    -2.84046    -4.04518
 O    -6.97295    -1.43298     1.38798
 O    -9.32307    -3.55416     2.11070
 O    -9.03016    -2.52611    -0.82109
 O    -7.30254     2.40265    -1.14658
 O    -7.06820     1.81355     2.05059
 O    -9.35469     0.29647     0.26073
 O    -2.05355    -2.98195    -0.57521
 O    -4.33266    -5.17146     0.08753
 O    -4.15793    -4.08889    -2.75438
Fe    -2.14413    -0.48497    -4.74939
Fe     0.63336    -3.89048    -5.65570
Fe   -10.00707     3.35196     3.93345
Fe    -7.23421    -0.10940     3.00038
Fe    -6.97639     1.02078    -2.84506
Fe    -4.53187    -2.09538    -3.64735
Ti    -8.12042    -3.59058     3.66497
Ti   -10.19495     1.16222    -4.27937
Ti    -3.41805    -4.96616     1.73030
Ti    -7.50906    -2.91463    -2.27250
Ti   -10.86975     0.60111     1.68941
Ti    -2.64701    -4.36839    -4.22571
 O    -6.51107    -4.64287     4.73773
 O    -4.15506    -2.51197     3.99369
 O    -6.58319    -4.03487     2.21841
 O   -12.19602     0.26564     3.07143
 O   -10.05947     3.99851    -3.61529
 O   -10.19091     2.33258     2.26333
 O    -1.21813    -6.28589     3.13292
 O     0.55785    -4.43280     2.06532
 O    -1.46424    -5.55201    -0.11415
 O    -9.01939    -4.14630     5.32403
 O    -7.24468    -0.77523    -1.80835
 O    -6.91672    -2.00766     3.88328
 O    -9.37998    -0.27605     2.83010
 O    -9.15253     1.29728    -2.72454
 O    -7.41152     3.07756    -3.76685
 O    -4.09479    -5.75187     3.32084
 O    -2.33198    -2.38098    -3.72942
 O    -2.08410    -3.62157     1.97346
