  160
 
Al     0.00000     0.00000     0.00000
Al     5.76244     0.56857    -0.11139
Al     7.65564     5.45118    -0.26190
 O     4.20539    -1.70930     5.41020
 O     3.89192    -1.24195     7.98513
 O     1.90315    -1.76284     6.50077
Si     3.33572    -1.02575     6.50934
Si     4.56427     6.94274     6.27994
 O     3.22453     0.54333     6.42336
Al     0.22852     1.17452     4.61441
Al     4.52713    -3.30995     4.67461
 O     6.09905     3.17748     5.25922
 O     5.78487     3.64329     7.83432
 O     3.79388     3.14087     6.34257
Si     5.23199     3.86468     6.35801
Si     2.66016     2.05177     6.44358
 O     5.12968     5.43458     6.27052
Al     2.12500     6.06446     4.45745
Al     6.42389     1.58406     4.50991
 O     5.10499     0.62996     3.76472
 O     4.53559     0.49753     1.19451
 O     3.42464     2.21677     2.69623
Si     3.99214     0.70931     2.67573
Si     3.31812     3.78663     2.60850
 O     2.85867    -0.38116     2.77867
 O     6.99702     5.53077     3.61347
 O     6.43160     5.38678     1.04383
 O     5.32014     7.11546     2.53262
Si     5.88585     5.60776     2.52255
Si     1.42095    -1.10765     2.77052
 O     4.75267     4.51851     2.62574
 O     2.44601     4.47207     3.70383
 O     2.76791     4.00514     1.13040
Al     1.89860     4.89471    -0.15918
 O     4.65928     8.90623     0.96918
 O     1.54975     2.13085     5.35256
 O     2.11556     2.27064     7.92237
 O     3.45364     7.01723     5.18810
 O     0.22010    -2.62785     8.08477
 O     9.73199    -2.32761     0.69959
 O    -0.63329     2.06101     3.31882
Si     8.86381    -1.63763     1.79558
 O    11.62997     2.56572     0.53597
 O     1.26376     6.95774     3.16496
Si    10.76553     3.25602     1.63447
 O     7.42807    -2.36895     1.78561
Si    10.09182     6.33276     1.56077
 O     8.75936    -0.06767     1.70385
 O     9.32811     2.52950     1.62378
Si     8.19350     1.44066     1.72360
 O    10.66209     4.82616     1.54428
 O     9.62862    -2.67970     8.44270
 O    -0.99677     1.11073     5.92125
Si     8.51639    -2.59939     7.35297
 O    11.52133     2.22161     8.28214
 O     0.90526     5.99558     5.76882
Si    10.40940     2.29973     7.19207
 O     7.94736    -1.09238     7.37124
Si     7.84137     0.47750     7.28212
 O     7.38398    -3.69047     7.45619
 O     9.84062     3.80704     7.20953
Si     5.94640    -4.41643     7.44528
 O     9.27711     1.20853     7.29413
 O     6.97406     1.16319     8.38129
 O     7.28619     0.69683     5.80598
 O     9.18578     5.59706     5.64305
 O     7.08177     1.52175     0.63404
 O     7.64886     1.65587     3.20379
 O     8.97943     6.40825     0.47111
 O     5.75061    -3.24626     3.36789
 O     0.55409    -0.42112     3.86988
 O     5.08117    -3.72381     8.54220
Na     6.67969    -1.32905     4.57664
Na     8.56835     3.57331     4.41589
Na    -0.02879     4.08384     4.55435
Na    -1.91198    -0.81246     4.71365
Na     2.15427     1.97850    -0.09474
Na     4.04937     6.87675    -0.25365
Na     5.50077     3.47811    -0.17294
Na     3.61876    -1.42533    -0.01120
Al    10.05300    -3.92554    -0.04344
Al    15.81780    -3.35514    -0.14474
Al    17.70999     1.53482    -0.30364
 O    14.26070    -5.63363     5.37906
 O    13.94863    -5.16417     7.95142
 O    11.95526    -5.67658     6.46531
Si    13.39131    -4.94640     6.47588
Si    14.61942     3.02487     6.23761
 O    13.28370    -3.37732     6.38542
Al    10.28504    -2.73957     4.56684
Al    14.58013    -7.23299     4.63992
 O    16.16047    -0.74071     5.21798
 O    15.84494    -0.27108     7.79068
 O    13.85574    -0.78230     6.29902
Si    15.29122    -0.05233     6.31452
Si    12.71893    -1.86893     6.39881
 O    15.18730     1.51746     6.22302
Al    12.18270     2.15165     4.40813
Al    16.47894    -2.33795     4.47364
 O    15.15444    -3.28844     3.73311
 O    14.59454    -3.42523     1.16238
 O    13.47840    -1.70243     2.65553
Si    14.04573    -3.20995     2.64055
Si    13.37041    -0.13272     2.56676
 O    12.91104    -4.29916     2.73775
 O    17.05063     1.60749     3.57683
 O    16.48943     1.46757     1.00523
 O    15.37836     3.19604     2.49566
Si    15.94203     1.68690     2.48350
Si    11.47510    -5.02804     2.72750
 O    14.80426     0.60109     2.58186
 O    12.50141     0.55384     3.66440
 O    12.81660     0.08426     1.08979
Al    11.95321     0.96899    -0.20735
 O    14.71195     4.98113     0.92592
 O    11.60757    -1.78806     5.30901
 O    12.17372    -1.65222     7.87816
 O    13.50705     3.10233     5.14828
 O    10.27476    -6.55279     8.04322
 O    19.78059    -6.24691     0.65103
 O     9.41817    -1.85375     3.27257
Si    18.91641    -5.55979     1.75181
 O    21.68385    -1.35393     0.49814
 O    11.32458     3.03702     3.10842
Si    20.81775    -0.66381     1.59547
 O    17.47825    -6.28721     1.74702
Si    20.14355     2.41325     1.52357
 O    18.81396    -3.98953     1.66337
 O    19.38178    -1.39278     1.58634
Si    18.24787    -2.48200     1.68486
 O    20.71388     0.90626     1.50659
 O    19.68240    -6.59810     8.39900
 O     9.05982    -2.81118     5.87217
Si    18.56877    -6.52153     7.31075
 O    21.57372    -1.69783     8.24198
 O    10.95570     2.08663     5.71192
Si    20.46136    -1.62648     7.15243
 O    17.99589    -5.01608     7.33297
Si    17.89237    -3.44594     7.24546
 O    17.44001    -7.61665     7.41390
 O    19.89320    -0.11852     7.16915
Si    16.00064    -8.34095     7.40904
 O    19.33033    -2.71886     7.25752
 O    17.02683    -2.75571     8.34315
 O    17.34035    -3.22758     5.76826
 O    19.23750     1.67267     5.60809
 O    17.13781    -2.39753     0.59391
 O    17.70149    -2.27237     3.16541
 O    19.03236     2.48997     0.43313
 O    15.80116    -7.16676     3.33044
 O    10.60802    -4.33611     3.82336
 O    15.13882    -7.64702     8.50767
Na    16.73202    -5.25184     4.53864
Na    18.62714    -0.35238     4.37583
Na    10.03019     0.17500     4.49531
Na     8.14200    -4.72767     4.65907
Na    12.20532    -1.94580    -0.13329
Na    14.10063     2.95285    -0.29606
Na    15.55742    -0.44269    -0.21128
Na    13.67523    -5.34258    -0.05193
