   80
 
Si     0.00000     0.00000     0.00000
Si     0.63200    -4.57800    -4.96100
 O     2.18100     4.56600    -4.54200
 O     0.00500     3.19200    -5.43700
Ca    -2.17800     3.60400    -2.48100
 O    -0.31700    -3.92700    -3.73400
Mn    -1.47200     1.70700    -5.03100
Si    -4.98900    -4.57800     0.00000
 O     3.44100     4.56600    -0.41900
 O    -2.94900     3.19200    -4.62600
 O    -4.03900    -3.92700    -1.22700
Mn     2.10500    -2.87100     0.07000
Mn     2.81200     4.55100    -2.48100
Si    -0.07400    -2.89800    -2.41100
Si    -4.28200    -2.89800    -2.55100
 O    -2.80800    -0.01200    -4.54200
 O    -2.10100     1.69200    -7.09300
 O    -1.54800    -0.01200    -0.41900
 O    -0.84200     1.69200    -2.97000
Ca    -2.88400    -1.92400     0.07000
Ca     2.10500     2.65400     0.07000
 O    -1.02300    -3.54900    -1.18400
 O    -3.33400    -3.54900    -3.77800
Si    -4.35700     0.00000    -4.96100
 O     3.58200    -1.38600    -0.33600
Ca     2.81100    -0.97400    -2.48100
 O    -5.30600     0.65100    -3.73400
 O     0.62800    -1.38600     0.47500
 O     0.95000     0.65100    -1.22700
Mn    -2.17700    -0.02700    -2.48100
Si    -5.06300     1.68000    -2.41100
Si     0.70700     1.68000    -2.55100
 O     1.47600    -2.88600    -1.99200
 O     2.73500    -2.88600     2.13100
 O    -4.60000     1.02900    -6.28500
 O     0.24300     1.02900     1.32300
 O    -0.70200    -1.51200    -2.88600
 O    -3.65500    -1.51200    -2.07500
 O     4.28700     3.06600    -2.88600
 O     1.33400     3.06600    -2.07500
Si     1.41200     0.00000    -5.10100
Si     2.04400    -4.57800   -10.06200
 O     3.59300     4.56600    -9.64300
 O     1.41700     3.19200   -10.53800
Ca    -0.76600     3.60400    -7.58200
 O     1.09500    -3.92700    -8.83500
Mn    -0.06000     1.70700   -10.13200
Si    -3.57700    -4.57800    -5.10100
 O     4.85300     4.56600    -5.52000
 O    -1.53700     3.19200    -9.72700
 O    -2.62700    -3.92700    -6.32800
Mn     3.51700    -2.87100    -5.03100
Mn     4.22400     4.55100    -7.58200
Si     1.33800    -2.89800    -7.51200
Si    -2.87000    -2.89800    -7.65200
 O    -1.39600    -0.01200    -9.64300
 O    -0.68900     1.69200   -12.19400
 O    -0.13600    -0.01200    -5.52000
 O     0.57000     1.69200    -8.07100
Ca    -1.47200    -1.92400    -5.03100
Ca     3.51700     2.65400    -5.03100
 O     0.38900    -3.54900    -6.28500
 O    -1.92200    -3.54900    -8.87900
Si    -2.94500     0.00000   -10.06200
 O     4.99400    -1.38600    -5.43700
Ca     4.22300    -0.97400    -7.58200
 O    -3.89400     0.65100    -8.83500
 O     2.04000    -1.38600    -4.62600
 O     2.36200     0.65100    -6.32800
Mn    -0.76500    -0.02700    -7.58200
Si    -3.65100     1.68000    -7.51200
Si     2.11900     1.68000    -7.65200
 O     2.88800    -2.88600    -7.09300
 O     4.14700    -2.88600    -2.97000
 O    -3.18800     1.02900   -11.38600
 O     1.65500     1.02900    -3.77800
 O     0.71000    -1.51200    -7.98700
 O    -2.24300    -1.51200    -7.17600
 O     5.69900     3.06600    -7.98700
 O     2.74600     3.06600    -7.17600
