   80
 
Si     0.00000     0.00000     0.00000
Si     0.19279    -4.30718    -4.35938
 O     1.73726     4.63251    -3.78155
 O    -0.30067     2.87376    -4.93698
Ca    -2.45672     1.92189    -2.05178
 O    -0.71440    -3.99578    -3.09241
Mn    -1.66086     1.59136    -4.44851
Si    -5.04684    -4.43734     0.19115
 O     3.43105     4.54837    -0.63615
 O    -3.00418     2.89972    -3.89900
 O    -4.05327    -3.98918    -1.00399
Mn     1.79771    -2.65753     0.09592
Mn     2.61858     4.12837    -2.25566
Si    -0.61147    -2.84487    -1.95753
Si    -4.31180    -3.01566    -2.23981
 O    -3.24245     0.42374    -3.68720
 O    -2.46197     1.17804    -6.06698
 O    -1.62208     0.38988    -0.45291
 O    -0.77175     1.12287    -2.90628
Ca    -3.18514    -0.62655     0.40375
Ca     1.75235     3.70445     0.15539
 O    -1.56894    -3.13443    -0.71557
 O    -3.33076    -3.19073    -3.45132
Si    -4.83391    -0.00693    -4.17672
 O     3.18537    -1.39118    -0.41075
Ca     2.61903    -2.20519    -2.32412
 O    -5.71934     0.23665    -2.87026
 O     0.43974    -1.36971     0.62534
 O     0.89210     0.39841    -1.25301
Mn    -2.40942    -0.29798    -2.08779
Si    -5.68907     1.36696    -1.71380
Si     0.82100     1.50933    -2.42222
 O     1.00717    -3.16032    -1.48882
 O     2.60861    -3.09690     1.68206
 O    -5.00668     1.15095    -5.30132
 O     0.10354     1.09832     1.18467
 O    -1.00999    -1.52378    -2.66396
 O    -3.86018    -1.58101    -1.46702
 O     3.99529     2.83391    -2.78414
 O     1.28142     2.84753    -1.73450
Si     1.61674     0.03511    -4.82240
Si     1.85565    -4.18566    -9.21731
 O     3.40684     4.71116    -8.63007
 O     1.40868     3.01538    -9.83240
Ca    -0.79241     2.05114    -6.82249
 O     0.89752    -3.90017    -7.98187
Mn     0.09583     1.67000    -9.30854
Si    -3.40694    -4.30273    -4.66455
 O     5.05766     4.69347    -5.46569
 O    -1.31384     2.86115    -8.73419
 O    -2.49387    -3.85908    -5.87652
Mn     3.44812    -2.49483    -4.71941
Mn     4.18391     4.21108    -7.01840
Si     1.02724    -2.81544    -6.78117
Si    -2.59664    -2.74632    -7.04048
 O    -1.60520     0.32237    -8.47443
 O    -0.78012     1.09741   -10.82792
 O    -0.00404     0.35866    -5.29982
 O     0.84450     1.18980    -7.68013
Ca    -1.62611    -0.58627    -4.47039
Ca     3.40245     3.79639    -4.64202
 O     0.11677    -3.21336    -5.54028
 O    -1.68375    -3.19304    -8.26117
Si    -3.21749    -0.01538    -8.92606
 O     4.90715    -1.25032    -5.24972
Ca     4.22705    -2.13132    -7.08166
 O    -4.12975     0.43241    -7.71319
 O     1.99133    -1.30397    -4.14227
 O     2.53747     0.36550    -6.07389
Mn    -0.76795    -0.12322    -6.90239
Si    -4.07010     1.52534    -6.52835
Si     2.46268     1.54053    -7.18501
 O     2.63468    -3.21517    -6.33744
 O     4.25047    -3.22146    -3.08430
 O    -3.30212     1.08265   -10.10415
 O     1.73028     1.18397    -3.68184
 O     0.58260    -1.44121    -7.39415
 O    -2.13856    -1.40212    -6.39015
 O     5.58648     3.01076    -7.58712
 O     2.85818     2.86982    -6.49458
