   64
 
 K     0.00000     0.00000     0.00000
 F     2.68920     0.00000     0.00000
 K     0.00000     3.80310     0.00000
 F     2.68920     3.80310     0.00000
 K     2.68920     1.90155    -1.90155
 F     0.00000     1.90155    -1.90155
 K     2.68920     1.90155     1.90155
 F     0.00000     1.90155     1.90155
 K    -5.37840     0.00000     0.00000
 F    -2.68920     0.00000     0.00000
 K    -5.37840     3.80310    -0.00000
 F    -2.68920     3.80310     0.00000
 K    -2.68920     1.90155    -1.90155
 F    -5.37840     1.90155    -1.90155
 K    -2.68920     1.90155     1.90155
 F    -5.37840     1.90155     1.90155
 K     0.00000    -3.80310    -3.80310
 F     2.68920    -3.80310    -3.80310
 K     0.00000     0.00000    -3.80310
 F     2.68920     0.00000    -3.80310
 K     2.68920    -1.90155    -5.70465
 F     0.00000    -1.90155    -5.70465
 K     2.68920    -1.90155    -1.90155
 F     0.00000    -1.90155    -1.90155
 K    -5.37840    -3.80310    -3.80310
 F    -2.68920    -3.80310    -3.80310
 K    -5.37840     0.00000    -3.80310
 F    -2.68920     0.00000    -3.80310
 K    -2.68920    -1.90155    -5.70465
 F    -5.37840    -1.90155    -5.70465
 K    -2.68920    -1.90155    -1.90155
 F    -5.37840    -1.90155    -1.90155
 K     0.00000    -3.80310     3.80310
 F     2.68920    -3.80310     3.80310
 K     0.00000     0.00000     3.80310
 F     2.68920     0.00000     3.80310
 K     2.68920    -1.90155     1.90155
 F     0.00000    -1.90155     1.90155
 K     2.68920    -1.90155     5.70465
 F     0.00000    -1.90155     5.70465
 K    -5.37840    -3.80310     3.80310
 F    -2.68920    -3.80310     3.80310
 K    -5.37840     0.00000     3.80310
 F    -2.68920     0.00000     3.80310
 K    -2.68920    -1.90155     1.90155
 F    -5.37840    -1.90155     1.90155
 K    -2.68920    -1.90155     5.70465
 F    -5.37840    -1.90155     5.70465
 K     0.00000    -7.60621    -0.00000
 F     2.68920    -7.60621    -0.00000
 K     0.00000    -3.80310    -0.00000
 F     2.68920    -3.80310    -0.00000
 K     2.68920    -5.70465    -1.90155
 F     0.00000    -5.70465    -1.90155
 K     2.68920    -5.70465     1.90155
 F     0.00000    -5.70465     1.90155
 K    -5.37840    -7.60621    -0.00000
 F    -2.68920    -7.60621    -0.00000
 K    -5.37840    -3.80310    -0.00000
 F    -2.68920    -3.80310    -0.00000
 K    -2.68920    -5.70465    -1.90155
 F    -5.37840    -5.70465    -1.90155
 K    -2.68920    -5.70465     1.90155
 F    -5.37840    -5.70465     1.90155
