   64
 
 K     0.00000     0.00000     0.00000
 I     3.57624     0.00285     0.00373
 K    -0.00202     5.05907     0.00480
 I     3.57558     5.05880     0.01049
 K     3.57431     2.53678    -2.52034
 I    -0.00066     2.53576    -2.52332
 K     3.57751     2.52275     2.53474
 I     0.00349     2.52315     2.52641
 K    -7.15211    -0.00272    -0.00323
 I    -3.57682     0.00475     0.00064
 K    -7.15175     5.05663     0.00361
 I    -3.57595     5.06013     0.00752
 K    -3.57508     2.53872    -2.52251
 I    -7.15246     2.53459    -2.52457
 K    -3.57160     2.52493     2.53313
 I    -7.14830     2.52251     2.52553
 K    -0.00083    -5.04511    -5.05491
 I     3.57558    -5.04642    -5.04992
 K    -0.00157     0.01571    -5.05022
 I     3.57466     0.01191    -5.04604
 K     3.57548    -2.51152    -7.57197
 I    -0.00037    -2.51034    -7.57667
 K     3.57705    -2.52275    -2.52072
 I     0.00241    -2.52038    -2.52792
 K    -7.15109    -5.04577    -5.05604
 I    -3.57525    -5.04074    -5.05484
 K    -7.15263     0.01404    -5.05265
 I    -3.57683     0.01600    -5.04987
 K    -3.57532    -2.50609    -7.57905
 I    -7.15271    -2.51194    -7.58025
 K    -3.57235    -2.51885    -2.52447
 I    -7.14912    -2.52109    -2.53144
 K    -0.01422    -5.04861     5.06382
 I     3.56263    -5.04959     5.06678
 K    -0.00776     0.00368     5.06380
 I     3.57102    -0.00035     5.06685
 K     3.56929    -2.52146     2.53636
 I    -0.00710    -2.51896     2.53676
 K     3.56422    -2.52818     7.59696
 I    -0.00953    -2.52600     7.59175
 K    -7.16255    -5.05066     5.06323
 I    -3.58750    -5.04409     5.06756
 K    -7.15639     0.00314     5.06121
 I    -3.58114     0.00300     5.06505
 K    -3.58184    -2.51875     2.53456
 I    -7.15815    -2.52242     2.53445
 K    -3.58489    -2.52372     7.59641
 I    -7.16158    -2.52709     7.59161
 K    -0.01334   -10.09529     0.00935
 I     3.56287   -10.09701     0.01385
 K    -0.00517    -5.03988     0.00793
 I     3.57069    -5.04641     0.01178
 K     3.57039    -7.56811    -2.51796
 I    -0.00594    -7.56698    -2.51896
 K     3.56495    -7.57368     2.54205
 I    -0.01107    -7.57001     2.53647
 K    -7.16278   -10.09508     0.00758
 I    -3.58790   -10.08958     0.01219
 K    -7.15756    -5.04225     0.00500
 I    -3.58113    -5.04091     0.00921
 K    -3.58054    -7.56379    -2.51967
 I    -7.15693    -7.56871    -2.52122
 K    -3.58599    -7.56660     2.54023
 I    -7.16214    -7.57293     2.53570
