  130
 
La     0.00000     0.00000     0.00000
 O     2.62924    -0.07703     0.33072
 O     1.93832     1.81862     0.08823
 O     0.15779     0.85340    -2.36655
 O     0.36357     0.98257     2.29534
 O    -1.90476    -0.69371     1.54460
 O    -1.65247    -1.14544    -0.51110
 N     0.89823    -2.08363     1.40176
 N     1.42502    -1.83849    -1.31026
 C     0.63983    -2.25431     2.71077
 H    -0.11814    -1.58200     3.15405
 C     1.28431    -3.21448     3.51838
 H     0.99882    -3.31185     4.57158
 C     2.25498    -4.01521     2.96387
 H     2.78964    -4.75947     3.56123
 C     2.54452    -3.88870     1.58532
 C     3.50379    -4.73855     0.94203
 H     4.07542    -5.43127     1.56165
 C     3.67777    -4.69162    -0.40263
 H     4.38666    -5.35279    -0.91111
 C     2.95247    -3.75063    -1.20534
 C     3.11797    -3.70271    -2.60918
 H     3.72619    -4.46605    -3.11438
 C     2.49889    -2.69880    -3.31511
 H     2.64027    -2.59255    -4.39177
 C     1.66911    -1.78424    -2.63163
 H     1.17490    -0.96681    -3.19379
 C     2.07889    -2.82977    -0.59961
 C     1.83528    -2.93071     0.83685
 C     3.03400     1.11439     0.32187
 C     4.40021     1.56565     0.51192
 C     5.40959     0.64074     0.21331
 H     5.14434    -0.34781    -0.17062
 C     6.73937     0.97482     0.43937
 H     7.52843     0.26001     0.20683
 C     7.06612     2.21296     0.99229
 H     8.10785     2.44857     1.21752
 C     6.06079     3.13113     1.28792
 H     6.31432     4.09292     1.73269
 C     4.72681     2.81014     1.04723
 H     3.95436     3.52974     1.31601
 C     0.12168     1.93698    -3.01483
 C    -0.31928     1.92692    -4.42308
 C    -0.47728     0.71070    -5.08501
 H    -0.24620    -0.22271    -4.56940
 C    -0.96404     0.69900    -6.39010
 H    -1.10477    -0.24986    -6.90639
 C    -1.30255     1.89480    -7.01845
 H    -1.73592     1.87767    -8.02402
 C    -1.10896     3.11210    -6.36449
 H    -1.35883     4.04682    -6.86260
 C    -0.61387     3.13126    -5.06485
 H    -0.47108     4.07285    -4.53418
 C    -2.37169    -1.26821     0.55018
 C    -3.60647    -2.05646     0.53577
 C    -4.45529    -2.02000     1.64472
 H    -4.22812    -1.36166     2.48515
 C    -5.59028    -2.82322     1.67239
 H    -6.24380    -2.82018     2.54751
 C    -5.88117    -3.64805     0.58732
 H    -6.75686    -4.29559     0.62391
 C    -5.05314    -3.66255    -0.53405
 H    -5.28299    -4.32277    -1.37105
 C    -3.91548    -2.86036    -0.56282
 H    -3.25315    -2.86395    -1.43366
 O    -1.13297     2.18158    -0.25389
La     0.79910     4.00522    -0.16798
 O    -1.83755     4.07394    -0.46526
 C    -2.23685     2.88102    -0.46436
 C    -3.60009     2.41455    -0.64087
 C    -4.61999     3.31118    -0.29804
 H    -4.36831     4.29016     0.11693
 C    -5.94682     2.96570    -0.52288
 H    -6.73979     3.66630    -0.26394
 C    -6.26213     1.74289    -1.11435
 H    -7.30206     1.50109    -1.34122
 C    -5.24742     0.84948    -1.44959
 H    -5.49177    -0.10004    -1.92474
 C    -3.91595     1.18321    -1.21185
 H    -3.13602     0.48484    -1.51241
 O     0.65019     3.15268     2.19816
 C     0.68181     2.06912     2.84736
 O     0.44368     3.02335    -2.46382
 O     2.70933     4.69531    -1.70775
 C     3.17468     5.27230    -0.71369
 O     2.44865     5.15951     0.34396
 N    -0.12399     6.07338    -1.57651
 C     0.13242     6.24551    -2.88581
 H     0.89317     5.57740    -3.33059
 C    -0.51533     7.20382    -3.69219
 H    -0.22540     7.30750    -4.74408
 C    -1.49326     7.99613    -3.13831
 H    -2.03129     8.73868    -3.73529
 C    -1.78321     7.86658    -1.76020
 C    -2.74397     8.71358    -1.11541
 H    -3.32865     9.39556    -1.73506
 C    -2.89973     8.68034     0.23156
 H    -3.60240     9.34687     0.74154
 C    -2.16113     7.75137     1.03595
 C    -2.29965     7.72614     2.44314
 H    -2.90246     8.49428     2.94824
 C    -1.66083     6.73725     3.15302
 H    -1.77527     6.65325     4.23465
 C    -0.84310     5.81302     2.46793
 N    -0.62400     5.84698     1.14135
 C    -1.29464     6.82499     0.42848
 C    -1.06537     6.91555    -1.01110
 H    -0.33521     5.00644     3.03294
 C     4.41622     6.05077    -0.69495
 C     5.26814     6.01271    -1.80162
 H     5.03701     5.36197    -2.64704
 C     6.41056     6.80611    -1.82097
 H     7.06667     6.80192    -2.69426
 C     6.70564     7.62447    -0.73195
 H     7.58718     8.26548    -0.76236
 C     5.87349     7.64091     0.38634
 H     6.10499     8.29599     1.22692
 C     4.72957     6.84777     0.40759
 H     4.06496     6.85376     1.27678
 C     1.10473     2.08416     4.26113
 C     1.22158     3.30191     4.92898
 H     0.97265     4.23097     4.41351
 C     1.68984     3.32110     6.24037
 H     1.79436     4.27136     6.76237
 C     2.05752     2.13300     6.86702
 H     2.48244     2.15808     7.87611
 C     1.90532     0.91368     6.20664
 H     2.18027    -0.01494     6.70309
 C     1.42032     0.88553     4.90302
 H     1.30345    -0.05781     4.36903
