  108
 
Pb     0.00000     0.00000     0.00000
Pb    -3.87078     0.15937     0.29437
Pb    -1.75947    -3.10435     0.03045
Pb    -2.10591    -0.87918     3.20742
Pb     4.19107    -2.34290    -3.46667
Pb     0.32870    -2.18157    -3.20668
Pb     2.42754    -5.44617    -3.43998
Pb     2.10568    -3.21553    -0.28753
Pb     8.40241    -4.78075    -6.88941
Pb     4.52967    -4.58791    -6.62370
Pb     6.63370    -7.88308    -6.85589
Pb     6.28905    -5.62249    -3.70279
Pb     0.02525     4.13341    -2.95221
Pb    -3.83827     4.29144    -2.67422
Pb    -1.75357     1.03662    -2.91163
Pb    -2.09172     3.26270     0.25758
Pb     4.22336     1.77737    -6.42605
Pb     0.35611     1.94588    -6.16105
Pb     2.43905    -1.31091    -6.38476
Pb     2.11403     0.92138    -3.23286
Pb     8.43355    -0.65819    -9.85647
Pb     4.56750    -0.47022    -9.58740
Pb     6.65760    -3.75376    -9.80998
Pb     6.30643    -1.49069    -6.65481
Pb     0.05447     8.25490    -5.92516
Pb    -3.81568     8.41582    -5.63114
Pb    -1.71249     5.15445    -5.88736
Pb    -2.06045     7.38946    -2.70757
Pb     4.23910     5.91192    -9.39098
Pb     0.38570     6.07662    -9.13299
Pb     2.47644     2.80600    -9.35099
Pb     2.15631     5.03916    -6.20851
Pb     8.44941     3.47584   -12.81222
Pb     4.58010     3.66765   -12.54410
Pb     6.67947     0.37819   -12.77449
Pb     6.33541     2.63669    -9.61580
Pb     3.52690     2.05431     2.87834
Pb    -0.34211     2.22529     3.16833
Pb     1.76404    -1.03928     2.91127
Pb     1.41987     1.18664     6.08399
Pb     7.69976    -0.27541    -0.57749
Pb     3.85594    -0.11423    -0.31732
Pb     5.94182    -3.37755    -0.54661
Pb     5.61935    -1.15296     2.60657
Pb    11.91208    -2.72015    -4.01114
Pb     8.04311    -2.51902    -3.72932
Pb    10.16089    -5.81996    -3.97820
Pb     9.78793    -3.56060    -0.81698
Pb     3.55242     6.18788    -0.08011
Pb    -0.31317     6.35653     0.21164
Pb     1.77478     3.09998    -0.03309
Pb     1.43148     5.31886     3.13614
Pb     7.73150     3.85179    -3.53814
Pb     3.88100     4.01311    -3.27575
Pb     5.95777     0.75857    -3.49950
Pb     5.63098     2.98738    -0.34535
Pb    11.95167     1.40102    -6.97666
Pb     8.07862     1.60564    -6.69290
Pb    10.17502    -1.68439    -6.92902
Pb     9.80491     0.57325    -3.77073
Pb     3.58281    10.31408    -3.05486
Pb    -0.28995    10.48538    -2.75564
Pb     1.80970     7.22622    -3.00583
Pb     1.46271     9.44770     0.16744
Pb     7.74844     7.97830    -6.49820
Pb     3.90637     8.13729    -6.24593
Pb     5.99023     4.87916    -6.46226
Pb     5.66726     7.10770    -3.31348
Pb    11.96389     5.54302    -9.93202
Pb     8.09024     5.74073    -9.64971
Pb    10.20457     2.44621    -9.89240
Pb     9.84208     4.69771    -6.73606
Pb     7.05546     4.10439     5.77006
Pb     3.18296     4.27704     6.05836
Pb     5.29010     1.01378     5.79898
Pb     4.95341     3.22283     8.97441
Pb    11.25750     1.75994     2.28682
Pb     7.38676     1.93898     2.56499
Pb     9.47907    -1.33152     2.32149
Pb     9.16289     0.88990     5.47184
Pb    15.45702    -0.67845    -1.12748
Pb    11.57247    -0.47365    -0.86341
Pb    13.67953    -3.76583    -1.09899
Pb    13.34770    -1.52260     2.05267
Pb     7.07422     8.23497     2.81136
Pb     3.20768     8.40595     3.09515
Pb     5.28872     5.15315     2.85840
Pb     4.96508     7.36583     6.02588
Pb    11.29527     5.87709    -0.67082
Pb     7.42067     6.06649    -0.39881
Pb     9.49297     2.80349    -0.62528
Pb     9.16407     5.03281     2.52939
Pb    15.48934     3.44487    -4.09259
Pb    11.60350     3.64714    -3.82253
Pb    13.69429     0.36266    -4.05085
Pb    13.37187     2.60633    -0.90213
Pb     7.10814    12.35764    -0.15428
Pb     3.23065    12.53398     0.12838
Pb     5.33067     9.27663    -0.11771
Pb     4.99450    11.49024     3.05451
Pb    11.31432    10.01520    -3.63450
Pb     7.44594    10.19113    -3.36128
Pb     9.53131     6.92466    -3.59338
Pb     9.21596     9.14718    -0.44681
Pb    15.50191     7.58253    -7.05110
Pb    11.61830     7.78560    -6.78286
Pb    13.72595     4.49036    -7.01363
Pb    13.39978     6.73448    -3.86488
