   96
 
 O     0.00000     0.00000     0.00000
 O     2.48076     1.18830     3.55151
 O    -1.59974    -2.70781    -0.00000
 O     6.09190     2.70781     0.00000
 O     1.78452    -0.11203     1.55697
 O     2.30536     0.34969    -0.84667
 O    -3.85074    -2.32019    -0.89572
 O    -0.79358    -4.89575    -0.84667
 B     1.27153     0.60225     0.27947
 B     1.39831     0.47436     2.93820
 B    -1.51365    -4.11211     0.27947
 B    -1.34046    -4.16145     2.93820
 O     1.31858     1.98464     0.55594
 O    -0.41079     0.13295    -2.34806
 O     2.82220     4.52976     0.55594
 O    -0.71556    -3.12044     3.65615
 B     2.56131     1.42327    -1.95136
 B    -0.97770     0.29506    -1.03405
 B     3.91357     3.71218    -1.95136
 B    -2.32995    -1.99386    -1.03405
Pb    -1.11568    -1.16733     1.88663
Pb     3.92550     2.16123     1.08386
 O    -2.16199    -0.54918    -0.86768
 O     3.30711     2.52657    -1.34351
 O     2.01139    -1.18830    -3.55151
 O     4.49216     0.00000     0.00000
 O     0.41166    -3.89612    -3.55151
 O     8.10329     1.51951    -3.55151
 O     3.79591    -1.30034    -1.99454
 O     4.31675    -0.83861    -4.39818
 O    -1.83935    -3.50849    -4.44723
 O     1.21782    -6.08405    -4.39818
 B     3.28292    -0.58606    -3.27204
 B     3.40971    -0.71395    -0.61332
 B     0.49774    -5.30042    -3.27204
 B     0.67094    -5.34975    -0.61332
 O     3.32998     0.79634    -2.99557
 O     1.60061    -1.05535    -5.89957
 O     4.83360     3.34146    -2.99557
 O     1.29584    -4.30874     0.10464
 B     4.57271     0.23497    -5.50287
 B     1.03370    -0.89325    -4.58556
 B     5.92496     2.52388    -5.50287
 B    -0.31856    -3.18216    -4.58556
Pb     0.89572    -2.35563    -1.66488
Pb     5.93690     0.97292    -2.46765
 O    -0.15059    -1.73749    -4.41919
 O     5.31851     1.33826    -4.89502
 O     3.21025    -1.89657     2.45269
 O     5.69101    -0.70827     6.00420
 O     1.61051    -4.60438     2.45269
 O     9.30214     0.81124     2.45269
 O     4.99477    -2.00860     4.00967
 O     5.51561    -1.54688     1.60602
 O    -0.64049    -4.21676     1.55697
 O     2.41667    -6.79232     1.60602
 B     4.48177    -1.29432     2.73216
 B     4.60856    -1.42221     5.39089
 B     1.69659    -6.00868     2.73216
 B     1.86979    -6.05802     5.39089
 O     4.52883     0.08807     3.00863
 O     2.79946    -1.76362     0.10464
 O     6.03245     2.63319     3.00863
 O     2.49469    -5.01701     6.10884
 B     5.77156    -0.47330     0.50133
 B     2.23255    -1.60151     1.41864
 B     7.12382     1.81561     0.50133
 B     0.88029    -3.89043     1.41864
Pb     2.09457    -3.06390     4.33932
Pb     7.13575     0.26466     3.53655
 O     1.04826    -2.44575     1.58501
 O     6.51736     0.63000     1.10919
 O     5.22164    -3.08487    -1.09882
 O     7.70240    -1.89657     2.45269
 O     3.62190    -5.79269    -1.09882
 O    11.31354    -0.37706    -1.09882
 O     7.00616    -3.19691     0.45815
 O     7.52700    -2.73518    -1.94549
 O     1.37090    -5.40506    -1.99454
 O     4.42807    -7.98062    -1.94549
 B     6.49317    -2.48263    -0.81935
 B     6.61995    -2.61052     1.83938
 B     3.70799    -7.19699    -0.81935
 B     3.88118    -7.24632     1.83938
 O     6.54022    -1.10023    -0.54288
 O     4.81085    -2.95192    -3.44687
 O     8.04384     1.44489    -0.54288
 O     4.50608    -6.20531     2.55733
 B     7.78295    -1.66160    -3.05018
 B     4.24395    -2.78982    -2.13287
 B     9.13521     0.62731    -3.05018
 B     2.89169    -5.07873    -2.13287
Pb     4.10596    -4.25220     0.78781
Pb     9.14714    -0.92364    -0.01496
 O     3.05965    -3.63406    -1.96650
 O     8.52875    -0.55831    -2.44232
