  288
 
Pb     0.00000     0.00000     0.00000
Pb    -5.89952    -0.04141    -0.01828
Pb     3.06551    -1.78720    -4.88911
Pb    -2.92784    -1.63408    -4.95594
 N    -7.86623     2.35699     1.60475
 N     0.06671    -1.20572    -3.26456
 N    -2.97249     1.85319    -0.14416
 N    -1.02110    -2.94323     1.56275
 N    -3.97647    -2.45092    -1.66052
 N     0.05106     1.17048     3.26564
 N     3.05146    -1.67311     0.08586
 N     1.10349     2.84056    -1.69317
 O    -2.51401    -0.28591    -7.50280
 O    -0.10581    -1.59537    -4.44661
 O    -2.74577     0.61497    -0.13523
 O    -0.31505    -2.25136     2.34225
 O    -7.63250     2.72131     0.43030
 O    -0.92514    -0.93527    -2.54373
 O    -2.01380     2.66220    -0.13016
 O    -7.25970    -0.31385    -2.51446
 O    -7.39662     1.27644     2.04094
 O     1.22865    -1.10238    -2.80184
 O    -4.15352     2.26843    -0.18069
 O    -1.29281    -2.50552     0.42057
 O    -3.30944    -3.44840    -2.02113
 O    -5.75825    -1.69855    -5.41122
 O     2.83144    -0.44025     0.05885
 O     0.38665     2.12652    -2.43559
 O    -4.47347    -2.40875    -0.50854
 O     1.02335     0.93987     2.50625
 O     2.09211    -2.48466     0.10569
 O    -4.39833     0.29807     2.77641
 O    -4.16447    -1.49554    -2.45282
 O    -1.12117     0.99124     2.84836
 O    -7.72573    -2.13309     0.18831
 O     1.36061     2.47152    -0.52081
Pb    -0.02055     6.99831     4.85195
Pb    -5.86747     6.88971     4.80653
Pb     3.04364     5.19346    -0.03381
Pb    -2.92994     5.34116    -0.11004
 N    -7.76698     9.31806     6.51395
 N     0.05410     5.78169     1.59696
 N    -2.94901     8.85474     4.77112
 N    -1.07999     4.09504     6.49644
 N    -3.96510     4.48913     3.16560
 N     0.11257     8.22063     8.08866
 N     3.02941     5.25607     4.94261
 N     1.13247     9.83693     3.19142
 O    -2.54153     6.86681    -2.91165
 O    -0.12124     5.37425     0.42087
 O    -2.81671     7.60063     4.74773
 O    -0.38234     4.77535     7.28958
 O    -7.58860     9.73245     5.34517
 O    -0.93709     6.06178     2.31521
 O    -1.92641     9.58438     4.78984
 O    -7.32348     6.63450     2.30317
 O    -7.27268     8.22538     6.88142
 O     1.21683     5.89424     2.05366
 O    -4.09084     9.36320     4.76033
 O    -1.31501     4.52711     5.34363
 O    -3.27242     3.51518     2.79830
 O    -5.78236     5.26329    -0.48581
 O     2.76969     6.48081     4.91484
 O     0.44024     9.12201     2.42286
 O    -4.47011     4.50029     4.31885
 O     1.06777     7.94638     7.32708
 O     2.09937     4.41371     4.97574
 O    -4.33777     7.20541     7.67637
 O    -4.17496     5.45441     2.39124
 O    -1.07023     8.06308     7.68202
 O    -7.73394     4.84194     5.02050
 O     1.34742     9.46100     4.36961
Pb     5.99813     3.54725    -4.92088
Pb     0.06040     3.50360    -4.94470
Pb     8.99003     1.75355    -9.95424
Pb     3.09189     1.90969    -9.84990
 N    -1.87401     5.89989    -3.35823
 N     6.06461     2.35025    -8.16084
 N     3.00119     5.38420    -5.07846
 N     5.02312     0.62848    -3.28173
 N     1.99092     1.09489    -6.57562
 N     6.09157     4.74936    -1.67315
 N     9.07187     1.89842    -4.88787
 N     7.05205     6.38446    -6.66761
 O     3.48441     3.21635   -12.33916
 O     5.94344     1.95179    -9.34961
 O     3.26109     4.15325    -5.04671
 O     5.76064     1.32144    -2.53861
 O    -1.45303     5.90704    -4.53578
 O     5.03395     2.59828    -7.48318
 O     3.93508     6.22010    -5.09259
 O    -1.25182     3.32010    -7.44497
 O    -1.61718     4.92515    -2.60386
 O     7.19975     2.48282    -7.65331
 O     1.80801     5.76448    -5.11102
 O     4.71628     1.04321    -4.42513
 O     2.68395     0.11027    -6.91983
 O     0.25491     1.81438   -10.24542
 O     8.83460     3.12763    -4.90789
 O     6.35069     5.66610    -7.41811
 O     1.47618     1.13155    -5.43108
 O     7.05419     4.50631    -2.44119
 O     8.12156     1.07649    -4.80912
 O     1.57422     3.92110    -2.12759
 O     1.79658     2.04533    -7.37325
 O     4.91360     4.57003    -2.07478
 O    -1.81443     1.43615    -4.76210
 O     7.28547     6.03022    -5.48565
Pb     5.97761    10.45596    -0.02499
Pb     0.04554    10.44682    -0.05331
Pb     8.93982     8.78036    -5.00108
Pb     3.00913     8.89395    -5.01744
 N    -1.85229    12.84182     1.58993
 N     5.98759     9.32268    -3.29595
 N     2.99383    12.32144    -0.17935
 N     4.95639     7.58199     1.64415
 N     1.96800     8.06156    -1.74240
 N     6.07954    11.76613     3.18593
 N     9.06457     8.83493    -0.05449
 N     7.04995    13.29800    -1.82984
 O     3.36469    10.24440    -7.52008
 O     5.80667     8.95166    -4.48395
 O     3.26655    11.09220    -0.15792
 O     5.68368     8.27831     2.39254
 O    -1.56103    13.10656     0.40293
 O     5.00238     9.56289    -2.55664
 O     3.92142    13.16458    -0.18971
 O    -1.30366    10.27720    -2.54794
 O    -1.48435    11.75479     2.10552
 O     7.15414     9.43743    -2.84895
 O     1.79822    12.68928    -0.20442
 O     4.65989     7.99705     0.49532
 O     2.66301     7.08798    -2.10876
 O     0.18919     8.74116    -5.39732
 O     8.84296    10.06776    -0.06391
 O     6.35267    12.64099    -2.63776
 O     1.46676     8.07600    -0.58924
 O     7.02864    11.47466     2.41983
 O     8.10504     8.02409     0.01008
 O     1.61812    10.91662     2.77799
 O     1.75560     9.02380    -2.52069
 O     4.89438    11.59043     2.80675
 O    -1.84081     8.42127     0.06636
 O     7.21940    12.88918    -0.65706
Pb     6.12141    -3.51429     4.92548
Pb     0.19494    -3.55989     4.77970
Pb     9.15682    -5.26273     0.04164
Pb     3.10567    -5.15320    -0.01812
 N    -1.79223    -1.22752     6.51930
 N     6.11662    -4.72152     1.65148
 N     3.12969    -1.73713     4.73378
 N     5.08449    -6.46465     6.51934
 N     2.04975    -5.98551     3.21664
 N     6.12282    -2.22339     8.14518
 N     9.13097    -5.27637     5.01888
 N     7.18584    -0.64827     3.22160
 O     3.47304    -3.83413    -2.61891
 O     5.91303    -5.10818     0.47440
 O     3.34393    -2.97685     4.76756
 O     5.75627    -5.48147     6.91549
 O    -1.32281    -1.25030     5.35692
 O     5.14548    -4.46051     2.40226
 O     4.08843    -0.93156     4.74049
 O    -1.45617    -4.05688     1.93897
 O    -1.51728    -2.14185     7.33135
 O     7.29107    -4.61122     2.08301
 O     1.94792    -1.31559     4.68394
 O     4.60916    -6.47335     5.35921
 O     2.74494    -6.83776     2.62131
 O     0.31272    -5.29183    -0.54284
 O     8.88736    -4.04659     5.02387
 O     6.49800    -1.32998     2.42652
 O     1.66501    -6.18036     4.39298
 O     7.08037    -2.47111     7.36710
 O     8.19162    -6.10711     4.99882
 O     1.69219    -3.14169     7.68298
 O     1.71966    -4.91631     2.62748
 O     4.94122    -2.33723     7.73196
 O    -1.67753    -5.68515     4.94667
 O     7.41287    -1.06938     4.38259
Pb     6.04654     3.43651     9.81891
Pb     0.14008     3.42013     9.70475
Pb     9.09419     1.73424     4.91061
Pb     3.06041     1.74612     4.89592
 N    -1.77917     5.76914    11.41998
 N     6.06400     2.25237     6.53297
 N     3.05823     5.26849     9.62535
 N     5.06984     0.54125    11.43098
 N     2.00714     0.94423     8.13892
 N     6.16428     4.74398    13.01151
 N     9.09948     1.70213     9.84790
 N     7.19731     6.29863     8.15388
 O     3.39291     3.27137     2.05645
 O     5.86531     1.85271     5.35894
 O     3.28899     4.03017     9.66461
 O     5.78339     1.45320    11.92014
 O    -1.53136     6.09111    10.22918
 O     5.08918     2.51040     7.28013
 O     4.00833     6.08226     9.60114
 O    -1.54772     2.99120     6.86583
 O    -1.30321     4.71202    11.89411
 O     7.23712     2.37641     6.96305
 O     1.87083     5.67199     9.60038
 O     4.60829     0.66388    10.27189
 O     2.71527     0.17777     7.44458
 O     0.24578     1.59354     4.43055
 O     8.84370     2.92670     9.86308
 O     6.53333     5.63365     7.32244
 O     1.69402     0.62635     9.31079
 O     7.11689     4.47265    12.24130
 O     8.17176     0.85899     9.81946
 O     1.76861     3.80189    12.62195
 O     1.60079     2.03409     7.65500
 O     4.97974     4.62753    12.59662
 O    -1.68824     1.23718     9.78680
 O     7.35068     5.86858     9.32180
Pb    12.11816     0.09866    -0.03792
Pb     6.11962     0.00279    -0.04222
Pb    15.07574    -1.71073    -4.97907
Pb     9.08667    -1.57935    -4.97048
 N     4.11555     2.32974     1.64656
 N    12.08078    -1.19267    -3.26870
 N     9.07542     1.84465    -0.09937
 N    11.10275    -2.82786     1.59188
 N     7.99894    -2.45391    -1.71456
 N    12.09434     1.27192     3.22519
 N    15.13774    -1.72211     0.11012
 N    13.14322     2.93273    -1.78959
 O     9.42346    -0.27377    -7.53437
 O    12.04996    -1.59654    -4.45777
 O     9.32282     0.61180    -0.09790
 O    11.80178    -1.86411     1.97829
 O     4.58835     2.36044     0.48504
 O    11.00704    -0.94025    -2.66655
 O    10.01801     2.67264    -0.12196
 O     4.58098    -0.47320    -2.87062
 O     4.37707     1.36477     2.40715
 O    13.18029    -1.05375    -2.67873
 O     7.88616     2.24071    -0.09582
 O    10.60561    -2.82554     0.43935
 O     8.68851    -3.44179    -2.05465
 O     6.29943    -1.70889    -5.46243
 O    14.85558    -0.50045     0.08895
 O    12.44744     2.22689    -2.54887
 O     7.50878    -2.39460    -0.56135
 O    13.05366     1.06382     2.43754
 O    14.22817    -2.58368     0.13690
 O     7.66109     0.45448     2.85206
 O     7.78313    -1.51778    -2.52536
 O    10.91402     1.14496     2.82107
 O     4.23130    -2.10486     0.10589
 O    13.38214     2.55637    -0.61079
Pb    12.08058     7.07107     4.91453
Pb     6.13344     6.92342     4.86750
Pb    15.01921     5.27626    -0.06656
Pb     9.10900     5.35492    -0.06022
 N     4.17820     9.28314     6.52882
 N    12.04337     5.76171     1.70949
 N     9.05639     8.83302     4.80732
 N    11.04207     4.13942     6.50248
 N     8.00490     4.54069     3.18322
 N    12.17443     8.28646     8.16657
 N    15.13205     5.26254     4.98271
 N    13.16736     9.88542     3.10356
 O     9.40107     6.88814    -3.00081
 O    11.91716     5.33834     0.53120
 O     9.30578     7.59811     4.83891
 O    11.72996     5.10694     6.90253
 O     4.50702     9.51607     5.34275
 O    11.02213     6.04986     2.38128
 O     9.99922     9.65833     4.76471
 O     4.51655     6.47691     2.04263
 O     4.54881     8.22621     7.09559
 O    13.18444     5.88444     2.21366
 O     7.86654     9.22233     4.80110
 O    10.55038     4.15114     5.34726
 O     8.69262     3.57665     2.77757
 O     6.30155     5.18467    -0.51627
 O    14.85484     6.48299     4.97532
 O    12.48408     9.22130     2.29480
 O     7.53325     4.52876     4.34980
 O    13.12872     8.03445     7.38994
 O    14.21856     4.40442     5.03544
 O     7.71949     7.38723     7.81033
 O     7.77271     5.51984     2.43250
 O    10.99176     8.18640     7.75067
 O     4.22362     4.86402     4.95359
 O    13.34091     9.47302     4.27897
