   64
 
Li     0.00000     0.00000     0.00000
Cl     2.54278    -0.00062    -0.00279
Li     0.00658     3.61028    -0.00765
Cl     2.54951     3.60912    -0.00983
Li     2.54372     1.79464    -1.80251
Cl     0.00119     1.79499    -1.79885
Li     2.54817     1.81486     1.79046
Cl     0.00578     1.81457     1.79298
Li    -5.08372     0.00065     0.00289
Cl    -2.54087     0.00015     0.00057
Li    -5.07714     3.61110    -0.00474
Cl    -2.53626     3.60982    -0.00658
Li    -2.54003     1.79527    -1.79956
Cl    -5.08255     1.79577    -1.79573
Li    -2.53550     1.81544     1.79356
Cl    -5.07800     1.81547     1.79605
Li    -0.00842    -3.62512    -3.58871
Cl     2.53415    -3.62553    -3.59119
Li    -0.00202    -0.01692    -3.59628
Cl     2.54064    -0.01786    -3.59846
Li     2.53544    -1.83071    -5.39099
Cl    -0.00542    -1.82992    -5.38975
Li     2.53967    -1.81254    -1.79787
Cl    -0.00305    -1.81017    -1.79577
Li    -5.09215    -3.62464    -3.58567
Cl    -2.54957    -3.62470    -3.58807
Li    -5.08572    -0.01629    -3.59330
Cl    -2.54309    -0.01705    -3.59521
Li    -2.54826    -1.82999    -5.38808
Cl    -5.09110    -1.82914    -5.38648
Li    -2.54402    -1.80985    -1.79491
Cl    -5.08675    -1.80941    -1.79255
Li    -0.00101    -3.59134     3.59840
Cl     2.54167    -3.59189     3.59575
Li     0.00532     0.01704     3.59086
Cl     2.54815     0.01597     3.58857
Li     2.54258    -1.79881     1.79564
Cl    -0.00000    -1.79809     1.79784
Li     2.54692    -1.77882     5.38853
Cl     0.00442    -1.77841     5.39168
Li    -5.08476    -3.59076     3.60120
Cl    -2.54201    -3.59108     3.59906
Li    -5.07840     0.01772     3.59357
Cl    -2.53755     0.01672     3.59200
Li    -2.54111    -1.79823     1.79878
Cl    -5.08377    -1.79527     1.80090
Li    -2.53675    -1.77816     5.39176
Cl    -5.07926    -1.77757     5.39471
Li    -0.00960    -7.21850     0.00974
Cl     2.53283    -7.21892     0.00705
Li    -0.00311    -3.60811     0.00223
Cl     2.53946    -3.60904     0.00022
Li     2.53408    -5.42427    -1.79267
Cl    -0.00680    -5.42276    -1.79087
Li     2.53869    -5.40418     1.79818
Cl    -0.00413    -5.40330     1.80089
Li    -5.09327    -7.21804     0.01265
Cl    -2.55082    -7.21796     0.01041
Li    -5.08683    -3.60753     0.00506
Cl    -2.54431    -3.60818     0.00346
Li    -2.54961    -5.42346    -1.78970
Cl    -5.09251    -5.42213    -1.78772
Li    -2.54703    -5.40341     1.80324
Cl    -5.08784    -5.40257     1.80399
