  128
 
 O     0.00000     0.00000     0.00000
 O    -1.72352     2.36895     0.60937
 O    -5.02482    -0.81317     1.79952
 O    -3.16880    -2.72976     0.43849
 O    -2.11250    -0.33623     1.70942
 O     1.70067     2.03696    -1.27584
 O    -2.69863     0.27403    -1.16003
 O     1.49484     1.82320     1.70417
Li     0.08215    -1.37667    -1.48165
Li    -3.06824    -1.70205    -1.39899
Li    -0.21844    -1.24531     1.67475
Li    -1.97718     0.75131     3.41025
Al    -3.39694    -1.57408     1.78048
Al     1.94379     3.80386    -1.20120
Al    -1.66738     0.62082     0.25502
Al     1.50122     0.95477     0.14436
 O     2.81810     4.63914     3.28424
 O     1.09349     7.00951     3.89176
 O    -2.20902     3.83089     5.08256
 O    -0.35542     1.91927     3.71822
 O     0.70589     4.30255     4.99450
 O     4.51519     6.68566     2.01027
 O     0.11589     4.91607     2.12551
 O     4.31055     6.46805     4.98424
Li     2.90302     3.26632     1.80120
Li    -0.26289     2.94645     1.88829
Li     2.59957     3.39339     4.95942
Li     0.83945     5.39504     6.69164
Al    -0.58168     3.06747     5.06607
Al     4.75279     8.45447     2.08093
Al     1.15071     5.26013     3.53971
Al     4.31866     5.59687     3.42613
 O     0.75998     2.71513    -4.50357
 O    -0.96377     5.08598    -3.89999
 O    -4.26585     1.90553    -2.71166
 O    -2.41093    -0.01435    -4.07377
 O    -1.35529     2.38065    -2.80388
 O     2.45912     4.74768    -5.79130
 O    -1.93803     2.99395    -5.67367
 O     2.25732     4.54515    -2.80810
Li     0.84470     1.34701    -5.99195
Li    -2.31348     1.01649    -5.90422
Li     0.53475     1.47231    -2.82583
Li    -1.21867     3.46681    -1.10543
Al    -2.63903     1.14289    -2.73276
Al     2.70355     6.51374    -5.71791
Al    -0.90749     3.33862    -4.25730
Al     2.26064     3.67172    -4.36543
 O     3.57755     7.35473    -1.21914
 O     1.85268     9.72705    -0.61737
 O    -1.44973     6.54953     0.57096
 O     0.40299     4.63484    -0.79467
 O     1.46305     7.01964     0.48141
 O     5.27368     9.39638    -2.50536
 O     0.87620     7.63619    -2.38784
 O     5.07222     9.19017     0.47226
Li     3.66500     5.99157    -2.70935
Li     0.49346     5.66541    -2.61830
Li     3.35235     6.11081     0.45931
Li     1.59782     8.11009     2.17611
Al     0.17651     5.78419     0.55242
Al     5.51311    11.16438    -2.43602
Al     1.91015     7.97847    -0.97227
Al     5.07751     8.31432    -1.08355
 O     4.72138    -2.39630    -0.63551
 O     2.99642    -0.02653    -0.02971
 O    -0.30170    -3.20400     1.16491
 O     1.55184    -5.12314    -0.19711
 O     2.60870    -2.72996     1.07453
 O     6.42198    -0.35812    -1.91250
 O     2.02139    -2.12087    -1.79573
 O     6.20969    -0.56884     1.06824
Li     4.79936    -3.77249    -2.11868
Li     1.64168    -4.09645    -2.03222
Li     4.50149    -3.64179     1.04098
Li     2.74347    -1.64136     2.77413
Al     1.32453    -3.96815     1.14536
Al     6.66379     1.40890    -1.83771
Al     3.05409    -1.77554    -0.38145
Al     6.22070    -1.43833    -0.49082
 O     7.53986     2.24310     2.64873
 O     5.81333     4.61417     3.25281
 O     2.51443     1.44021     4.44776
 O     4.36540    -0.47372     3.08203
 O     5.42724     1.90913     4.35964
 O     9.23692     4.29068     1.37381
 O     4.83712     2.52081     1.48937
 O     9.02518     4.07610     4.34865
Li     7.61898     0.87166     1.16373
Li     4.44812     0.55185     1.25389
Li     7.31967     0.99676     4.32583
Li     5.56014     3.00224     6.05578
Al     4.14008     0.67348     4.43056
Al     9.47296     6.05969     1.44475
Al     5.87265     2.86393     2.90328
Al     9.03853     3.20403     2.79124
 O     5.48122     0.31884    -5.13926
 O     3.75613     2.69041    -4.53856
 O     0.45726    -0.48531    -3.34630
 O     2.30981    -2.40772    -4.70951
 O     3.36560    -0.01305    -3.43884
 O     7.18045     2.35287    -6.42797
 O     2.78225     0.59887    -6.30958
 O     6.97196     2.15263    -3.44416
Li     5.56140    -1.04891    -6.62916
Li     2.39671    -1.37815    -6.53789
Li     5.25417    -0.92415    -3.45958
Li     3.50158     1.07437    -1.74207
Al     2.08231    -1.25147    -3.36787
Al     7.42377     4.11912    -6.35435
Al     3.81384     0.94221    -4.89378
Al     6.98005     1.27854    -5.00097
 O     8.29916     4.95852    -1.85457
 O     6.57242     7.33145    -1.25590
 O     3.27340     4.15832    -0.06301
 O     5.12373     2.24172    -1.43084
 O     6.18398     4.62620    -0.15362
 O     9.99524     7.00154    -3.14183
 O     5.59715     5.24105    -3.02413
 O     9.78688     6.79789    -0.16344
Li     8.38111     3.59590    -3.34614
Li     5.20467     3.27069    -3.25274
Li     8.07192     3.71429    -0.17384
Li     6.31817     5.71769     1.53975
Al     4.89808     3.38995    -0.08298
Al    10.23323     8.76975    -3.07219
Al     6.63186     5.58210    -1.60892
Al     9.79720     5.92127    -1.71866
