   96
 
Li     0.00000     0.00000     0.00000
Li    -7.47474     1.69626    -3.90411
Li    -4.80391     0.21145    -0.11224
 P    -5.03605     2.88950    -2.03655
 P    -2.43547    -1.16858    -1.91663
 P     0.22375    -2.66182     1.92804
 F    -4.32545     3.11176    -0.64648
 F    -4.90321     1.33161    -1.84957
 F    -3.63527     2.92258    -2.75792
 F    -5.74244     2.66748    -3.42917
 F    -5.17046     4.44801    -2.22097
 F    -6.43802     2.85720    -1.31876
 F    -1.73016    -0.91243    -0.52997
 F    -2.28516    -2.72254    -1.70134
 F    -1.03489    -1.13698    -2.63823
 F    -3.14067    -1.42308    -3.30302
 F    -2.58562     0.38458    -2.12776
 F    -3.83661    -1.20484    -1.19554
 F     0.92772    -2.41714     3.31712
 F     0.37055    -4.21677     2.12781
 F     1.62408    -2.62364     1.20734
 F    -0.48486    -2.89918     0.53939
 F     0.07472    -1.10529     1.73123
 F    -1.18002    -2.69955     2.64497
Li     0.04686     2.59083     3.68849
Li    -7.41924     4.28610    -0.21869
Li    -4.76308     2.77441     3.60511
 P    -4.98297     5.46067     1.68507
 P    -2.38355     1.39787     1.79367
 P     0.28226    -0.09010     5.62803
 F    -4.26618     5.70517     3.06735
 F    -4.83463     3.90583     1.88468
 F    -3.58705     5.49827     0.95526
 F    -5.69645     5.21888     0.29946
 F    -5.13561     7.01605     1.48287
 F    -6.37848     5.42391     2.41564
 F    -1.68314     1.63936     3.18559
 F    -2.24916    -0.15775     1.99705
 F    -0.97876     1.42618     1.08126
 F    -3.08342     1.16093     0.40106
 F    -2.51978     2.95378     1.59051
 F    -3.78890     1.36923     2.50620
 F     0.99116     0.14725     7.01637
 F     0.42611    -1.64709     5.82505
 F     1.68349    -0.05910     4.90876
 F    -0.42644    -0.32934     4.24012
 F     0.13740     1.46477     5.42795
 F    -1.11884    -0.12708     6.34979
Li     2.15847     1.27964    -3.73658
Li    -5.32466     2.96620    -7.65001
Li    -2.65572     1.50799    -3.85042
 P    -2.88317     4.16983    -5.79201
 P    -0.29331     0.10511    -5.64958
 P     2.36478    -1.39115    -1.80634
 F    -2.17070     4.38470    -4.40236
 F    -2.75734     2.61090    -5.60955
 F    -1.48380     4.19766    -6.51553
 F    -3.59453     3.95510    -7.18311
 F    -3.01098     5.72916    -5.97072
 F    -4.28592     4.14185    -5.07421
 F     0.42237     0.35091    -4.26709
 F    -0.15069    -1.44944    -5.44325
 F     1.10250     0.13283    -6.38135
 F    -1.00853    -0.13981    -7.03361
 F    -0.43363     1.66024    -5.85653
 F    -1.69089     0.07964    -4.92263
 F     3.07697    -1.15762    -0.41949
 F     2.50313    -2.94752    -1.61228
 F     3.76116    -1.35963    -2.53424
 F     1.64882    -1.61881    -3.19302
 F     2.22423     0.16632    -1.99747
 F     0.96535    -1.42257    -1.08248
Li     2.20376     3.87400    -0.04899
Li    -5.27071     5.55605    -3.96431
Li    -2.61534     4.06990    -0.13529
 P    -2.82949     6.74046    -2.07116
 P    -0.24016     2.66711    -1.93923
 P     2.42595     1.18373     1.88972
 F    -2.11870     6.99611    -0.68825
 F    -2.67684     5.18707    -1.86253
 F    -1.43177     6.77619    -2.79681
 F    -3.53947     6.48687    -3.45604
 F    -2.98533     8.29396    -2.28193
 F    -4.22824     6.70426    -1.34606
 F     0.46474     2.89975    -0.54884
 F    -0.11202     1.11030    -1.74459
 F     1.16283     2.69234    -2.65626
 F    -0.94438     2.43873    -3.33191
 F    -0.36896     4.22462    -2.13862
 F    -1.64488     2.64503    -1.22641
 F     3.13782     1.41541     3.27754
 F     2.56407    -0.37311     2.08646
 F     3.82595     1.20912     1.16782
 F     1.71585     0.94957     0.50191
 F     2.28693     2.73962     1.69292
 F     1.02637     1.15066     2.61292
