   96
 
Li     0.00000     0.00000     0.00000
Li    -4.87353     0.21665    -0.01176
Li    -0.90851    -1.93534     2.00398
Li    -3.97983    -0.69879    -2.61946
Li    -0.97566    -5.33919     0.81649
Li    -3.95617    -3.48343    -3.88772
Li     0.00767    -5.63859    -1.87549
Li    -4.95575    -6.03607    -1.79773
Li    -3.93940     2.42762    -1.72410
Li    -0.91541     0.87831     2.93807
Li    -4.91305    -2.90727    -0.90159
Li     0.00271    -2.82254    -0.93315
Li     1.54047    -0.51312     2.41339
Li    -2.44836    -1.42623    -0.41044
Li     2.45618    -4.21596    -1.46223
Li    -1.53175    -5.12448    -4.28555
Ti     1.67285    -6.55632     0.47807
Ti    -2.64823    -4.42277    -1.53104
Ti     2.59050   -10.25711    -3.39238
Ti    -3.56656    -0.72183     2.34489
Ti     1.34695    -3.54124     1.34156
Ti    -2.31584    -7.44025    -2.39065
Ti     2.26626    -7.23964    -2.53660
Ti    -3.22998    -3.73721     1.48573
 O     0.87174    -7.43345    -1.23478
 O     2.08570    -8.31658     1.17868
 O    -1.84172    -3.54395     0.18198
 O    -3.05409    -2.65993    -2.23063
 O    -0.04416    -3.73269     2.64235
 O     3.06113    -2.98212     0.35661
 O    -0.92590    -7.24228    -3.69205
 O    -4.03000    -7.99401    -1.40550
 O     1.73839    -8.43190    -3.95860
 O     3.11941    -9.06353    -1.97227
 O    -2.70664    -2.53857     2.90706
 O    -4.09011    -1.91232     0.92159
 O     0.82047    -4.73323    -0.08565
 O     2.20164    -5.36347     1.90022
 O    -1.79026    -6.24275    -0.96894
 O    -3.17342    -5.61246    -2.95459
 O    -0.10339    -7.11563     1.46142
 O     3.10538    -6.32078    -0.79074
 O    -0.86266    -3.85997    -2.50864
 O    -4.07631    -4.65641    -0.26082
 O     0.87113    -1.78092     0.63752
 O     2.18887    -2.61778     3.08439
 O    -1.83949    -9.19542    -1.68694
 O    -3.15937    -8.35587    -4.13593
Li     1.89372     1.63761    -4.69555
Li    -2.98080     1.85021    -4.70961
Li     0.98481    -0.29853    -2.68956
Li    -2.08624     0.93558    -7.31592
Li     0.91778    -3.69953    -3.87412
Li    -2.06254    -1.84840    -8.58217
Li     1.90181    -4.00017    -6.56584
Li    -3.06304    -4.40203    -6.49216
Li    -2.04414     4.06228    -6.41756
Li     0.97724     2.51616    -1.75795
Li    -3.02097    -1.27390    -5.59576
Li     1.89600    -1.18450    -5.63283
Li     3.43584     1.12521    -2.28249
Li    -0.55334     0.20886    -5.10833
Li     4.35123    -2.58038    -6.15946
Li     0.36160    -3.49375    -8.98281
Ti     3.56730    -4.91666    -4.21530
Ti    -0.75523    -2.78403    -6.22354
Ti     4.48727    -8.61928    -8.09299
Ti    -1.67067     0.91704    -2.35506
Ti     3.24346    -1.90008    -3.35560
Ti    -0.41872    -5.80031    -7.08725
Ti     4.16019    -5.60549    -7.22937
Ti    -1.33523    -2.10137    -3.20909
 O     2.76655    -5.79710    -5.93182
 O     3.97917    -6.68064    -3.51834
 O     0.04979    -1.90712    -4.51370
 O    -1.15992    -1.02471    -6.92788
 O     1.84788    -2.09700    -2.05690
 O     4.95479    -1.34621    -4.34235
 O     0.96697    -5.60657    -8.39099
 O    -2.13745    -6.35804    -6.10567
 O     3.63273    -6.79943    -8.65321
 O     5.01512    -7.42987    -6.66862
 O    -0.81238    -0.90649    -1.78557
 O    -2.19460    -0.27830    -3.77414
 O     2.71563    -3.09668    -4.77977
 O     4.09694    -3.72824    -2.79407
 O     0.10514    -4.60733    -5.66206
 O    -1.27885    -3.97863    -7.64694
 O     1.78909    -5.48008    -3.23749
 O     5.00005    -4.68482    -5.48774
 O     1.03043    -2.22540    -7.20789
 O    -2.18373    -3.02131    -4.95660
 O     2.76462    -0.14435    -4.06086
 O     4.08273    -0.98444    -1.61168
 O     0.05452    -7.55866    -6.38355
 O    -1.26526    -6.72356    -8.83197
