  128
 
Na     0.00000     0.00000     0.00000
Na     5.47946    -0.00286     0.01038
Na    -2.89810    -4.47428    -0.05852
Na     2.67165     4.53567    -0.03382
Li     2.34410     1.42222     1.19860
Li    -3.11913    -1.35604    -1.30073
Li     5.81649     0.06835    -3.35306
Li     0.32601     2.98721    -1.05760
Li     5.81216     3.11885    -1.23175
Li     0.33743    -0.05667    -3.16674
Li     2.36280    -1.61802    -0.91064
Li    -3.12494     1.68163     0.80660
 P    -2.56149    -1.38312     1.97985
 P     3.02934     1.43370    -2.05896
 P    -0.34821     2.99217     2.18367
 P     5.15656    -2.98555    -2.19582
 O    -2.77641    -0.49726     0.70604
 O     2.74573     0.55441    -0.79407
 O    -0.13642     2.10548     3.45767
 O     5.43420    -2.10797    -3.46351
 O    -3.26878    -2.76267     1.76636
 O     2.34525     2.82873    -1.87333
 O     0.36408     2.31148     0.96733
 O     5.83318    -2.31359    -0.95444
 O     0.38531    -1.71418    -1.82234
 O     5.82374     1.71139     1.83933
 O    -3.27470    -0.70616     3.19708
 O     2.35211     0.77063    -3.30425
 O    -1.02970    -1.54237     2.21658
 O     4.57250     1.55806    -2.23774
 O    -1.87816     3.15740     1.94402
 O     3.61589    -3.11973    -2.01102
Na    -0.13293    -3.06306     4.41011
Na     5.34532    -3.06586     4.42235
Na    -3.01868    -7.53907     4.35784
Na     2.54804     1.47450     4.37454
Li     2.20728    -1.64304     5.60886
Li    -3.25489    -4.41765     3.11107
Li     5.69932    -2.99267     1.06669
Li     0.20530    -0.07465     3.36013
Li     5.69111     0.05158     3.17897
Li     0.21522    -3.12450     1.24800
Li     2.22645    -4.68269     3.50144
Li    -3.26133    -1.38383     5.21636
 P    -2.68099    -4.44734     6.39252
 P     2.90132    -1.63030     2.35237
 P    -0.48363    -0.07407     6.59816
 P     5.02261    -6.04610     2.21039
 O    -2.90711    -3.56309     5.11936
 O     2.60984    -2.50874     3.61598
 O    -0.26366    -0.95903     7.87188
 O     5.30557    -5.16765     0.94454
 O    -3.38407    -5.82922     6.18052
 O     2.22069    -0.23351     2.53674
 O     0.22808    -0.75524     5.38162
 O     5.69846    -5.37462     3.45266
 O     0.24809    -4.78017     2.59246
 O     5.68966    -1.34958     6.24662
 O    -3.38997    -3.77125     7.61277
 O     2.22741    -2.29261     1.10516
 O    -1.14797    -4.60373     6.62532
 O     4.44487    -1.50721     2.17601
 O    -2.01401     0.09026     6.35994
 O     3.48160    -6.17974     2.39528
Na    -0.01176     6.08289     4.22629
Na     5.46771     6.07799     4.23882
Na    -2.92033     1.61059     4.16152
Na     2.64795    10.62308     4.18651
Li     2.32295     7.50009     5.42483
Li    -3.13070     4.72775     2.93109
Li     5.81014     6.15537     0.87772
Li     0.31792     9.07576     3.17342
Li     5.80292     9.20152     2.99006
Li     0.32719     6.02594     1.05419
Li     2.34264     4.46515     3.31800
Li    -3.14025     7.76495     5.03614
 P    -2.56599     4.70125     6.21151
 P     3.01919     7.51428     2.17166
 P    -0.37178     9.07888     6.40743
 P     5.13684     3.10475     2.03028
 O    -2.78518     5.58615     4.93757
 O     2.73367     6.63385     3.43532
 O    -0.15934     8.19393     7.68252
 O     5.41578     3.98471     0.76458
 O    -3.27492     3.32243     5.99920
 O     2.33616     8.90974     2.35821
 O     0.34361     8.39421     5.19527
 O     5.82040     3.76960     3.27178
 O     0.36481     4.36866     2.39931
 O     5.80584     7.79590     6.06148
 O    -3.27767     5.38054     7.42833
 O     2.33938     6.85419     0.92604
 O    -1.03373     4.54177     6.44415
 O     4.56244     7.63782     1.99206
 O    -1.90181     9.24387     6.16820
 O     3.59612     2.97290     2.21714
Na    -0.14308     3.01983     8.63631
Na     5.33512     3.01502     8.65078
Na    -3.04031    -1.45426     8.57816
Na     2.52487     7.56195     8.59436
Li     2.18604     4.43532     9.83673
Li    -3.26656     1.66751     7.34107
Li     5.69089     3.09422     5.29587
Li     0.19765     6.01439     7.58900
Li     5.68204     6.13415     7.40081
Li     0.20503     2.95833     5.46869
Li     2.20666     1.40019     7.73151
Li    -3.27484     4.69968     9.44568
 P    -2.68593     1.63689    10.62436
 P     2.89135     4.45027     6.58243
 P    -0.50779     6.01226    10.82176
 P     5.00265     0.04396     6.43627
 O    -2.91424     2.51911     9.34994
 O     2.59925     3.57019     7.84472
 O    -0.28647     5.12900    12.09642
 O     5.28556     0.92363     5.17113
 O    -3.39190     0.25608    10.41513
 O     2.21169     5.84727     6.76871
 O     0.20602     5.32868     9.60807
 O     5.68675     0.70887     7.67756
 O     0.22956     1.30262     6.81285
 O     5.67156     4.73525    10.46714
 O    -3.39326     2.31610    11.84386
 O     2.21444     3.79086     5.33517
 O    -1.15275     1.48030    10.85431
 O     4.43483     4.57371     6.40435
 O    -2.03834     6.17622    10.58414
 O     3.46165    -0.08723     6.62283
