  120
 
 I     0.00000     0.00000     0.00000
Li    -1.90940    -2.95297     0.01952
 O    -3.75474    -1.40781     0.12339
 H    -4.64855    -1.71785    -0.10404
 H    -3.87868    -1.00001     0.99746
 I    -3.82625     2.84132    -0.15213
Li    -2.75062     0.06553    -1.62998
 O    -2.06306     1.47014    -3.50039
 H    -1.95868     1.05296    -4.37312
 H    -1.24165     1.98057    -3.39806
 I     1.97282     2.87685     3.02972
Li     0.26602    -0.04028     2.97601
 O    -1.76204     1.26478     3.31054
 H    -2.60107     0.80882     3.12466
 H    -1.88417     1.59368     4.21700
 I    -1.84697     5.52401     3.02480
Li    -1.07854     2.94823     1.61449
 O    -0.05527     4.20764    -0.32772
 H     0.11722     3.67703    -1.12373
 H     0.80773     4.61239    -0.13612
 I     3.97992     5.51441     6.22115
Li     2.06248     2.65754     6.30176
 O     0.17165     4.11526     6.36531
 H    -0.68798     3.73547     6.11342
 H    -0.01840     4.54788     7.21532
 I     0.12717     8.30667     6.14242
Li     1.16370     5.61937     4.59354
 O     1.83480     7.04087     2.72680
 H     1.96184     6.58724     1.87516
 H     2.65017     7.56135     2.82677
 I     5.52716     0.25001    -3.64322
Li     4.01168    -2.67499    -3.65784
 O     1.84360    -1.35201    -3.34239
 H     1.07103    -1.92471    -3.47826
 H     1.72079    -1.02069    -2.43740
 I     1.69259     3.09235    -3.80327
Li     2.43845     0.24063    -5.04881
 O     3.56300     1.38866    -6.91854
 H     3.79502     0.78301    -7.64540
 H     4.41982     1.79111    -6.69048
 I     7.51560     3.00136    -0.44547
Li     5.81647     0.07857    -0.38272
 O     3.78086     1.48663    -0.24948
 H     2.97304     0.96423    -0.38762
 H     3.65567     1.86357     0.63825
 I     3.64945     5.79804    -0.62098
Li     4.59740     2.96982    -2.00763
 O     5.49669     4.24975    -3.85623
 H     5.69063     3.72331    -4.65298
 H     6.33947     4.70363    -3.68301
 I     9.45158     5.85912     2.59323
Li     7.92683     2.90324     2.54573
 O     5.76822     4.17555     2.89139
 H     4.97659     3.63769     2.72336
 H     5.65886     4.45157     3.81683
 I     5.55666     8.61837     2.40605
Li     6.33180     5.85706     1.26012
 O     7.47222     6.95733    -0.67305
 H     7.66946     6.33318    -1.39390
 H     8.34694     7.32486    -0.45706
 I     2.38856    -5.53979     3.36221
Li     0.49651    -8.33830     3.74305
 O    -1.38928    -6.94341     3.51168
 H    -2.24126    -7.34920     3.26956
 H    -1.62129    -6.39703     4.28410
 I    -1.53821    -2.88643     3.29550
Li    -0.36020    -5.63568     1.69266
 O     0.28578    -4.09351    -0.01103
 H     0.53761    -4.46010    -0.87579
 H     1.02941    -3.50656     0.20888
 I     4.32347    -2.80839     6.52169
Li     2.70393    -5.44251     6.65304
 O     0.59031    -4.27193     6.68503
 H    -0.18308    -4.83602     6.50183
 H     0.34432    -3.82944     7.51648
 I     0.45390    -0.10447     6.46088
Li     1.29410    -2.79432     4.90391
 O     2.26962    -1.38156     3.12406
 H     2.51546    -1.87364     2.32202
 H     3.09258    -0.92632     3.36992
 I     6.36215    -0.08672     9.63909
Li     4.41513    -2.77788     9.97585
 O     2.51313    -1.41477     9.75192
 H     1.68635    -1.86097     9.49395
 H     2.24250    -0.88122    10.52072
 I     2.40463     2.58155     9.60166
Li     3.55191    -0.05279     7.95854
 O     4.18908     1.47679     6.18362
 H     4.38192     1.05734     5.32757
 H     4.97161     2.03318     6.34149
 I     7.94566    -5.38569    -0.21869
Li     6.33976    -8.23698    -0.20859
 O     4.21565    -6.92305     0.06375
 H     3.41571    -7.46115    -0.06187
 H     4.10225    -6.55872     0.95875
 I     4.01414    -2.62875    -0.24240
Li     4.83474    -5.42285    -1.63895
 O     5.89665    -4.21042    -3.45035
 H     6.08768    -4.77135    -4.22335
 H     6.77236    -3.85100    -3.22217
 I     9.89381    -2.61070     2.95393
Li     8.07610    -5.51770     3.13644
 O     6.12774    -4.02673     3.13231
 H     5.29240    -4.50084     2.97455
 H     5.96946    -3.56473     3.97353
 I     5.98101     0.12412     2.88168
Li     7.00639    -2.71491     1.35852
 O     7.81084    -1.34622    -0.44279
 H     7.95247    -1.84340    -1.26865
 H     8.67790    -0.93506    -0.28080
 I    11.83059     0.22976     6.01174
Li    10.24425    -2.67307     6.04706
 O     8.12807    -1.36089     6.30980
 H     7.33040    -1.90741     6.20378
 H     8.02604    -0.98927     7.20308
 I     7.91178     2.99672     5.93072
Li     8.74344     0.13700     4.57665
 O     9.79697     1.35359     2.73814
 H     9.96945     0.78969     1.96274
 H    10.68090     1.69979     2.95508
