   72
 
 C     0.00000     0.00000     0.00000
 C     1.55111     0.00007     0.00005
 C     2.07705     1.45457    -0.00251
 C    -0.52681     1.45456    -0.00307
 C     4.15507    -0.00002     0.00036
 C     5.70609    -0.00002     0.00040
 C     6.23202     1.45456    -0.00222
 C     3.62813     1.45448    -0.00265
 C    -0.00011    -2.17921     1.26396
 C     1.55099    -2.17928     1.26401
 C     2.07695    -0.72477     1.26153
 C    -0.52694    -0.72479     1.26101
 C     4.15487    -2.17930     1.26448
 C     5.70599    -2.17943     1.26453
 C     6.23189    -0.72482     1.26206
 C     3.62810    -0.72490     1.26143
 C    -0.00025    -4.35849     2.52800
 C     1.55073    -4.35856     2.52811
 C     2.07669    -2.90402     2.52555
 C    -0.52712    -2.90401     2.52494
 C     4.15475    -4.35849     2.52847
 C     5.70585    -4.35863     2.52865
 C     6.23172    -2.90407     2.52599
 C     3.62789    -2.90407     2.52540
 C     0.00097    -2.18388    -1.25592
 C     1.55197    -2.18391    -1.25591
 C     2.07824    -0.72935    -1.25850
 C    -0.52567    -0.72947    -1.25892
 C     4.15601    -2.18406    -1.25541
 C     5.70702    -2.18404    -1.25538
 C     6.23321    -0.72952    -1.25804
 C     3.62933    -0.72937    -1.25859
 C     0.00087    -4.36321     0.00808
 C     1.55183    -4.36335     0.00816
 C     2.07811    -2.90870     0.00557
 C    -0.52574    -2.90867     0.00509
 C     4.15591    -4.36336     0.00859
 C     5.70691    -4.36337     0.00865
 C     6.23307    -2.90885     0.00613
 C     3.62922    -2.90874     0.00551
 C     0.00070    -6.54252     1.27223
 C     1.55162    -6.54263     1.27225
 C     2.07794    -5.08799     1.26959
 C    -0.52603    -5.08802     1.26919
 C     4.15572    -6.54269     1.27272
 C     5.70672    -6.54269     1.27268
 C     6.23294    -5.08816     1.27011
 C     3.62898    -5.08803     1.26949
 C     0.00206    -4.36780    -2.51155
 C     1.55303    -4.36788    -2.51149
 C     2.07908    -2.91336    -2.51428
 C    -0.52498    -2.91338    -2.51469
 C     4.15710    -4.36802    -2.51115
 C     5.70797    -4.36807    -2.51117
 C     6.23399    -2.91338    -2.51378
 C     3.63004    -2.91347    -2.51423
 C     0.00188    -6.54716    -1.24753
 C     1.55280    -6.54728    -1.24761
 C     2.07895    -5.09258    -1.25019
 C    -0.52502    -5.09270    -1.25059
 C     4.15687    -6.54720    -1.24695
 C     5.70783    -6.54748    -1.24696
 C     6.23393    -5.09278    -1.24962
 C     3.63005    -5.09292    -1.25015
 C     0.00169    -8.72642     0.01651
 C     1.55256    -8.72665     0.01655
 C     2.07877    -7.27193     0.01395
 C    -0.52529    -7.27200     0.01346
 C     4.15672    -8.72643     0.01692
 C     5.70766    -8.72660     0.01709
 C     6.23365    -7.27205     0.01439
 C     3.62973    -7.27214     0.01385
