  312
 
Lu     0.00000     0.00000     0.00000
 C     2.41315    -0.08783    -0.04234
 C     2.13148     1.29876     0.06989
 C     2.58987     2.33732    -0.87826
 C     1.43999     1.50060     1.27932
 C     1.04887     2.80750     1.84808
 C    -1.75694     0.29076     0.37424
 C    -2.10077     0.92185    -0.89339
 C    -1.35385     0.75724    -1.99654
 C    -0.17263    -0.02051    -2.30915
 C     0.02829    -1.38061    -2.09597
 H    -2.99243     1.54965    -0.90142
 H    -1.69654     1.31279    -2.89273
 H     0.38850     0.40057    -3.17383
 H     2.57413     1.99732    -1.92396
 H     3.63944     2.59981    -0.65235
 H     2.01037     3.26843    -0.80977
 H     0.29920     2.71631     2.65258
 H     0.65380     3.50503     1.09935
 H     1.92205     3.29623     2.31239
 C     2.06868    -0.71110     1.18833
 C     1.41126     0.24415     1.98548
 C    -2.14722    -1.11016     0.46228
 C    -1.42423    -2.08514    -0.11176
 C    -0.25113    -2.12015    -0.96091
 C     2.46341    -2.08438     1.56910
 C     1.01120     0.08308     3.40011
 H    -3.04444    -1.33586     1.03971
 H    -1.79841    -3.11558     0.05444
 H     0.25137    -3.11205    -0.92259
 H     2.43085    -2.78346     0.72001
 H     3.50973    -2.07714     1.92257
 H     1.85575    -2.49974     2.38668
 H     0.21035     0.78119     3.69618
 H     0.68392    -0.93460     3.64884
 H     1.86350     0.32274     4.06113
Lu    -2.28286     6.26316    -2.78495
 C    -4.69803     6.28886    -2.76034
 C    -4.36262     6.90213    -3.99592
 C    -4.79059     8.25551    -4.40604
 C    -3.67128     5.95502    -4.77565
 C    -3.27228     6.11666    -6.19050
 C    -0.53175     5.93489    -3.14215
 C    -0.10185     7.32537    -3.20554
 C    -0.80653     8.31333    -2.63129
 C    -2.00766     8.36794    -1.82233
 C    -2.31135     7.63688    -0.68407
 H     0.81877     7.52949    -3.75389
 H    -0.39034     9.33264    -2.76043
 H    -2.49436     9.36683    -1.87560
 H    -4.87613     8.94417    -3.55196
 H    -5.79838     8.19833    -4.85584
 H    -4.13182     8.71066    -5.16033
 H    -2.49277     5.39968    -6.49876
 H    -2.91638     7.12567    -6.43369
 H    -4.13566     5.91094    -6.84799
 C    -4.37079     4.90798    -2.84890
 C    -3.68116     4.70669    -4.05812
 C    -0.21494     5.28359    -1.87744
 C    -0.96678     5.46608    -0.78030
 C    -2.12346     6.27941    -0.46271
 C    -4.79893     3.87069    -1.88508
 C    -3.25419     3.40460    -4.60861
 H     0.65712     4.62850    -1.86827
 H    -0.64738     4.89371     0.11448
 H    -2.69177     5.86714     0.40016
 H    -4.81718     4.23708    -0.84861
 H    -5.82928     3.55086    -2.12151
 H    -4.17173     2.96882    -1.91992
 H    -2.46612     3.49799    -5.37589
 H    -2.89404     2.70750    -3.84180
 H    -4.10249     2.91566    -5.11725
Lu    -6.64784    -0.87318    -1.27879
 C    -4.51719    -1.53461    -2.20587
 C    -5.16140    -0.82818    -3.25906
 C    -4.63730     0.37310    -3.94215
 C    -6.31103    -1.55183    -3.62460
 C    -7.18428    -1.27922    -4.78824
 C    -6.20908     0.11189     0.19529
 C    -6.86313     1.34349    -0.23015
 C    -7.84087     1.35426    -1.14912
 C    -8.54193     0.33393    -1.90077
 C    -9.15286    -0.81914    -1.43471
 H    -6.51849     2.26856     0.23603
 H    -8.24226     2.35709    -1.40344
 H    -8.99324     0.75020    -2.82859
 H    -3.71643     0.74550    -3.47149
 H    -5.35582     1.20519    -3.98717
 H    -4.38454     0.12532    -4.98881
 H    -8.24592    -1.48429    -4.58386
 H    -6.89784    -1.93987    -5.62644
 H    -7.09957    -0.24588    -5.15008
 C    -5.20457    -2.75837    -2.01062
 C    -6.34950    -2.74710    -2.83462
 C    -6.99840    -0.65750     1.14890
 C    -8.02526    -1.43191     0.76687
 C    -8.66809    -1.72140    -0.49850
 C    -4.72885    -3.89270    -1.18693
 C    -7.26259    -3.88268    -3.09370
 H    -6.71892    -0.57174     2.20047
 H    -8.53981    -1.97378     1.58538
 H    -9.20663    -2.69388    -0.47389
 H    -3.82535    -3.63638    -0.61524
 H    -5.48565    -4.26752    -0.48322
 H    -4.45158    -4.73535    -1.84524
 H    -8.29530    -3.56052    -3.29756
 H    -6.92945    -4.42598    -3.99578
 H    -7.29038    -4.61217    -2.27209
Lu     1.57728     2.78660    -8.25930
 C    -0.54327     3.45974    -7.32819
 C     0.16058     4.68116    -7.49054
 C    -0.30105     5.84042    -8.28649
 C     1.30121     4.63368    -6.66542
 C     2.23466     5.74482    -6.37546
 C     1.17158     1.78366    -9.73264
 C     1.95367     2.56335   -10.68399
 C     2.96157     3.36085   -10.29901
 C     3.58353     3.67241    -9.02915
 C     4.08031     2.78340    -8.08548
 H     1.68660     2.46506   -11.73787
 H     3.47456     3.90599   -11.11648
 H     4.09829     4.65779    -9.05259
 H    -1.16980     5.59534    -8.91358
 H     0.48006     6.26722    -8.93216
 H    -0.62827     6.64438    -7.60302
 H     3.27834     5.40816    -6.28091
 H     1.97389     6.19929    -5.40281
 H     2.19935     6.54518    -7.12584
 C     0.08229     2.72521    -6.28253
 C     1.24308     3.42029    -5.90125
 C     1.84596     0.56764    -9.29368
 C     2.81571     0.58170    -8.36626
 C     3.49437     1.61921    -7.61904
 C    -0.46234     1.51758    -5.62886
 C     2.10453     3.11958    -4.73527
 H     1.52420    -0.36713    -9.75723
 H     3.23510    -0.41098    -8.10152
 H     3.94948     1.21783    -6.68622
 H    -1.32430     1.10291    -6.16908
 H     0.27786     0.71344    -5.49952
 H    -0.81663     1.77753    -4.61458
 H     3.17559     3.24939    -4.95041
 H     1.86735     3.82005    -3.91457
 H     1.95329     2.10362    -4.34644
 H    -5.38923     6.71378    -2.03525
 H     3.08285    -0.52378    -0.78159
 H    -0.31584     5.34465    -4.02979
 H    -2.99061     8.14539     0.03918
 H    -1.55911     3.27995    -7.68108
 H     0.12344     1.67107    -9.97216
 H     4.93825     3.16165    -7.47573
 H    -1.97700     0.88477     1.25776
 H     0.69638    -1.87938    -2.83442
 H    -3.50438    -1.32892    -1.85654
 H    -5.15613     0.20122     0.42437
 H   -10.02833    -1.17339    -2.03590
Lu     2.79178     4.44034     6.74696
 C     5.20682     4.43892     6.73936
 C     4.86892     5.81490     6.85180
 C     5.30205     6.87574     5.91574
 C     4.16454     5.98635     8.05689
 C     3.71597     7.27109     8.63110
 C     1.03447     4.73025     7.09956
 C     0.69518     5.33816     5.81904
 C     1.45055     5.15313     4.72485
 C     2.64224     4.38148     4.43413
 C     2.86029     3.02870     4.67355
 H    -0.20223     5.95736     5.79382
 H     1.10757     5.68342     3.81396
 H     3.20591     4.79663     3.56892
 H     5.32472     6.53725     4.86973
 H     6.33197     7.18736     6.16592
 H     4.67679     7.77791     5.97089
 H     2.95184     7.14331     9.41794
 H     3.31024     7.96317     7.88325
 H     4.56038     7.78323     9.12183
 C     4.86964     3.79889     7.96187
 C     4.16451     4.72546     8.75304
 C     0.64020     3.33040     7.19344
 C     1.37018     2.35062     6.63717
 C     2.56299     2.30645     5.81525
 C     5.30037     2.43592     8.33926
 C     3.74321     4.54678    10.15928
 H    -0.27255     3.11384     7.75026
 H     0.98569     1.32317     6.79584
 H     3.06930     1.31804     5.88194
 H     5.32731     1.75096     7.47743
 H     6.33235     2.47527     8.73074
 H     4.67656     1.98387     9.12414
 H     2.88312     5.18352    10.42830
 H     3.49095     3.50972    10.41196
 H     4.55719     4.85857    10.83768
Lu     0.54894    10.75808     3.91278
 C    -1.86504    10.83312     3.97570
 C    -1.53762    11.41253     2.72026
 C    -1.94951    12.76801     2.29711
 C    -0.88209    10.43280     1.95193
 C    -0.49244    10.54576     0.52953
 C     2.30318    10.44416     3.54116
 C     2.71631    11.83863     3.46185
 C     2.00616    12.82322     4.03470
 C     0.82227    12.87180     4.86713
 C     0.53855    12.14049     6.00956
 H     3.62328    12.05138     2.89461
 H     2.40114    13.84727     3.87972
 H     0.33062    13.86825     4.82230
 H    -1.88693    13.50473     3.11185
 H    -3.00916    12.74490     1.98552
 H    -1.37435    13.14664     1.43790
 H     0.28503     9.81668     0.24312
 H    -0.13574    11.54527     0.25077
 H    -1.35791    10.31697    -0.11670
 C    -1.57340     9.44550     3.91264
 C    -0.89731     9.20227     2.70231
 C     2.63369     9.80033     4.80563
 C     1.88983     9.97799     5.90879
 C     0.72851    10.78262     6.22934
 C    -2.01116     8.44519     4.91054
 C    -0.50461     7.87756     2.17582
 H     3.50847     9.14874     4.80949
 H     2.22019     9.41120     6.80241
 H     0.16607    10.37183     7.09745
 H    -2.00833     8.84194     5.93682
 H    -3.05210     8.14516     4.69570
 H    -1.40636     7.52797     4.89522
 H     0.25726     7.94318     1.37931
 H    -0.12119     7.20067     2.94951
 H    -1.37173     7.37756     1.71353
Lu    -3.85794     3.36812     5.43700
 C    -1.72694     2.72393     4.54079
 C    -2.34502     3.45013     3.47785
 C    -1.79445     4.66161     2.83588
 C    -3.48565     2.73943     3.08005
 C    -4.33873     3.02615     1.90602
 C    -3.36201     4.47576     7.18324
 C    -4.12411     5.55394     6.60404
 C    -5.09050     5.52449     5.67056
 C    -5.79948     4.48961     4.95314
 C    -6.36851     3.32352     5.45747
 H    -3.82018     6.54782     6.97512
 H    -5.48108     6.52030     5.37409
 H    -6.33205     4.89898     4.06242
 H    -0.97016     5.10245     3.41460
 H    -2.54312     5.44707     2.65527
 H    -1.37651     4.39750     1.84710
 H    -5.41321     2.91377     2.11686
 H    -4.10879     2.30317     1.10164
 H    -4.17258     4.03006     1.49268
 C    -2.40289     1.48627     4.67647
 C    -3.54877     1.52962     3.85798
 C    -4.05548     3.45375     7.92068
 C    -4.99162     2.58520     7.49664
 C    -5.79990     2.40120     6.31055
 C    -1.93494     0.33401     5.47697
 C    -4.46985     0.40754     3.56544
 H    -3.70051     3.33900     8.95897
 H    -5.29762     1.83850     8.26137
 H    -6.33052     1.42365     6.33285
 H    -1.08195     0.59035     6.12159
 H    -2.71958    -0.11248     6.10463
 H    -1.57968    -0.46132     4.79562
 H    -5.52319     0.72274     3.51993
 H    -4.23659    -0.01703     2.57308
 H    -4.39194    -0.41351     4.29066
Lu     4.32923     7.25226    -1.53317
 C     2.22334     7.92764    -0.57504
 C     2.93727     9.14665    -0.70962
 C     2.48625    10.33177    -1.47323
 C     4.08488     9.06557     0.10246
 C     5.03220    10.16154     0.40913
 C     3.88053     6.27153    -3.01426
 C     4.59231     7.10156    -3.97773
 C     5.59239     7.91954    -3.61553
 C     6.28621     8.20302    -2.37590
 C     6.83960     7.30894    -1.47321
 H     4.27213     7.03421    -5.01910
 H     6.03063     8.52052    -4.43941
 H     6.77933     9.19902    -2.40115
 H     1.61127    10.11848    -2.10224
 H     3.27032    10.76451    -2.11185
 H     2.17687    11.12360    -0.76692
 H     6.07379     9.81455     0.48304
 H     4.78676    10.59628     1.39442
 H     4.99662    10.97993    -0.32186
 C     2.84495     7.16386     0.45297
 C     4.01716     7.83487     0.84010
 C     4.60718     5.06646    -2.63635
 C     5.61723     5.08381    -1.75287
 C     6.29263     6.12327    -1.00401
 C     2.28225     5.95397     1.08756
 C     4.88346     7.49766     1.99267
 H     4.29031     4.13416    -3.10865
 H     6.07282     4.09677    -1.53373
 H     6.79044     5.71433    -0.09665
 H     1.42032     5.55461     0.53551
 H     3.01320     5.14224     1.21809
 H     1.91931     6.20745     2.10076
 H     5.95511     7.60765     1.77033
 H     4.67038     8.19036     2.82605
 H     4.71492     6.47935     2.36827
 H    -2.53355    11.28852     4.70461
 H     5.90029     4.02984     6.00681
 H     2.52008     9.85134     2.65609
 H    -0.12449    12.65067     6.74567
 H     1.20517     7.76192    -0.92721
 H     2.82502     6.13428    -3.20487
 H     7.71613     7.69165    -0.89110
 H     0.80217     5.33323     7.97343
 H     3.55582     2.52898     3.95992
 H    -0.71522     2.92048     4.90199
 H    -2.41198     4.82183     7.67831
 H    -7.29094     2.98365     4.92350
