  192
 
Lu     0.00000     0.00000     0.00000
Lu    -3.28042    -1.32874     1.02657
Lu    -4.84621     2.22500     0.77884
Lu     1.68148     2.95507     1.91650
 P    -0.29832    -2.02692     3.19625
 P    -2.99200     0.57938    -2.33043
 P    -1.48033    -2.94218    -1.97590
 P    -1.77438    -4.87157     1.28525
 O    -0.85479    -1.52758     1.72731
 O    -2.66317     0.16067    -0.83888
 O    -1.59133     1.05474    -2.96441
 O     2.13882    -0.82068    -1.10494
 O    -5.61650     0.29084    -0.41360
 O     2.68943     0.77873     2.11054
 O     2.54253    -1.69741     1.32948
 O    -5.82275    -2.15007    -1.28436
 O     5.05223     2.97705     2.62443
 O     1.95713     2.45438    -0.47055
 O    -0.26675     2.03501     3.15323
 O     3.04937     2.25944     4.01697
 O    -1.29333    -1.77739    -1.00371
 O    -2.72043    -3.62926     0.76987
 O    -1.86339     0.57405     1.70864
 O    -0.69379     2.26326     0.01632
Lu     6.34325    -1.11940     4.38621
Lu     2.87161    -2.44666     5.48233
Lu     1.25931     1.08662     5.17352
Lu     7.85733     1.72310     6.31055
 P     5.94503    -3.06981     7.77664
 P     3.19606    -0.63414     2.17295
 P     4.78224    -4.10098     2.44936
 P     4.28971    -6.05331     5.80226
 O     4.94184    -2.52887     6.60148
 O     3.76117    -1.25243     3.62396
 O     4.81651    -0.85864     2.44826
 O     8.29686    -2.07064     3.31702
 O     0.50085    -0.97498     3.99879
 O     8.28367    -0.55452     6.28049
 O     8.53625    -2.80495     5.78116
 O     0.54881    -3.32909     2.92351
 O    10.22199     1.26547     7.08248
 O     7.84704     0.97234     3.98836
 O     5.85624     0.55517     6.89997
 O     9.28756     1.04166     8.40610
 O     5.91764    -3.50874     3.48619
 O     3.78589    -4.58572     5.79443
 O     3.45503    -0.45700     6.38787
 O     5.46304     1.13623     4.48268
Lu    -3.64121    -1.22145     4.91521
Lu    -7.19624    -2.50756     5.97465
Lu    -8.68594     0.85194     5.67734
Lu    -2.18136     1.67699     6.85124
 P    -4.08110    -3.16284     8.28761
 P    -6.80057    -0.65616     2.63276
 P    -5.30171    -4.12766     2.92101
 P    -5.69942    -6.05423     6.31632
 O    -3.90487    -2.87286     6.78812
 O    -7.01476    -0.80180     4.20010
 O    -5.29124    -0.55558     2.28268
 O    -1.67881    -2.50478     3.91526
 O    -9.12048    -1.59553     4.67071
 O    -1.68055    -0.63057     6.57992
 O    -1.75138    -2.27069     6.15953
 O    -9.22327    -3.21839     4.23230
 O     1.37775     2.00159     7.68574
 O    -2.21349     0.98301     4.35331
 O    -4.20717     0.40491     7.34094
 O    -0.62207     0.91174     8.71488
 O    -4.10631    -3.61983     3.94000
 O    -6.51149    -4.72189     6.10343
 O    -6.68948    -0.46194     6.92609
 O    -4.54564     1.01615     4.89996
Lu     2.48831    -2.37523     9.35720
Lu    -1.02225    -3.73291    10.41424
Lu    -2.47827    -0.25106    10.17805
Lu     3.97865     0.47608    11.29939
 P     2.04627    -4.38875    12.61853
 P    -0.58124    -1.74609     7.15234
 P     0.82343    -5.21642     7.38406
 P     0.57718    -7.25168    10.68865
 O     2.16555    -3.98384    11.15662
 O    -0.77828    -2.07566     8.63636
 O     0.83801    -1.75944     6.61864
 O     4.30002    -2.91009     8.02088
 O    -3.04305    -2.44264     9.33575
 O     4.58265    -1.74077    11.05678
 O     4.73941    -3.95217    10.64894
 O    -3.00228    -4.30992     8.84328
 O     6.59998     0.15616    11.93767
 O     4.29502     0.12445     8.90433
 O     2.11941    -0.81550    12.34874
 O     5.48805    -0.19824    13.07976
 O     1.84947    -4.28181     8.29370
 O    -0.24398    -5.93849    10.40685
 O    -0.27868    -1.75571    11.35502
 O     1.83886     0.07974     9.45336
Lu     0.18059     6.46146     1.60186
Lu    -3.42025     5.16083     2.64344
Lu    -4.88678     8.53625     2.34613
Lu     1.65639     9.31244     3.51630
 P    -0.30179     4.54038     4.89513
 P    -2.98583     7.02441    -0.64704
 P    -1.41826     3.52931    -0.36398
 P    -1.79827     1.62296     2.95838
 O    -0.17403     4.89982     3.40327
 O    -3.19476     6.91464     0.95433
 O    -1.49573     7.34481    -1.06348
 O     1.96605     6.05334    -0.17973
 O    -5.34351     6.14302     1.41187
 O     2.07678     7.06963     3.19672
 O     2.18369     5.10175     2.69745
 O    -5.35131     4.50449     0.97269
 O     4.98249     9.27622     4.30146
 O     1.75986     8.66128     1.18139
 O    -0.39139     7.92700     3.88871
 O     3.37829     8.56632     6.21025
 O    -0.85974     4.82130     0.19443
 O    -2.82565     2.75944     2.49822
 O    -3.02832     7.71675     3.56171
 O    -0.62574     8.72430     1.62086
Lu     6.30905     5.29660     6.06687
Lu     2.76335     3.96665     7.07321
Lu     1.36043     7.36945     6.86566
Lu     7.82356     8.18147     7.97674
 P     5.85483     3.29153     9.33401
 P     3.17903     5.91213     3.73218
 P     4.67276     2.42227     4.09079
 P     4.42698     0.41918     7.41990
 O     5.96997     3.70818     7.88207
 O     2.98918     5.68067     5.24662
 O     4.60095     6.20920     3.22502
 O     8.13276     4.89152     4.47204
 O     0.77735     5.21958     5.90119
 O     8.37360     5.89618     7.79679
 O     8.71120     3.53514     7.50104
 O     0.75019     3.37558     5.42393
 O    10.44710     7.85030     8.68301
 O     8.59269     7.84203     5.62017
 O     5.84507     6.71844     8.73648
 O     9.30814     7.42596     9.79303
 O     4.90575     3.54878     5.17763
 O     3.22699     1.14267     6.61732
 O     3.30184     6.11101     8.01662
 O     5.91412     7.71276     6.32910
Lu    -3.73961     5.26707     6.55879
Lu    -7.15358     3.92698     7.64850
Lu    -8.69395     7.38138     7.38256
Lu    -2.23425     8.22054     8.42680
 P    -4.06222     3.31038     9.83508
 P    -6.83315     5.79529     4.27386
 P    -5.27704     2.28828     4.58809
 P    -5.67163     0.38237     7.90231
 O    -4.71266     3.94648     8.43094
 O    -6.82351     5.61608     5.84121
 O    -5.37412     6.22266     3.73075
 O    -1.75267     4.52486     5.38796
 O    -9.36255     5.33181     6.27721
 O    -1.84595     5.58825     8.10636
 O    -1.73548     3.96880     7.83342
 O    -9.85310     2.94815     5.48054
 O     0.83236     7.77147     9.16585
 O    -1.93464     7.58422     6.01835
 O    -4.16407     6.93160     9.23835
 O    -0.56284     7.58476    11.29581
 O    -4.88352     3.54738     5.33223
 O    -6.52506     1.70294     7.57811
 O    -6.58778     5.97955     8.55532
 O    -4.22421     7.62849     6.77720
Lu     2.51781     4.08487    11.07184
Lu    -0.92506     2.68600    12.12229
Lu    -2.49813     6.24992    11.82718
Lu     3.97599     6.94904    12.88848
 P     2.10959     2.10407    14.38633
 P    -0.63684     4.69679     8.81639
 P     0.90472     1.26601     9.05225
 P     0.53913    -0.84903    12.41246
 O     1.41886     2.69935    13.01298
 O    -0.85157     4.50720    10.30965
 O     0.73283     5.01631     8.23252
 O     4.46689     3.09515     9.93222
 O    -3.30242     4.29806    10.67582
 O     4.46034     4.63602    12.72396
 O     4.87955     2.28093    12.44040
 O    -3.57928     1.88169     9.76965
 O     7.23096     6.77116    13.67925
 O     4.00955     6.09799    10.51952
 O     1.98507     5.50805    13.14808
 O     5.66075     6.38518    15.73107
 O     0.90793     2.36498    10.22420
 O    -0.21389     0.48147    12.03558
 O    -0.42280     4.63428    13.25877
 O     2.08504     6.98282    11.43115
