   96
 
Lu     0.00000     0.00000     0.00000
Cl    -5.43462     0.65299    -1.95306
Cl     0.99943    -1.45575    -1.95385
Cl     2.46232    -0.06016     1.06921
Cl    -1.15531    -2.41710     0.29117
Cl     1.27517     1.98382    -1.15380
Cl    -3.62136     3.58369    -1.16925
Cl    -4.21790    -1.39996     0.30164
Cl    -1.37627     2.15627     0.69355
Cl    -2.03343     0.15954    -1.66677
Cl     3.25910    -2.88325    -0.12673
Cl     2.56116    -4.87858    -2.49992
Lu    -3.76072     1.23707    -0.00070
Lu     0.87102    -3.80002    -0.78245
Lu     4.61777    -5.02415    -0.86555
Cl    -5.76913     2.63150     1.10788
Lu     1.09649     3.34436    -5.42133
Cl    -4.63074     4.17475    -7.12014
Cl     2.44408     1.91297    -7.16229
Cl     3.04967     3.65333    -3.68992
Cl     0.54263     0.96393    -4.46213
Cl     2.11850     5.55807    -6.38295
Cl    -2.19037     6.95023    -6.37050
Cl    -3.61160     2.32169    -4.40503
Cl    -0.53614     4.73184    -3.91356
Cl    -1.01644     3.25833    -6.97001
Cl     4.07567    -0.30393    -4.67952
Cl     3.58127    -1.77040    -7.73355
Lu    -2.67408     4.55552    -5.41238
Lu     1.93552    -0.45808    -6.17439
Lu     5.69157    -1.70807    -6.18794
Cl    -4.06397     5.95176    -3.66771
Lu     2.17472     6.73518   -10.95644
Cl    -4.03638     8.02531   -12.00184
Cl     4.19748     5.33972   -12.02556
Cl     3.84548     7.32816    -9.01026
Cl     2.04848     4.39963    -9.75599
Cl     2.65355     9.36691   -11.24945
Cl    -0.40573    10.37618   -11.24813
Cl    -2.82842     6.00528    -9.72019
Cl     0.45909     7.81451    -9.27583
Cl    -0.21838     5.80859   -11.61346
Cl     5.09009     2.79094   -10.05182
Cl     4.40915     0.77412   -12.39301
Lu    -1.57550     7.96516   -10.94031
Lu     3.04097     2.92272   -11.69180
Lu     6.79108     1.72258   -11.75486
Cl    -2.55299     9.41879    -8.97236
Lu     2.10484     6.39876     1.54925
Cl    -3.34840     7.02334    -0.39837
Cl     3.08848     4.91827    -0.39364
Cl     4.58653     6.32867     2.56248
Cl     0.93247     3.98092     1.87159
Cl     3.35079     8.35486     0.31370
Cl    -1.49231     9.93051     0.29871
Cl    -2.13444     4.97147     1.86762
Cl     0.72353     8.54666     2.20740
Cl     0.06557     6.49807    -0.10917
Cl     5.33963     3.51138     1.43214
Cl     4.64098     1.51385    -0.91472
Lu    -1.65498     7.60041     1.53511
Lu     2.94511     2.57461     0.79416
Lu     6.70448     1.36092     0.70390
Cl    -3.65741     9.02082     2.60119
Lu     3.20902     9.69577    -3.81442
Cl    -2.49312    10.57285    -5.53002
Cl     4.54756     8.28356    -5.58211
Cl     5.21508    10.05525    -2.15875
Cl     2.66830     7.30457    -2.88373
Cl     4.15687    11.90657    -4.86227
Cl    -0.06449    13.27872    -4.80031
Cl    -1.52313     8.65810    -2.84408
Cl     1.57169    11.03117    -2.26713
Cl     1.07450     9.58469    -5.32452
Cl     6.18032     6.01888    -3.11488
Cl     5.68005     4.57928    -6.18385
Lu    -0.56543    10.91480    -3.77364
Lu     4.03974     5.89359    -4.62531
Lu     7.80657     4.67484    -4.65192
Cl    -1.98992    12.36335    -2.10925
Lu     4.27663    13.11557    -9.37928
Cl    -1.94857    14.39586   -10.43647
Cl     6.28728    11.71533   -10.46129
Cl     5.98423    13.71600    -7.46935
Cl     4.14618    10.77070    -8.21833
Cl     4.75614    15.76189    -9.69808
Cl     1.69438    16.74088    -9.71550
Cl    -0.74791    12.36078    -8.19882
Cl     2.55658    14.19750    -7.71366
Cl     1.89521    12.18579   -10.06770
Cl     7.16665     9.14161    -8.54166
Cl     6.48881     7.15238   -10.90176
Lu     0.51610    14.33512    -9.37692
Lu     5.11244     9.30555   -10.17862
Lu     8.86208     8.09371   -10.24789
Cl    -0.45198    15.82433    -7.44338
