  132
 
 N     0.00000     0.00000     0.00000
 H    -6.45420    -2.74219    -0.46951
 H    -5.74237    -1.26324    -0.77489
 N    -1.70869    -1.95782    -3.50514
 H    -0.78426    -2.34970    -3.58259
 H    -1.69750    -0.96396    -3.32090
 C    -4.77876    -2.84546    -1.65008
 C    -3.77601    -2.07537    -2.25542
 H    -3.84962    -0.99131    -2.26485
 C    -2.67015    -2.71638    -2.83020
 C    -2.56005    -4.11940    -2.78780
 H    -1.70055    -4.61756    -3.22710
 C    -3.57175    -4.86431    -2.19447
 H    -3.48583    -5.95487    -2.17833
 C    -4.68021    -4.25035    -1.62234
 H    -5.46347    -4.84519    -1.16283
 N    -5.91208    -2.19841    -1.12795
 N     6.41236     4.41298    -3.61328
 H     6.94681     3.87282    -4.28057
 H     6.24426     5.34732    -3.96597
 N     2.21226     4.62129    -1.22286
 H     1.28049     4.24117    -1.17928
 H     2.20730     5.61410    -1.40986
 C     5.27550     3.76524    -3.09852
 C     4.27371     4.52673    -2.48300
 H     4.33949     5.61159    -2.46101
 C     3.17269     3.87396    -1.91303
 C     3.06156     2.47339    -1.96907
 H     2.20228     1.97766    -1.52754
 C     4.07199     1.73609    -2.57339
 H     3.98774     0.64682    -2.60345
 C     5.17802     2.36058    -3.13870
 H     5.96313     1.77256    -3.60189
 N     1.17164     3.37006     1.55662
 H     1.69939     3.91003     0.88372
 H     1.00352     2.42992     1.21498
 N    -3.02975     3.11741     3.93705
 H    -3.95885     3.50540     3.98705
 H    -3.03620     2.12537     3.74050
 C     0.04012     4.01566     2.08562
 C    -0.95907     3.24313     2.69291
 H    -0.88491     2.15895     2.70173
 C    -2.06626     3.88098     3.26708
 C    -2.17862     5.28359     3.22793
 H    -3.04000     5.77716     3.66881
 C    -1.16844     6.03234     2.63684
 H    -1.25517     7.12303     2.62519
 C    -0.05970     5.42043     2.06243
 H     0.72351     6.01705     1.60525
 N    -1.28511    -3.24429     4.10143
 H    -1.80460    -2.70351     4.78011
 H    -1.11792    -4.18287     4.44559
 N     2.92211    -3.49130     1.72835
 H     3.85714    -3.11633     1.69664
 H     2.92380    -4.48072     1.93475
 C    -0.14968    -2.60211     3.57515
 C     0.84532    -3.37210     2.96004
 H     0.76850    -4.45596     2.93425
 C     1.95652    -2.73051     2.39754
 C     2.07364    -1.33029     2.44468
 H     2.93573    -0.84169     2.00068
 C     1.06497    -0.58359     3.04084
 H     1.15393     0.50548     3.06289
 C    -0.04506    -1.19818     3.60920
 H    -0.82714    -0.60311     4.06901
 O     4.47078    -6.27684    -4.71687
 O     6.31623    -5.74832    -5.66538
 O     1.32511    -2.73839    -3.47126
 O     1.89234    -0.68993    -3.75960
 N     5.22298    -5.45256    -5.21367
 N     2.10470    -1.88471    -3.87544
 N     6.88026    -0.03215    -6.87514
 C     6.18336    -0.80709    -6.37011
 C     4.82951    -4.05557    -5.20530
 C     3.64029    -3.67596    -4.57551
 H     2.97379    -4.43029    -4.11557
 C     3.32086    -2.31429    -4.53888
 C     4.15220    -1.35011    -5.12253
 H     3.89205    -0.28002    -5.08343
 C     5.32617    -1.76400    -5.76112
 C     5.67548    -3.11764    -5.80481
 H     6.60790    -3.44135    -6.30023
 O    -4.00529     0.33823    -0.08896
 O    -5.81955     0.86893     0.92331
 O    -0.83901     3.87088    -1.28390
 O    -1.39386     5.92169    -0.98740
 N    -4.73981     1.15866     0.43786
 N    -1.61400     4.72749    -0.87814
 N    -6.39790     6.55136     2.13838
 C    -5.69497     5.78755     1.62872
 C    -4.34064     2.55627     0.43606
 C    -3.14827     2.93964    -0.18336
 H    -2.47772     2.18581    -0.63734
 C    -2.83242     4.30223    -0.21802
 C    -3.66404     5.26683     0.36456
 H    -3.40199     6.33698     0.32287
 C    -4.83015     4.84570     1.00995
 C    -5.18393     3.49275     1.03982
 H    -6.11530     3.17395     1.53741
 O     1.27140     7.41362    -5.22311
 O    -0.57980     6.89810    -4.27839
 O     4.40143     3.89544    -6.48030
 O     3.83726     1.84411    -6.20545
 N     0.51179     6.59483    -4.72791
 N     3.62369     3.03738    -6.07992
 N    -1.14653     1.13416    -3.13492
 C    -0.44665     1.92368    -3.61075
 C     0.90036     5.19600    -4.73724
 C     2.08807     4.82376    -5.37393
 H     2.75037     5.57957    -5.83983
 C     2.40945     3.46330    -5.41465
 C     1.57993     2.49634    -4.83584
 H     1.83752     1.42728    -4.89109
 C     0.40691     2.90206    -4.19026
 C     0.05684     4.25535    -4.13646
 H    -0.87403     4.58320    -3.64045
 O    -0.73177     0.81790     0.53542
 O     1.07529     0.29360    -0.49251
 O    -3.89865    -2.70288     1.72552
 O    -3.35555    -4.75632     1.42833
 N    -3.12853    -3.56371     1.31797
 N     1.67989    -5.39135    -1.66768
 C     0.95904    -4.64010    -1.16406
 C    -0.39881    -1.39846     0.00000
 C    -1.58920    -1.78070     0.62434
 H    -2.25674    -1.02664     1.08414
 C    -1.90854    -3.14276     0.65926
 C    -1.07563    -4.10985     0.08408
 H    -1.33298    -5.18067     0.13587
 C     0.09258    -3.69140    -0.55940
 C     0.44158    -2.33741    -0.60523
 H     1.37042    -2.02173    -1.11100
