  316
 
 P     0.00000     0.00000     0.00000
 O    -4.58083    -0.98461     2.39763
 O    -6.06528     1.46278     2.39763
 H    -4.75153    -1.54697     3.03162
 H    -4.30334    -1.37984     1.80738
 H    -6.65077     1.32981     2.99161
 H    -6.30600     2.10760     2.00926
 O    -4.46914     0.88175     4.73761
 H    -4.29989     0.35839     5.21581
 H    -5.00864     1.35426     5.13745
 O    -3.61947     2.97659     2.97390
 O    -2.13503     0.52920     2.97390
 H    -3.44878     3.53895     2.33991
 H    -3.89777     3.37198     3.56357
 H    -1.54954     0.66217     2.37992
 H    -1.89431    -0.11561     3.36227
 O    -3.73197     1.11039     0.63334
 H    -3.90042     1.63360     0.15572
 H    -3.19181     0.63861     0.23451
Mg    -4.10055     0.99607     2.68548
Mg     0.90662     3.21684    -6.84516
 O    -1.02964     3.66366    -6.32674
 O     0.58584     1.20349    -6.79467
 O     0.23284     3.13951    -8.80830
 O     2.85207     3.09366    -7.65731
 O     1.66701     2.90732    -4.91286
 H    -1.40196     4.25246    -6.81786
 H    -1.43352     3.50576    -5.73621
 H     0.83050     0.64662    -7.47643
 H     0.13967     0.80008    -6.32942
 H     0.65065     2.70950    -9.21695
 H    -0.11060     3.83093    -9.33036
 H     3.48807     3.37402    -7.13737
 H     3.05070     2.38534    -8.00495
 H     2.30435     3.50623    -4.55149
 H     2.07622     2.20007    -4.90581
 O     1.23019     5.26370    -6.64932
 H     0.89788     5.82689    -7.26440
 H     1.99813     5.58306    -6.41231
Mg    -2.06043     3.02580    -2.26492
 O    -0.12293     2.58014    -2.78302
 O    -1.73885     5.03899    -2.31484
 O    -1.38585     3.10296    -0.30121
 O    -4.00522     3.14971    -1.45176
 O    -2.82083     3.33531    -4.19723
 H     0.24815     1.99017    -2.29223
 H     0.28037     2.73761    -3.37287
 H    -1.98431     5.59601    -1.63365
 H    -1.29224     5.44371    -2.78034
 H    -1.80446     3.53313     0.10686
 H    -1.04322     2.41170     0.22028
 H    -4.64108     2.86846    -1.97214
 H    -4.20372     3.85713    -1.10456
 H    -3.45816     2.73640    -4.55859
 H    -3.22924     4.04241    -4.20369
 O    -2.38415     0.97983    -2.46033
 H    -2.05170     0.41574    -1.84568
 H    -3.15114     0.65942    -2.69719
 P     4.38876     5.15443    -5.08297
 O     3.55833     4.44646    -3.99393
 O     4.78837     4.10952    -6.14084
 O     3.54610     6.26474    -5.72461
 O     5.65281     5.74978    -4.44302
 O     0.83064     0.70739    -1.08778
 O    -0.40033     1.04538     1.05899
 O     0.84208    -1.11074     0.64233
 O    -1.26464    -0.59578    -0.63927
 O     2.03670     8.45593    -9.45726
 H     2.42966     8.67485    -8.84512
 H     1.45292     7.93302    -9.20870
 O    -3.18972    -2.21346     0.34776
 H    -3.58347    -2.43222    -0.26496
 H    -2.60608    -1.68965     0.09963
 O    -0.26700     6.44134    -4.20210
 H    -0.07136     5.97986    -4.83024
 H     0.39942     6.78491    -4.00144
 O     1.08785     4.62348    -0.25235
 H     0.89359     5.08523     0.37569
 H     0.42223     4.27975    -0.45243
 P    -9.02195    -9.07268     9.82540
 O   -13.60279   -10.05729    12.22303
 O   -15.08724    -7.60990    12.22303
 H   -13.77348   -10.61965    12.85702
 H   -13.32530   -10.45251    11.63278
 H   -15.67272    -7.74286    12.81701
 H   -15.32796    -6.96508    11.83466
 O   -13.49109    -8.19093    14.56301
 H   -13.32184    -8.71429    15.04121
 H   -14.03059    -7.71842    14.96285
 O   -12.64143    -6.09609    12.79930
 O   -11.15698    -8.54348    12.79930
 H   -12.47074    -5.53373    12.16531
 H   -12.91972    -5.70070    13.38897
 H   -10.57150    -8.41051    12.20532
 H   -10.91626    -9.18829    13.18767
 O   -12.75392    -7.96229    10.45874
 H   -12.92237    -7.43908     9.98112
 H   -12.21377    -8.43407    10.05991
Mg   -13.12251    -8.07661    12.51088
Mg    -8.11534    -5.85584     2.98024
 O   -10.05160    -5.40902     3.49866
 O    -8.43612    -7.86919     3.03073
 O    -8.78912    -5.93317     1.01710
 O    -6.16988    -5.97902     2.16809
 O    -7.35494    -6.16536     4.91254
 H   -10.42391    -4.82022     3.00754
 H   -10.45548    -5.56692     4.08919
 H    -8.19145    -8.42606     2.34897
 H    -8.88228    -8.27260     3.49598
 H    -8.37131    -6.36318     0.60845
 H    -9.13255    -5.24175     0.49504
 H    -5.53388    -5.69866     2.68803
 H    -5.97125    -6.68734     1.82045
 H    -6.71761    -5.56645     5.27391
 H    -6.94573    -6.87261     4.91959
 O    -7.79176    -3.80898     3.17608
 H    -8.12407    -3.24579     2.56100
 H    -7.02383    -3.48962     3.41309
Mg   -11.08239    -6.04688     7.56048
 O    -9.14488    -6.49254     7.04238
 O   -10.76081    -4.03369     7.51056
 O   -10.40781    -5.96972     9.52419
 O   -13.02718    -5.92297     8.37364
 O   -11.84278    -5.73737     5.62817
 H    -8.77381    -7.08251     7.53317
 H    -8.74158    -6.33507     6.45253
 H   -11.00627    -3.47667     8.19175
 H   -10.31419    -3.62897     7.04506
 H   -10.82642    -5.53955     9.93226
 H   -10.06517    -6.66098    10.04568
 H   -13.66304    -6.20422     7.85326
 H   -13.22567    -5.21554     8.72084
 H   -12.48012    -6.33627     5.26681
 H   -12.25119    -5.03027     5.62171
 O   -11.40610    -8.09285     7.36507
 H   -11.07365    -8.65694     7.97972
 H   -12.17310    -8.41326     7.12821
 P    -4.63319    -3.91825     4.74243
 O    -5.46362    -4.62622     5.83147
 O    -4.23359    -4.96316     3.68456
 O    -5.47586    -2.80794     4.10079
 O    -3.36914    -3.32290     5.38238
 O    -8.19131    -8.36529     8.73762
 O    -9.42229    -8.02730    10.88439
 O    -8.17988   -10.18342    10.46773
 O   -10.28659    -9.66846     9.18613
 O    -6.98525    -0.61674     0.36814
 H    -6.59230    -0.39783     0.98028
 H    -7.56903    -1.13966     0.61670
 O   -12.21167   -11.28614    10.17316
 H   -12.60542   -11.50490     9.56044
 H   -11.62803   -10.76233     9.92503
 O    -9.28895    -2.63134     5.62330
 H    -9.09332    -3.09282     4.99516
 H    -8.62253    -2.28777     5.82396
 O    -7.93411    -4.44920     9.57305
 H    -8.12836    -3.98745    10.20109
 H    -8.59973    -4.79293     9.37297
 P     3.56733    -5.91082    -0.62783
 O    -1.01351    -6.89542     1.76979
 O    -2.49795    -4.44804     1.76979
 H    -1.18420    -7.45779     2.40379
 H    -0.73601    -7.29065     1.17955
 H    -3.08344    -4.58100     2.36377
 H    -2.73868    -3.80322     1.38143
 O    -0.90181    -5.02906     4.10978
 H    -0.73256    -5.55243     4.58798
 H    -1.44131    -4.55655     4.50962
 O    -0.05215    -2.93422     2.34607
 O     1.43230    -5.38161     2.34607
 H     0.11855    -2.37186     1.71207
 H    -0.33044    -2.53884     2.93574
 H     2.01779    -5.24865     1.75209
 H     1.67302    -6.02643     2.73444
 O    -0.16464    -4.80043     0.00550
 H    -0.33309    -4.27722    -0.47211
 H     0.37552    -5.27220    -0.39332
Mg    -0.53322    -4.91474     2.05764
Mg     4.47395    -2.69398    -7.47299
 O     2.53768    -2.24716    -6.95458
 O     4.15316    -4.70733    -7.42250
 O     3.80016    -2.77130    -9.43613
 O     6.41940    -2.81715    -8.28515
 O     5.23434    -3.00349    -5.54069
 H     2.16537    -1.65835    -7.44569
 H     2.13380    -2.40506    -6.36404
 H     4.39783    -5.26420    -8.10427
 H     3.70700    -5.11074    -6.95725
 H     4.21797    -3.20131    -9.84478
 H     3.45673    -2.07989    -9.95819
 H     7.05540    -2.53680    -7.76520
 H     6.61803    -3.52547    -8.63278
 H     5.87168    -2.40459    -5.17932
 H     5.64355    -3.71075    -5.53364
 O     4.79752    -0.64712    -7.27715
 H     4.46521    -0.08392    -7.89223
 H     5.56546    -0.32776    -7.04014
Mg     1.50689    -2.88502    -2.89276
 O     3.44440    -3.33068    -3.41085
 O     1.82848    -0.87183    -2.94267
 O     2.18148    -2.80785    -0.92904
 O    -0.43790    -2.76111    -2.07959
 O     0.74650    -2.57551    -4.82506
 H     3.81547    -3.92064    -2.92006
 H     3.84770    -3.17321    -4.00070
 H     1.58301    -0.31480    -2.26148
 H     2.27509    -0.46710    -3.40818
 H     1.76287    -2.37769    -0.52097
 H     2.52411    -3.49911    -0.40756
 H    -1.07376    -3.04236    -2.59997
 H    -0.63639    -2.05368    -1.73239
 H     0.10917    -3.17441    -5.18643
 H     0.33809    -1.86841    -4.83153
 O     1.18318    -4.93099    -3.08816
 H     1.51563    -5.49507    -2.47351
 H     0.41618    -5.25140    -3.32502
 P     7.95609    -0.75638    -5.71081
 O     7.12566    -1.46435    -4.62176
 O     8.35570    -1.80130    -6.76867
 O     7.11343     0.35393    -6.35245
 O     9.22014    -0.16103    -5.07085
 O     4.39797    -5.20343    -1.71561
 O     3.16700    -4.86544     0.43116
 O     4.40940    -7.02155     0.01450
 O     2.30269    -6.50659    -1.26710
 O     5.60403     2.54512   -10.08509
 H     5.99698     2.76404    -9.47296
 H     5.02025     2.02220    -9.83653
 O     0.37761    -8.12427    -0.28008
 H    -0.01614    -8.34303    -0.89280
 H     0.96125    -7.60046    -0.52820
 O     3.30033     0.53052    -4.82993
 H     3.49597     0.06905    -5.45808
 H     3.96675     0.87410    -4.62927
 O     4.65518    -1.28733    -0.88018
 H     4.46092    -0.82559    -0.25215
 H     3.98955    -1.63107    -1.08027
 P    -5.45463   -14.98350     9.19757
 O   -10.03546   -15.96810    11.59519
 O   -11.51991   -13.52071    11.59519
 H   -10.20615   -16.53047    12.22919
 H    -9.75797   -16.36333    11.00495
 H   -12.10539   -13.65368    12.18917
 H   -11.76063   -12.87590    11.20683
 O    -9.92377   -14.10174    13.93518
 H    -9.75452   -14.62511    14.41338
 H   -10.46326   -13.62923    14.33502
 O    -9.07410   -12.00690    12.17147
 O    -7.58965   -14.45429    12.17147
 H    -8.90341   -11.44454    11.53747
 H    -9.35239   -11.61152    12.76114
 H    -7.00417   -14.32133    11.57749
 H    -7.34893   -15.09911    12.55984
 O    -9.18659   -13.87311     9.83090
 H    -9.35504   -13.34990     9.35329
 H    -8.64644   -14.34488     9.43208
Mg    -9.55518   -13.98742    11.88304
Mg    -4.54801   -11.76666     2.35241
 O    -6.48427   -11.31984     2.87082
 O    -4.86879   -13.78001     2.40290
 O    -5.22179   -11.84398     0.38927
 O    -2.60256   -11.88983     1.54025
 O    -3.78761   -12.07617     4.28471
 H    -6.85659   -10.73103     2.37971
 H    -6.88815   -11.47774     3.46136
 H    -4.62413   -14.33688     1.72113
 H    -5.31496   -14.18342     2.86815
 H    -4.80398   -12.27399    -0.01938
 H    -5.56522   -11.15257    -0.13279
 H    -1.96656   -11.60948     2.06020
 H    -2.40392   -12.59815     1.19262
 H    -3.15028   -11.47727     4.64608
 H    -3.37840   -12.78343     4.29176
 O    -4.22443    -9.71980     2.54825
 H    -4.55674    -9.15660     1.93316
 H    -3.45650    -9.40044     2.78526
Mg    -7.51506   -11.95770     6.93264
 O    -5.57755   -12.40336     6.41455
 O    -7.19348    -9.94451     6.88273
 O    -6.84048   -11.88053     8.89636
 O    -9.45985   -11.83379     7.74581
 O    -8.27545   -11.64819     5.00034
 H    -5.20648   -12.99332     6.90534
 H    -5.17426   -12.24589     5.82470
 H    -7.43894    -9.38748     7.56392
 H    -6.74687    -9.53978     6.41722
 H    -7.25909   -11.45036     9.30443
 H    -6.49784   -12.57179     9.41784
 H   -10.09571   -12.11504     7.22543
 H    -9.65834   -11.12636     8.09301
 H    -8.91279   -12.24709     4.63897
 H    -8.68386   -10.94109     4.99387
 O    -7.83877   -14.00367     6.73724
 H    -7.50632   -14.56775     7.35188
 H    -8.60577   -14.32408     6.50038
 P    -1.06587    -9.82906     4.11459
 O    -1.89629   -10.53703     5.20364
 O    -0.66626   -10.87398     3.05673
 O    -1.90853    -8.71875     3.47295
 O     0.19819    -9.23371     4.75455
 O    -4.62399   -14.27611     8.10979
 O    -5.85496   -13.93812    10.25656
 O    -4.61255   -16.09423     9.83990
 O    -6.71926   -15.57927     8.55830
 O    -3.41792    -6.52756    -0.25969
 H    -3.02497    -6.30864     0.35244
 H    -4.00170    -7.05048    -0.01113
 O    -8.64435   -17.19695     9.54532
 H    -9.03810   -17.41571     8.93260
 H    -8.06071   -16.67314     9.29720
 O    -5.72163    -8.54216     4.99546
 H    -5.52599    -9.00363     4.36732
 H    -5.05521    -8.19858     5.19613
 O    -4.36678   -10.36001     8.94522
 H    -4.56103    -9.89827     9.57325
 H    -5.03240   -10.70375     8.74513
