   56
 
Mg     0.00000     0.00000     0.00000
Mg     1.25959    -7.10453    -0.38717
Mg     4.92697     3.56696    -0.11878
Mg     6.25897    -3.54624    -0.33536
Mg     4.87556    -1.78656     2.95507
Mg     1.16970    -1.67910     3.12797
Mg     4.72145    -1.78874    -3.11154
Mg     1.23456    -1.73415    -2.95302
Cr     5.70880    -0.09378    -0.05340
Cr    -1.94014    -5.70451     0.07324
Cr    -1.91546     2.71504    -4.95914
Cr    -1.96663     2.39578     4.10006
Cr     0.58487    -3.57308    -0.01770
Cr     3.02701    -2.12909     0.06144
Cr    -2.01725     2.74904     1.19263
Cr    -1.89668     2.35982    -1.69875
Cr     0.70190     1.71008    -3.22741
Cr    -1.90869     0.01659     2.89782
Cr     3.25573     0.74866    -1.33491
Cr    -1.77645    -2.56803     1.41930
Cr     0.71058     1.76451     2.81072
Cr    -1.65004     0.09644    -3.13561
Cr    -1.68257    -2.82958    -1.55961
Cr     3.18638     0.73227     1.37417
 O     2.00127     0.04186     0.35554
 O    -0.56674    -1.92778    -0.07587
 O    -0.54705     0.84876    -1.73092
 O    -0.77819     1.15556     1.51232
 O    -0.77601    -7.25546    -0.63236
 O     6.96324    -1.66111    -0.35147
 O     1.93962    -2.80202     4.59182
 O     1.96038    -2.74112    -4.56549
 O    -2.79100    -3.42175     0.14165
 O     4.48629     1.53836    -0.04055
 O    -0.46147     0.99992     4.14198
 O    -0.76510     1.02458    -4.65955
 O     4.23352    -3.68504    -0.57086
 O     1.91369    -5.15769    -0.34130
 O     1.95196    -2.82540    -1.42357
 O     1.95264    -2.66148     1.52229
 O    -2.89319     1.95962    -3.04105
 O    -0.70554     3.25557     2.81228
 O     4.37751    -0.88431     1.20482
 O    -0.87760    -4.30438    -1.63406
 O     4.15909     1.36449    -3.48303
 O     1.67347     0.25729    -3.13157
 O    -2.99844    -0.90319     1.49843
 O     2.07440     2.42003    -1.81414
 O    -3.17339     1.87031     3.04280
 O    -0.44204     3.06918    -3.25549
 O    -0.72369    -4.46360     1.19577
 O     3.95476    -1.08218    -1.36017
 O     4.02639     1.52958     2.81557
 O     1.89576     0.16218     3.01664
 O     1.71089     2.52758     1.65798
 O    -2.76004    -1.23334    -1.81254
