   81
 
Mn     0.00000     0.00000     0.00000
Mn    -5.91581    -3.95887    -0.08582
Mn   -15.63680    -1.19607    -0.93239
Cl    -3.53987    -5.33950     5.22584
Cl   -16.31938     4.71346     1.06618
Cl    -9.30126    -7.22777     3.03886
Cl    -1.02878     1.66763    -0.34170
Cl     1.02476    -1.68362     0.28695
Cl    -8.24614     2.18194    -0.03900
Mn     4.40463     5.08678     2.01073
Mn    -8.39075     3.97332    -0.64683
Mn   -14.63575     5.03304     1.91246
Cl    -5.54651    -2.25446     0.66526
Cl   -12.12047    10.20341     3.47898
Cl   -14.20205     0.13470    -0.58826
Cl    -1.58480     7.82846     0.12962
Cl     4.65086     3.12147     2.21473
Cl    -8.54479     5.76994    -1.26886
Mn    -1.60314     9.78492     0.48690
Mn    -5.70818     7.18768     3.93366
Mn   -11.14743    11.27570     4.72148
Cl    -4.47393     5.77392     4.23924
Cl   -17.92635    17.02816     1.62961
Cl   -12.97356     5.34995     2.76415
Cl    -1.60935    11.74436     0.84033
Cl     4.16150     7.04957     1.78797
Cl    -7.18132    13.92691     2.07739
Mn     2.38556    -2.14597     5.96948
Mn    -3.21186    -4.68862     6.97579
Mn   -11.16171    -0.30736     8.00490
Cl    -4.45458   -10.61255     6.77033
Cl   -16.97827    -1.92289     6.10917
Cl   -11.57152    -2.15782     7.75643
Cl     0.65863    -1.54597     5.43745
Cl     4.10940    -2.75540     6.51027
Cl    -7.39536     0.02514     4.89030
Mn     1.88204     3.01758     7.95990
Mn    -6.04643     0.63282     6.08920
Mn   -16.61304    -0.15918     6.73465
Cl    -2.87115    -4.02886     8.73550
Cl   -16.25348     1.60129     7.36146
Cl   -10.75171     1.52904     8.25546
Cl     0.21448     3.55328     7.21816
Cl     3.55474     2.52471     8.73084
Cl    -7.63703     5.74445    10.02501
Mn     1.85947     9.01792     7.58637
Mn    -6.47556     7.35249     9.86037
Mn   -13.82962     8.10006     8.62250
Cl    -4.70681     1.23397     7.30427
Cl   -15.60139     8.79287     8.45374
Cl   -12.06914     7.41665     8.79165
Cl     0.12898     9.63122     7.09139
Cl     3.59550     8.40400     8.07701
Cl    -6.93874     8.60583     3.62249
Mn     1.92304    -6.24477    11.95555
Mn    -6.41188    -7.69696    11.56090
Mn   -13.47734    -5.67428    13.07345
Cl    -5.14676    -8.14378    12.91440
Cl   -15.18660    -5.29927    12.19094
Cl   -11.76970    -6.06149    13.97552
Cl     0.32126     0.12312    13.82017
Cl     4.07982   -11.52210    11.79809
Cl    -7.68203    -7.25302    10.21040
Mn     2.15018     0.49119    14.16167
Mn    -5.91423    -1.74397    13.69452
Mn   -13.68732     0.51643    14.39596
Cl    -4.43270    -2.36300    14.71788
Cl   -15.39556     0.76592    13.60137
Cl   -11.98770     0.25653    15.21149
Cl     0.30268     6.18262    13.10287
Cl     2.97335    -5.09972    13.06127
Cl    -7.41033    -1.12581    12.69182
Mn     1.74943     7.10684    13.91650
Mn    -5.07980     4.05782    15.48715
Mn   -13.15279     6.66407    14.67944
Cl    -3.26592     3.51511    15.66512
Cl   -15.02742     6.77760    14.35559
Cl   -11.29104     6.55691    15.02370
Cl    -0.01377    12.16413    13.81373
Cl     3.99245     0.85704    14.50905
Cl    -6.88759     4.61613    15.32702
