  592
 
Al     0.00000     0.00000     0.00000
 O    -6.87009    -7.99434    -3.70237
 O    -6.09286    -5.46482    -3.70237
 O    -8.64440    -6.03902    -4.15966
 O    -7.16214    -5.10518    -6.15803
 H    -6.57049    -7.96451    -2.76441
 H    -6.39615    -5.27553    -2.76838
 H    -5.44892    -4.74395    -3.92352
 H    -8.98234    -5.10148    -4.18877
 H    -9.21593    -6.61751    -3.59841
 H    -7.31080    -5.15322    -7.12298
 H    -7.07777    -8.94553    -3.85829
 H    -7.10646    -4.14913    -5.96594
 O    -7.93444    -7.69532    -6.10760
 O    -5.39135    -7.03755    -5.72133
 H    -7.56419    -8.54707    -6.47852
 H    -8.67683    -7.44225    -6.71426
 H    -5.16968    -6.82490    -6.66985
 H    -4.70341    -7.61077    -5.30368
Al    -7.01842    -6.56735    -4.92513
Al   -17.75701     4.91088    -2.18759
 O   -17.61224     3.47883    -0.97041
 O   -16.83373     6.00891    -0.96991
 O   -19.38526     5.43409    -1.42636
 O   -17.90431     6.36799    -3.42607
 H   -17.31150     3.50785    -0.03200
 H   -17.13709     6.19757    -0.03664
 H   -16.18992     6.72910    -1.19186
 H   -19.72330     6.37100    -1.45619
 H   -19.95701     4.85575    -0.86646
 H   -18.05183     6.31980    -4.38979
 H   -17.81969     2.52765    -1.12480
 H   -17.84849     7.32326    -3.23336
 O   -18.67577     3.77786    -3.37573
 O   -16.13254     4.43472    -2.98901
 H   -18.30544     2.92673    -3.74593
 H   -19.41804     4.03161    -3.98159
 H   -15.91076     4.64800    -3.93680
 H   -15.44451     3.86287    -2.57131
Al    -2.22386    -0.77443   -12.68896
 O    -2.52240    -1.99723   -14.09212
 O    -1.72220     0.52216   -13.95654
 O    -3.99713    -0.18218   -12.78481
 O    -1.92008     0.46978   -11.26124
 H    -2.54440    -1.81591   -15.06090
 H    -2.30903     0.84456   -14.69836
 H    -1.02177     1.21679   -13.84979
 H    -4.28255     0.72985   -12.50327
 H    -4.73662    -0.68181   -13.21035
 H    -1.74557     0.26961   -10.32193
 H    -2.69269    -2.96608   -14.02702
 H    -1.90548     1.44449   -11.31177
 O    -2.73287    -2.10011   -11.45628
 O    -0.44044    -1.32517   -12.54548
 H    -2.28407    -2.98893   -11.36291
 H    -3.23026    -1.96310   -10.60873
 H     0.08437    -1.25560   -11.70216
 H     0.05886    -1.80821   -13.24906
Al   -11.76973    -1.11639     0.08639
 O   -12.06812    -2.33854    -1.31602
 O   -11.26785     0.18009    -1.17979
 O   -13.54301    -0.52414    -0.00945
 O   -11.46580     0.12847     1.51485
 H   -12.09012    -2.15722    -2.28481
 H   -11.85491     0.50260    -1.92301
 H   -10.56757     0.87407    -1.07380
 H   -13.82819     0.38778     0.27347
 H   -14.28226    -1.02388    -0.43361
 H   -11.29129    -0.07170     2.45417
 H   -12.23841    -3.30739    -1.25092
 H   -11.45120     1.10318     1.46433
 O   -12.27852    -2.44218     1.32046
 O    -9.98632    -1.66713     0.22987
 H   -11.82995    -3.33089     1.41244
 H   -12.77606    -2.30582     2.16727
 H    -9.46127    -1.59767     1.07458
 H    -9.48678    -2.15028    -0.47232
Al   -11.96550     6.43784    -3.04514
 O   -11.66694     7.65998    -1.64276
 O   -12.46737     5.14139    -1.77891
 O   -10.19225     5.84549    -2.94943
 O   -12.26961     5.19299    -4.47358
 H   -11.64488     7.47867    -0.67398
 H   -11.88026     4.81885    -1.03574
 H   -13.16769     4.44745    -1.88486
 H    -9.90714     4.93355    -3.23237
 H    -9.45294     6.34519    -2.52533
 H   -12.44418     5.39316    -5.41288
 H   -11.49661     8.62882    -1.70788
 H   -12.28426     4.21828    -4.42304
 O   -11.45674     7.76359    -4.27926
 O   -13.74890     6.98868    -3.18849
 H   -11.90526     8.65233    -4.37121
 H   -10.95927     7.62720    -5.12611
 H   -14.27401     6.91925    -4.03317
 H   -14.24835     7.47186    -2.48627
Al    -1.22458    -5.03484    -5.77788
 O    -0.92603    -3.81204    -4.37473
 O    -1.72624    -6.33144    -4.51031
 O     0.54870    -5.62710    -5.68204
 O    -1.52836    -6.27905    -7.20560
 H    -0.90404    -3.99336    -3.40595
 H    -1.13940    -6.65384    -3.76849
 H    -2.42666    -7.02607    -4.61705
 H     0.83411    -6.53913    -5.96358
 H     1.28818    -5.12747    -5.25649
 H    -1.70287    -6.07889    -8.14492
 H    -0.75575    -2.84319    -4.43983
 H    -1.54295    -7.25377    -7.15508
 O    -0.71557    -3.70917    -7.01057
 O    -3.00800    -4.48411    -5.92136
 H    -1.16437    -2.82034    -7.10394
 H    -0.21818    -3.84617    -7.85812
 H    -3.53281    -4.55367    -6.76469
 H    -3.50730    -4.00106    -5.21779
Al    -7.61207    -0.65407    -9.94129
 O    -7.46731    -2.08611    -8.72412
 O    -7.24901    -1.84586   -11.35103
 O    -9.44665    -0.97162   -10.14474
 O    -7.75935     0.80305   -11.17978
 H    -7.41011    -3.05020    -8.92516
 H    -7.79620    -2.65557   -11.56339
 H    -6.73335    -1.65044   -12.17513
 H    -9.95342    -0.72560   -10.96735
 H   -10.00304    -1.48707    -9.51267
 H    -7.66324     1.75649   -10.99402
 H    -7.43127    -2.04483    -7.73979
 H    -7.94735     0.75603   -12.13729
 O    -7.97274     0.50218    -8.50243
 O    -5.78339    -0.29001    -9.77846
 H    -7.35858     0.64943    -7.72701
 H    -8.58684     1.28070    -8.50614
 H    -5.39288     0.61415    -9.93347
 H    -5.11073    -0.92475    -9.43291
Al     5.58579    -2.04480    -1.10331
 O     5.73055    -3.47685     0.11386
 O     5.95204    -3.23623    -2.51300
 O     3.75255    -2.36305    -1.30927
 O     5.43849    -0.58769    -2.34180
 H     5.78975    -4.43951    -0.08729
 H     5.40583    -4.04569    -2.72519
 H     6.46845    -3.03967    -3.33587
 H     3.24649    -2.11669    -2.13157
 H     3.19621    -2.87911    -0.67636
 H     5.53460     0.36653    -2.15667
 H     5.76443    -3.43506     1.09749
 H     5.25053    -0.63327    -3.29918
 O     5.22405    -0.88837     0.33591
 O     7.41510    -1.67797    -0.93885
 H     5.83724    -0.74136     1.11116
 H     4.60919    -0.11098     0.33097
 H     7.80488    -0.77414    -1.09416
 H     8.08786    -2.31363    -0.59285
Al     4.16021    -5.15961    -8.53039
 O     4.01546    -3.72757    -9.74757
 O     3.79700    -3.96847    -7.12139
 O     5.99464    -4.84271    -8.32769
 O     4.30750    -6.61673    -7.29190
 H     3.95810    -2.76413    -9.54727
 H     4.34419    -3.15876    -6.90904
 H     3.28134    -4.16389    -6.29730
 H     6.50141    -5.08874    -7.50508
 H     6.55103    -4.32726    -8.95976
 H     4.21123    -7.57082    -7.47841
 H     3.97961    -3.76948   -10.73265
 H     4.49529    -6.57036    -6.33513
 O     4.52073    -6.31651    -9.97000
 O     2.33138    -5.52432    -8.69396
 H     3.90657    -6.46376   -10.74542
 H     5.13483    -7.09503    -9.96629
 H     1.94087    -6.42848    -8.53896
 H     1.65872    -4.88958    -9.03952
Al    -6.57659     6.31787    -5.79403
 O    -6.72136     7.74992    -7.01120
 O    -6.94047     7.50974    -4.38410
 O    -4.74289     6.63461    -5.58991
 O    -6.42930     4.86076    -4.55554
 H    -6.77956     8.71265    -6.81009
 H    -6.39337     8.31877    -4.17253
 H    -7.45623     7.31370    -3.56070
 H    -4.23623     6.38791    -4.76808
 H    -4.18675     7.15014    -6.22341
 H    -6.52638     3.90661    -4.74048
 H    -6.75624     7.70806    -7.99479
 H    -6.24036     4.90628    -3.59835
 O    -6.21724     5.16099    -7.23349
 O    -8.40637     5.95256    -5.95665
 H    -6.83131     5.01442    -8.00812
 H    -5.60302     4.38309    -7.22908
 H    -8.79676     5.04906    -5.80087
 H    -9.07894     6.58874    -6.30206
Al   -13.19632     1.39382    -8.83303
 O   -12.89777     2.61663    -7.42988
 O   -12.41638     0.03926    -7.78762
 O   -14.88021     0.95998    -8.13966
 O   -13.50009     0.14961   -10.26075
 H   -12.60999     2.42313    -6.50703
 H   -12.74692    -0.24186    -6.88659
 H   -11.85679    -0.71310    -8.11215
 H   -15.32331     0.08209    -8.29594
 H   -15.38704     1.51748    -7.49936
 H   -13.63326     0.34788   -11.20721
 H   -12.99327     3.59765    -7.44904
 H   -13.55604    -0.82321   -10.20308
 O   -13.96905     2.77899    -9.84484
 O   -11.52256     1.78615    -9.57404
 H   -13.50033     3.62502   -10.09613
 H   -14.73168     2.69972   -10.47462
 H   -11.31901     1.68396   -10.54391
 H   -10.77571     2.21285    -9.08650
 O     0.30554     1.23226     1.41357
 O     0.78701    -1.34586     1.05647
 O    -1.67674    -0.42373     0.70453
 O    -0.29679    -1.23475    -1.41730
 H     0.59331     1.03876     2.33642
 H     0.45655    -1.62557     1.95760
 H     1.34675    -2.09758     0.73269
 H    -2.11993    -1.30303     0.54815
 H    -2.18365     0.13235     1.34473
 H    -0.42995    -1.03648    -2.36377
 H     0.21003     2.21329     1.39441
 H    -0.35273    -2.20757    -1.35963
 O    -0.76567     1.39386    -1.00075
 O     1.68090     0.40243    -0.72985
 H    -0.29686     2.24130    -1.25194
 H    -1.52814     1.31524    -1.62978
 H     1.88437     0.29884    -1.69982
 H     2.42767     0.82772    -0.24241
Al    -0.99217     4.26822    -6.90286
 O    -1.29074     3.04607    -8.30525
 O    -1.77203     5.62423    -7.94812
 O     0.69169     4.70196    -7.59636
 O    -0.68806     5.51307    -5.47443
 H    -1.57857     3.23959    -9.22807
 H    -1.44163     5.90392    -8.84928
 H    -2.33171     6.37598    -7.62431
 H     1.13494     5.58123    -7.44002
 H     1.19852     4.14584    -8.23659
 H    -0.55484     5.31479    -4.52797
 H    -1.19529     2.06504    -8.28608
 H    -0.63207     6.48588    -5.53211
 O    -0.21936     2.88442    -5.89100
 O    -2.66589     3.87599    -6.16173
 H    -0.68820     2.03702    -5.63977
 H     0.54316     2.96301    -5.26203
 H    -2.86929     3.97960    -5.19174
 H    -3.41273     3.45074    -6.64911
Al   -13.00131    -6.16069    -5.70191
 O   -13.29986    -7.38350    -7.10507
 O   -13.78125    -4.80613    -6.74732
 O   -11.31742    -5.72685    -6.39528
 O   -12.69753    -4.91648    -4.27419
 H   -13.58763    -7.19000    -8.02791
 H   -13.45071    -4.52501    -7.64835
 H   -14.34083    -4.05377    -6.42280
 H   -10.87431    -4.84896    -6.23900
 H   -10.81059    -6.28435    -7.03558
 H   -12.56437    -5.11475    -3.32773
 H   -13.20435    -8.36452    -7.08590
 H   -12.64159    -3.94367    -4.33186
 O   -12.22857    -7.54586    -4.69010
 O   -14.67506    -6.55302    -4.96090
 H   -12.69730    -8.39189    -4.43881
 H   -11.46594    -7.46659    -4.06033
 H   -14.87862    -6.45083    -3.99103
 H   -15.42192    -6.97972    -5.44844
Al     3.56276     0.74797   -13.55296
 O     3.41800     2.18001   -14.77014
 O     4.48236     1.88030   -12.36573
 O     1.93920     1.22267   -12.75180
 O     3.71006    -0.70915   -12.31448
 H     3.62558     3.13055   -14.61498
 H     4.11218     2.73207   -11.99479
 H     5.22478     1.62719   -11.75913
 H     1.71758     1.01004   -11.80327
 H     1.25125     1.79593   -13.16941
 H     3.65416    -1.66584   -12.50731
 H     3.11707     2.14973   -15.70847
 H     3.85768    -0.66173   -11.35014
 O     2.64047    -0.35011   -14.77081
 O     5.19207     0.22395   -14.31371
 H     2.94368    -0.53942   -15.70482
 H     1.99650    -1.07094   -14.54961
 H     5.52996    -0.71361   -14.28463
 H     5.76359     0.80240   -14.87501
Al    -5.97825     0.41090    -0.77073
 O    -6.12301     1.84295    -1.98790
 O    -5.05964     1.54397     0.41749
 O    -7.60281     0.88696     0.03058
 O    -5.83096    -1.04621     0.46776
 H    -5.91655     2.79430    -1.83320
 H    -5.43005     2.39507     0.78767
 H    -4.31741     1.29025     1.02341
 H    -7.82464     0.67366     0.97835
 H    -8.29084     1.45878    -0.38717
 H    -5.88770    -2.00145     0.27519
 H    -6.42275     1.81377    -2.92663
 H    -5.68253    -0.99804     1.43134
 O    -6.90138    -0.68717    -1.98848
 O    -4.34992    -0.11221    -1.53183
 H    -6.59793    -0.87581    -2.92172
 H    -7.54517    -1.40740    -1.76658
 H    -4.01182    -1.04911    -1.50198
 H    -3.77816     0.46616    -2.09169
 C   -10.50529   -10.83435    -7.00166
 C   -11.58898   -10.86018    -6.11181
 C   -13.00469   -10.87842    -6.65716
 C   -10.75638   -10.71656    -8.48564
 O   -13.75139   -11.82011    -6.29022
 O   -13.33088    -9.97560    -7.46723
 O   -11.27872   -11.70590    -9.05321
 C    -9.18996   -10.91786    -6.52227
 C    -8.03035   -10.77874    -7.49074
 O    -7.18139    -9.88574    -7.24725
 O    -8.01067   -11.53833    -8.49207
 O   -10.42197    -9.63704    -9.03295
 C   -10.04176   -11.05314    -4.26178
 C   -11.35408   -10.91752    -4.73752
 C   -12.49777   -10.78200    -3.74982
 C    -9.79083   -11.17158    -2.77855
 O   -13.23749    -9.77220    -3.85984
 O   -12.61275   -11.66526    -2.86427
 O   -10.00268   -10.14795    -2.08331
 C    -8.96110   -11.07942    -5.15529
 C    -7.56145   -11.33647    -4.62992
 O    -6.92580   -12.29685    -5.12924
 O    -7.14013   -10.59709    -3.70482
 O    -9.39008   -12.28493    -2.35831
 C     1.50009    -0.40808    -8.20665
 C     0.41640    -0.43391    -7.31679
 C    -0.99923    -0.45291    -7.86149
 C     1.24916    -0.28964    -9.68988
 O    -1.74601    -1.39384    -7.49520
 O    -1.32534     0.45132    -8.67146
 O     0.72673    -1.28038   -10.25755
 C     2.81542    -0.49159    -7.72726
 C     3.97518    -0.35181    -8.69498
 O     4.82399     0.54054    -8.45224
 O     3.99486    -1.11141    -9.69631
 O     1.58297     0.79013   -10.23707
 C     1.96369    -0.62763    -5.46612
 C     0.65138    -0.49201    -5.94186
 C    -0.49239    -0.35573    -4.95480
 C     2.21474    -0.74650    -3.98222
 O    -1.23204     0.65331    -5.06418
 O    -0.60713    -1.23910    -4.06786
 O     2.00145     0.27637    -3.28746
 C     3.04436    -0.65391    -6.35963
 C     4.44416    -0.91031    -5.83352
 O     5.07965    -1.87133    -6.33358
 O     4.86549    -0.17092    -4.90841
 O     2.61684    -1.85975    -3.56299
 C    -2.48880     4.68301     1.31156
 C    -3.80413     4.76651     0.83217
 C    -4.96389     4.62674     1.79990
 C    -2.23787     4.56457     2.79480
 O    -5.81270     3.73439     1.55715
 O    -4.98357     5.38633     2.80123
 O    -2.57168     3.48480     3.34199
 C    -1.40511     4.70884     0.42171
 C     0.01052     4.72784     0.96641
 O     0.75730     5.66876     0.60012
 O     0.33663     3.82361     1.77638
 O    -1.71544     5.55531     3.36247
 C    -2.95240     4.90255    -1.42896
 C    -4.03307     4.92883    -0.53546
 C    -5.43287     5.18523    -1.06157
 C    -3.20345     5.02143    -2.91286
 O    -6.06836     6.14626    -0.56151
 O    -5.85419     4.44585    -1.98667
 O    -3.60516     6.13479    -3.33215
 C    -1.64009     4.76693    -0.95322
 C    -0.49632     4.63066    -1.94029
 O     0.24333     3.62162    -1.83091
 O    -0.38158     5.51403    -2.82722
 O    -2.99055     3.99844    -3.60757
 C   -15.69234     6.06748    -7.53327
 C   -17.00767     6.15098    -8.01266
 C   -18.16728     6.01186    -7.04419
 C   -15.44125     5.94969    -6.04929
 O   -19.01624     5.11886    -7.28768
 O   -18.18696     6.77145    -6.04286
 O   -15.77507     4.86992    -5.50210
 C   -14.60866     6.09331    -8.42313
 C   -13.19295     6.11155    -7.87778
 O   -12.44624     7.05324    -8.24472
 O   -12.86675     5.20873    -7.06772
 O   -14.91949     6.93926    -5.48160
 C   -16.15587     6.28627   -10.27315
 C   -17.23654     6.31254    -9.37964
 C   -18.63618     6.56959    -9.90501
 C   -16.40680     6.40471   -11.75639
 O   -19.27183     7.52997    -9.40569
 O   -19.05751     5.83021   -10.83011
 O   -16.80734     7.51812   -12.17665
 C   -14.84356     6.15065    -9.79741
 C   -13.69986     6.01513   -10.78512
 O   -12.96014     5.00533   -10.67510
 O   -13.58489     6.89839   -11.67067
 O   -16.19518     5.38101   -12.45159
 C     3.63715     0.00977     4.07469
 C     4.78952    -0.73792     3.79202
 C     6.09092    -0.02087     3.48663
 C     3.72587     1.51246     4.17968
 O     6.65495    -0.28910     2.39777
 O     6.50368     0.82151     4.32332
 O     3.94945     2.14297     3.11703
 C     2.40290    -0.62975     4.26044
 C     1.19187     0.18623     4.67225
 O     0.59052    -0.16311     5.71882
 O     0.88754     1.17815     3.96441
 O     3.56912     2.01218     5.32063
 C     3.47328    -2.76606     3.88076
 C     4.71630    -2.13065     3.74643
 C     5.97349    -2.96829     3.60564
 C     3.38454    -4.26945     3.77572
 O     6.89369    -2.76897     4.43689
 O     6.00163    -3.83134     2.69220
 O     3.89599    -4.93392     4.71041
 C     2.31216    -2.01426     4.11200
 C     0.96443    -2.71030     4.14564
 O     0.07974    -2.29130     3.35776
 O     0.82772    -3.68220     4.92949
 O     2.80731    -4.73464     2.76371
 C    -9.55572     1.39423    -4.77130
 C    -8.40137     0.64872    -5.05162
 C    -7.10047     1.36888    -5.35329
 C    -9.46984     2.89771    -4.66505
 O    -6.53374     1.10127    -6.44173
 O    -6.69109     2.21183    -4.51553
 O    -9.24511     3.52886    -5.72707
 C   -10.78920     0.75240    -4.58836
 C   -12.00253     1.56530    -4.17837
 O   -12.60559     1.21539    -3.13382
 O   -12.30708     2.55822    -4.88656
 O    -9.62988     3.39547    -3.52440
 C    -9.71399    -1.38261    -4.96554
 C    -8.47185    -0.74489    -5.09703
 C    -7.21267    -1.57954    -5.23452
 C    -9.79964    -2.88547    -5.07067
 O    -6.29480    -1.37936    -4.40198
 O    -7.18096    -2.44233    -6.14809
 O    -9.28939    -3.54941    -4.13494
 C   -10.87699    -0.63300    -4.73665
 C   -12.22359    -1.33076    -4.70674
 O   -13.10725    -0.91399    -5.49581
 O   -12.35998    -2.30319    -3.92201
 O   -10.37426    -3.35114    -6.08541
 C   -14.17556     3.92562     1.81034
 C   -15.32903     4.67210     2.09171
 C   -16.63023     3.95304     2.39470
 C   -14.26277     2.42220     1.70433
 O   -17.19569     4.22121     3.48366
 O   -17.04111     3.11033     1.55741
 O   -14.48699     1.79133     2.76663
 C   -12.94173     4.56642     1.62616
 C   -11.72946     3.75248     1.21508
 O   -11.12712     4.10180     0.16991
 O   -11.42504     2.75938     1.92306
 O   -14.10424     1.92420     0.56357
 C   -14.01483     6.70235     2.00416
 C   -15.25736     6.06565     2.13691
 C   -16.51573     6.90134     2.27553
 C   -13.92784     8.20515     2.10906
 O   -17.43456     6.70184     1.44390
 O   -16.54585     7.76425     3.18905
 O   -14.43845     8.86941     1.17376
 C   -12.85266     5.95176     1.77423
 C   -11.50553     6.64842     1.74295
 O   -10.62144     6.23099     2.53120
 O   -11.36909     7.62066     0.95800
 O   -13.35186     8.67045     3.12320
 C    -3.43555    -7.54800    -0.92355
 C    -4.58902    -6.80152    -0.64219
 C    -5.89006    -7.51994    -0.33845
 C    -3.52261    -9.05077    -1.02882
 O    -6.45568    -7.25241     0.74976
 O    -6.30094    -8.36264    -1.17574
 O    -3.74682    -9.68164     0.03348
 C    -2.20172    -6.90720    -1.10774
 C    -0.98937    -7.72190    -1.51817
 O    -0.38711    -7.37182    -2.56398
 O    -0.68488    -8.71359    -0.81009
 O    -3.36398    -9.55019    -2.16965
 C    -3.27474    -4.77203    -0.72909
 C    -4.51727    -5.40873    -0.59634
 C    -5.77548    -4.57239    -0.45697
 C    -3.18766    -3.26856    -0.62376
 O    -6.69448    -4.77254    -1.28935
 O    -5.80561    -3.70948     0.45654
 O    -3.69866    -2.60450    -1.55900
 C    -2.11257    -5.52262    -0.95902
 C    -0.76552    -4.82521    -0.99095
 O     0.11865    -5.24339    -0.20205
 O    -0.62885    -3.85307    -1.77451
 O    -2.61213    -2.80291     0.38900
 O    -8.49890    -2.78161    -1.64231
 H    -7.91711    -3.53902    -1.39621
 H    -8.86744    -3.00349    -2.52855
 O     3.50600     7.64416    -2.84792
 H     4.08792     6.88736    -2.60111
 H     3.13761     7.42219    -3.73273
 O    -3.40415    -8.38907    -4.63318
 H    -2.95386    -9.08327    -5.17052
 H    -3.46861    -8.75447    -3.72202
 O   -14.14398     3.08378    -1.90189
 H   -13.69376     2.38954    -2.43926
 H   -14.20816     2.71827    -0.98933
 O    -9.58993     2.23772    -1.05692
 H   -10.04023     2.93193    -0.51958
 H    -9.52570     2.60324    -1.96947
 O     1.14635    -9.24139    -3.79697
 H     0.69614    -8.54716    -3.25960
 H     1.21077    -8.87600    -4.70813
 O     0.42281    -3.85180    -9.41226
 H    -0.27424    -4.16827   -10.03466
 H     0.62373    -2.92646    -9.68241
 O    -9.11918    -4.18983     3.36715
 H    -9.81629    -4.50627     2.74480
 H    -8.91800    -3.26461     3.09837
 O   -13.42123    -2.30237     3.71915
 H   -12.72499    -1.98541     4.34221
 H   -13.62190    -3.22779     3.98764
 O    -3.87482    -1.96253    -9.06017
 H    -3.17777    -1.64606    -8.43777
 H    -4.07574    -2.88788    -8.79002
 O    -8.10893     7.17207    -2.02206
 H    -7.45870     6.69486    -1.45443
 H    -8.20427     8.06780    -1.62434
 O     2.62853    -4.30557    -4.75870
 H     3.27859    -4.78339    -4.19177
 H     2.53288    -3.40973    -4.36237
 O   -15.62619    -1.85083    -0.93698
 H   -16.27640    -1.37366    -1.50466
 H   -15.53077    -2.74656    -1.33470
 O    -3.61724     8.58050    -2.13638
 H    -4.26730     9.05832    -2.70331
 H    -3.52159     7.68466    -2.53271
 O    -4.78746     2.92774    -7.41066
 H    -5.31803     2.22133    -6.97226
 H    -4.75832     2.68688    -8.36499
 O   -14.33326     2.58647     5.36724
 H   -14.86367     1.88067     5.80634
 H   -14.30396     2.34702     4.41301
 O     3.79366     1.34359     0.51166
 H     4.32408     2.05049     0.07385
 H     3.76339     1.58434     1.46599
 O    -9.40107     2.73592    -8.32484
 H    -8.87066     3.44171    -8.76394
 H    -9.43037     2.97537    -7.37061
 O   -15.13131    -2.60975    -6.10110
 H   -14.46728    -1.96661    -5.75636
 H   -15.46461    -2.22537    -6.94417
 O    -1.92899    -3.99493     2.74127
 H    -1.26490    -3.35182     3.08596
 H    -2.26242    -3.61194     1.89813
 O     2.13350    -3.54730     0.40467
 H     1.46947    -4.19044     0.05993
 H     2.46688    -3.93027     1.24784
 O   -11.06632    -2.15712    -8.43384
 H   -11.73035    -2.80026    -8.77859
 H   -10.73301    -2.54150    -7.59077
 O   -10.34255    -7.54703    -2.81734
 H   -10.75982    -7.17950    -2.00233
 H   -10.14585    -8.48984    -2.61657
 O     1.66215     2.87948    -4.02203
 H     1.24496     3.24705    -3.20700
 H     1.85873     1.93526    -3.82137
 O    -2.65169     1.39503    -2.87351
 H    -2.23441     1.02750    -3.68851
 H    -2.84831     2.33925    -3.07418
 O   -14.66105    -9.03637    -1.67584
 H   -14.24385    -9.40393    -2.49087
 H   -14.85771    -8.09356    -1.87660
 O     2.21378     3.20682    -9.15226
 H     2.67590     3.63300    -9.91222
 H     1.91151     2.32857    -9.48057
 O    -7.32869     2.86970     3.63006
 H    -6.86638     3.29656     2.87088
 H    -7.63080     1.99285     3.30182
 O    -3.20226     1.06756     2.25643
 H    -3.66440     0.64136     3.01636
 H    -2.90006     1.94582     2.58477
 O   -16.40564     2.45269    -6.58766
 H   -16.86794     2.02583    -5.82847
 H   -16.10353     3.32954    -6.25942
 O   -15.23612     8.10325    -1.31621
 H   -15.81788     8.86070    -1.56227
 H   -14.86749     8.32511    -0.43000
 O    -4.49518    -3.36974    -4.04779
 H    -5.07713    -2.61297    -4.29464
 H    -4.12687    -3.14775    -3.16295
