  148
 
Os     0.00000     0.00000     0.00000
Br     2.53067    -0.30935     0.05707
Br    -2.52873    -0.16673    -0.01232
Br    -0.07027    -2.71784     0.12445
 N    -0.09505    -0.42264    -1.94194
 N    -0.09794    -0.26436     1.97879
 N    -0.00820     1.81485    -0.06439
 C    -0.95549     0.35255    -2.68602
 H    -1.45888     1.17302    -2.14796
 C    -1.18284     0.11776    -4.04317
 H    -1.90015     0.72881    -4.59326
 C    -0.49862    -0.91474    -4.69091
 H    -0.70334    -1.13797    -5.74108
 C     0.42705    -1.65852    -3.95784
 H     0.98740    -2.46094    -4.43581
 C     0.61725    -1.39115    -2.59591
 H     1.35861    -1.95275    -2.00980
 C    -0.98786    -1.03652     2.67490
 H    -1.64540    -1.70171     2.09669
 C    -1.10706    -0.95057     4.06755
 H    -1.84162    -1.56466     4.58450
 C    -0.31249    -0.05368     4.78437
 H    -0.44056     0.07728     5.86058
 C     0.62469     0.71047     4.08543
 H     1.26738     1.42347     4.61161
 C     0.71188     0.58513     2.69688
 H     1.41906     1.18929     2.10245
 C    -0.77255     2.56826     0.80995
 H    -1.35871     2.00556     1.54675
 C    -0.81209     3.95882     0.75685
 H    -1.40680     4.49790     1.49357
 C    -0.08727     4.64795    -0.21998
 H    -0.11015     5.73250    -0.29152
 C     0.68092     3.89670    -1.11445
 H     1.23596     4.39999    -1.90525
 C     0.72432     2.50793    -1.01017
 H     1.33891     1.88451    -1.66986
Os    -8.42221    -5.11136     0.57778
Br    -9.61601    -2.92517     0.05553
Br    -7.60630    -7.50587     0.71352
Br   -10.89421    -6.20459     0.46562
 N    -8.52077    -5.54343    -1.41631
 N    -8.83057    -5.15120     2.48305
 N    -6.74000    -4.41381     0.65069
 C    -7.36873    -6.05991    -1.96405
 H    -6.49390    -6.12055    -1.29358
 C    -7.29739    -6.47583    -3.29544
 H    -6.38172    -6.92006    -3.68670
 C    -8.41212    -6.32689    -4.12432
 H    -8.38625    -6.68658    -5.15733
 C    -9.55651    -5.72904    -3.59605
 H   -10.43138    -5.58352    -4.22800
 C    -9.58700    -5.34521    -2.24812
 H   -10.47711    -4.85792    -1.82037
 C    -9.23871    -6.22566     3.22878
 H    -9.51059    -7.14220     2.68847
 C    -9.24104    -6.19211     4.62781
 H    -9.52509    -7.08293     5.18608
 C    -8.84021    -5.03806     5.30417
 H    -8.75562    -5.02009     6.39090
 C    -8.49274    -3.91468     4.54889
 H    -8.18500    -2.98885     5.04151
 C    -8.49890    -3.99494     3.15607
 H    -8.20806    -3.14641     2.51513
 C    -5.86240    -4.78110     1.65815
 H    -6.25728    -5.48251     2.40531
 C    -4.55379    -4.31375     1.71171
 H    -3.91397    -4.62300     2.53623
 C    -4.07206    -3.45017     0.72057
 H    -3.05100    -3.07402     0.73931
 C    -4.94655    -3.07605    -0.30226
 H    -4.59942    -2.41993    -1.10063
 C    -6.25797    -3.55248    -0.31530
 H    -6.97411    -3.27413    -1.09638
Os    -2.43116    -6.94724     4.92024
Br    -4.81352    -7.24997     4.92949
Br     0.02797    -7.19328     4.80887
Br    -2.30267    -4.46070     4.94732
 N    -2.37229    -6.61508     6.97787
 N    -2.37336    -6.85253     2.86337
 N    -2.32282    -9.00985     5.07083
 C    -1.44693    -7.26784     7.74630
 H    -0.74648    -7.95523     7.24246
 C    -1.36858    -7.07478     9.12969
 H    -0.60623    -7.61502     9.69871
 C    -2.26261    -6.20247     9.75682
 H    -2.22516    -6.04182    10.83772
 C    -3.22317    -5.55491     8.97709
 H    -3.95689    -4.87455     9.43359
 C    -3.26577    -5.78481     7.59524
 H    -4.03500    -5.29248     6.97137
 C    -1.52294    -6.04522     2.16511
 H    -0.87686    -5.36227     2.73024
 C    -1.46842    -6.06899     0.76465
 H    -0.79699    -5.38414     0.23769
 C    -2.29167    -6.94347     0.05249
 H    -2.25575    -6.98038    -1.04014
 C    -3.16578    -7.76622     0.76538
 H    -3.84811    -8.44796     0.25170
 C    -3.17941    -7.70707     2.16332
 H    -3.85824    -8.35794     2.73383
 C    -1.65778    -9.75458     4.12581
 H    -1.13622    -9.21754     3.30722
 C    -1.62798   -11.14936     4.17946
 H    -1.05030   -11.69654     3.40703
 C    -2.29708   -11.81708     5.20889
 H    -2.28388   -12.91192     5.26667
 C    -2.98141   -11.06175     6.16805
 H    -3.53463   -11.54547     6.98506
 C    -2.97710    -9.66713     6.08555
 H    -3.51439    -9.04750     6.83490
Os    -6.95887     0.41539    -4.03437
Br    -6.25463    -1.83422    -3.63866
Br    -8.04748     2.60841    -4.49880
Br    -4.72830     1.63437    -3.84899
 N    -6.90846     0.85827    -2.01511
 N    -6.60992     0.38249    -6.06154
 N    -8.88097    -0.23062    -4.12907
 C    -7.96621     1.51686    -1.42747
 H    -8.77869     1.86978    -2.09167
 C    -8.03561     1.73260    -0.05173
 H    -8.89040     2.27601     0.36395
 C    -7.01289     1.25464     0.77616
 H    -7.05719     1.40401     1.86161
 C    -5.94245     0.57524     0.19022
 H    -5.13135     0.16671     0.81391
 C    -5.90601     0.38951    -1.19655
 H    -5.05580    -0.14802    -1.67204
 C    -6.13915     1.41806    -6.82558
 H    -5.81391     2.33473    -6.30617
 C    -6.06852     1.32982    -8.22108
 H    -5.68884     2.18235    -8.79758
 C    -6.46302     0.15633    -8.86713
 H    -6.42245     0.07548    -9.95945
 C    -6.90639    -0.91975    -8.09152
 H    -7.18710    -1.87040    -8.55912
 C    -6.97680    -0.77999    -6.70503
 H    -7.35450    -1.60969    -6.08192
 C    -9.67514     0.01758    -5.21068
 H    -9.27272     0.62484    -6.04081
 C   -10.98540    -0.46899    -5.27777
 H   -11.60101    -0.20799    -6.15685
 C   -11.48791    -1.24849    -4.23599
 H   -12.50154    -1.64765    -4.27680
 C   -10.67243    -1.50425    -3.13122
 H   -11.02644    -2.11895    -2.29493
 C    -9.37714    -0.97537    -3.09580
 H    -8.72218    -1.16307    -2.22766
