  296
 
Os     0.00000     0.00000     0.00000
 I     2.69589     0.00000     0.00000
 I    -0.07201     2.69587     0.00000
 I     0.03611    -2.67745     0.00880
 N    -0.02279     0.00056    -2.11503
 N    -0.02641    -0.01974     2.11447
 N    -2.09472    -0.05407    -0.01574
 C    -0.90406     0.79643    -2.77992
 H    -1.53626     1.36426    -2.25372
 C    -0.95035     0.84464    -4.15182
 H    -1.59685     1.45627    -4.60839
 C    -0.11462     0.05423    -4.89719
 H    -0.13332     0.08075    -5.89681
 C     0.75877    -0.78214    -4.22169
 H     1.36963    -1.38689    -4.73322
 C     0.78341    -0.77975    -2.85452
 H     1.42922    -1.38418    -2.38540
 C     0.79040     0.75915     2.83835
 H     1.38476     1.40618     2.35995
 C     0.84345     0.70563     4.22498
 H     1.48198     1.29007     4.72624
 C     0.01597    -0.15208     4.90407
 H     0.04892    -0.21084     5.90106
 C    -0.86264    -0.93772     4.17674
 H    -1.49418    -1.55662     4.64285
 C    -0.85478    -0.85132     2.78887
 H    -1.48487    -1.42671     2.26799
 C    -2.84031     0.71211     0.81310
 H    -2.37011     1.31552     1.45729
 C    -4.22367     0.69755     0.80516
 H    -4.73970     1.27754     1.43339
 C    -4.88105    -0.12931    -0.08247
 H    -5.88037    -0.16069    -0.09984
 C    -4.14005    -0.91597    -0.94719
 H    -4.59318    -1.50436    -1.61499
 C    -2.77328    -0.86809    -0.87001
 H    -2.24514    -1.46410    -1.47467
Os     0.80511    -6.15995    -7.83819
 I     1.70820    -8.69719    -7.71904
 I    -1.75652    -6.98949    -7.67344
 I     3.33660    -5.30385    -7.99452
 N     0.70221    -6.27043    -9.94827
 N     0.90715    -5.99636    -5.73171
 N     0.15195    -4.17126    -7.94881
 C    -0.37112    -5.74748   -10.59959
 H    -1.09439    -5.30862   -10.06736
 C    -0.49177    -5.80457   -11.96657
 H    -1.30428    -5.42801   -12.41215
 C     0.49969    -6.37590   -12.72275
 H     0.42394    -6.42777   -13.71895
 C     1.60875    -6.87710   -12.06234
 H     2.36150    -7.28237   -12.58377
 C     1.67489    -6.81594   -10.69792
 H     2.48095    -7.19346   -10.23940
 C     0.47944    -6.97976    -4.92547
 H     0.04948    -7.78321    -5.33609
 C     0.60924    -6.92603    -3.54443
 H     0.29542    -7.68873    -2.97964
 C     1.16924    -5.81902    -2.95716
 H     1.27829    -5.76761    -1.96556
 C     1.58117    -4.77576    -3.76938
 H     1.97289    -3.94712    -3.37149
 C     1.44147    -4.89832    -5.14749
 H     1.74819    -4.14618    -5.73122
 C    -0.78328    -3.67363    -7.10743
 H    -1.16505    -4.27664    -6.40686
 C    -1.23377    -2.36770    -7.17847
 H    -1.92524    -2.03564    -6.53726
 C    -0.71466    -1.52858    -8.14395
 H    -1.02169    -0.57964    -8.20714
 C     0.23492    -2.01845    -9.02197
 H     0.60896    -1.43794    -9.74414
 C     0.65345    -3.31572    -8.88168
 H     1.36364    -3.65248    -9.49788
Os     7.08806    -2.19536    -4.48726
 I     4.39217    -2.19536    -4.48726
 I     7.16007    -4.89122    -4.48726
 I     7.05194     0.48210    -4.49606
 N     7.11132    -2.19621    -2.37140
 N     7.11447    -2.17561    -6.60174
 N     9.18278    -2.14129    -4.47153
 C     7.99212    -2.99179    -1.70734
 H     8.62432    -3.55961    -2.23354
 C     8.03841    -3.04000    -0.33544
 H     8.68491    -3.65163     0.12113
 C     7.20268    -2.24959     0.40993
 H     7.22138    -2.27611     1.40955
 C     6.32929    -1.41322    -0.26557
 H     5.71776    -0.80797     0.24652
 C     6.30465    -1.41561    -1.63274
 H     5.65884    -0.81118    -2.10186
 C     6.29766    -2.95451    -7.32561
 H     5.70330    -3.60154    -6.84721
 C     6.24394    -2.90049    -8.71169
 H     5.60608    -3.48542    -9.21350
 C     7.07142    -2.04277    -9.39077
 H     7.03914    -1.98451   -10.38832
 C     7.95070    -1.25763    -8.66400
 H     8.58223    -0.63873    -9.13011
 C     7.94284    -1.34403    -7.27613
 H     8.57340    -0.76894    -6.75442
 C     9.92837    -2.90747    -5.30036
 H     9.45817    -3.51088    -5.94455
 C    11.31220    -2.89320    -5.29159
 H    11.82776    -3.47289    -5.92065
 C    11.96911    -2.06605    -4.40480
 H    12.96844    -2.03466    -4.38742
 C    11.22858    -1.27967    -3.53924
 H    11.68124    -0.69099    -2.87228
 C     9.86134    -1.32727    -3.61726
 H     9.33320    -0.73126    -3.01259
Os    -5.76095    -4.35077    -3.70006
 I    -6.66404    -1.81354    -3.81920
 I    -3.19885    -3.52153    -3.86398
 I    -8.29244    -5.20688    -3.54373
 N    -5.65805    -4.24030    -1.58998
 N    -5.86299    -4.51436    -5.80654
 N    -5.10779    -6.33946    -3.58944
 C    -4.58472    -4.76325    -0.93866
 H    -3.86145    -5.20210    -1.47089
 C    -4.46407    -4.70616     0.42832
 H    -3.65155    -5.08272     0.87390
 C    -5.45553    -4.13483     1.18450
 H    -5.37977    -4.08297     2.18070
 C    -6.56459    -3.63363     0.52409
 H    -7.31734    -3.22836     1.04553
 C    -6.63073    -3.69479    -0.84033
 H    -7.43679    -3.31727    -1.29885
 C    -5.43528    -3.53096    -6.61277
 H    -5.00533    -2.72751    -6.20216
 C    -5.56509    -3.58469    -7.99382
 H    -5.25127    -2.82199    -8.55861
 C    -6.12509    -4.69170    -8.58109
 H    -6.23414    -4.74311    -9.57269
 C    -6.53768    -5.73446    -7.76832
 H    -6.92873    -6.56360    -8.16676
 C    -6.39731    -5.61240    -6.39076
 H    -6.70402    -6.36454    -5.80703
 C    -4.17322    -6.83660    -4.43027
 H    -3.79079    -6.23408    -5.13139
 C    -3.72206    -8.14302    -4.35979
 H    -3.03060    -8.47508    -5.00099
 C    -4.24118    -8.98215    -3.39430
 H    -3.93415    -9.93108    -3.33112
 C    -5.19075    -8.49228    -2.51628
 H    -5.56432    -9.07308    -1.79328
 C    -5.60928    -7.19501    -2.65657
 H    -6.31948    -6.85825    -2.04037
Os     4.28454    -2.67221     7.56446
 I     6.98043    -2.67221     7.56446
 I     4.21253     0.02365     7.56446
 I     4.32065    -5.34967     7.57326
 N     4.26175    -2.67166     5.44943
 N     4.25813    -2.69196     9.67893
 N     2.18982    -2.72628     7.54872
 C     3.38048    -1.87578     4.78453
 H     2.74828    -1.30796     5.31074
 C     3.33419    -1.82758     3.41263
 H     2.68769    -1.21594     2.95606
 C     4.16992    -2.61799     2.66727
 H     4.15122    -2.59147     1.66765
 C     5.04331    -3.45435     3.34277
 H     5.65417    -4.05911     2.83123
 C     5.06794    -3.45196     4.70993
 H     5.71375    -4.05639     5.17906
 C     5.07493    -1.91306    10.40281
 H     5.66930    -1.26603     9.92440
 C     5.12798    -1.96658    11.78944
 H     5.76652    -1.38215    12.29070
 C     4.30051    -2.82430    12.46852
 H     4.33346    -2.88305    13.46552
 C     3.42190    -3.60994    11.74120
 H     2.79036    -4.22884    12.20731
 C     3.42976    -3.52354    10.35333
 H     2.79967    -4.09892     9.83245
 C     1.44423    -1.96010     8.37755
 H     1.91443    -1.35669     9.02174
 C     0.06087    -1.97467     8.36962
 H    -0.45516    -1.39468     8.99784
 C    -0.59651    -2.80152     7.48199
 H    -1.59584    -2.83291     7.46461
 C     0.14449    -3.58819     6.61726
 H    -0.30864    -4.17658     5.94947
 C     1.51126    -3.54030     6.69445
 H     2.03940    -4.13631     6.08978
Os     5.08965    -8.83217    -0.27373
 I     5.99274   -11.36940    -0.15459
 I     2.52802    -9.66170    -0.10898
 I     7.62114    -7.97606    -0.43006
 N     4.98675    -8.94264    -2.38381
 N     5.19169    -8.66858     1.83275
 N     4.43649    -6.84347    -0.38435
 C     3.91342    -8.41969    -3.03514
 H     3.19015    -7.98084    -2.50290
 C     3.79277    -8.47678    -4.40212
 H     2.98026    -8.10023    -4.84770
 C     4.78423    -9.04812    -5.15830
 H     4.70847    -9.09998    -6.15449
 C     5.89329    -9.54932    -4.49788
 H     6.64604    -9.95459    -5.01932
 C     5.95943    -9.48816    -3.13346
 H     6.76549    -9.86567    -2.67494
 C     4.76398    -9.65197     2.63898
 H     4.33402   -10.45543     2.22837
 C     4.89378    -9.59824     4.02003
 H     4.57996   -10.36095     4.58482
 C     5.45378    -8.49124     4.60729
 H     5.56283    -8.43983     5.59890
 C     5.86571    -7.44797     3.79508
 H     6.25743    -6.61934     4.19296
 C     5.72601    -7.57053     2.41697
 H     6.03272    -6.81839     1.83324
 C     3.50126    -6.34584     0.45703
 H     3.11949    -6.94885     1.15760
 C     3.05077    -5.03991     0.38599
 H     2.35930    -4.70786     1.02719
 C     3.56988    -4.20079    -0.57949
 H     3.26285    -3.25186    -0.64268
 C     4.51946    -4.69066    -1.45751
 H     4.89350    -4.11015    -2.17969
 C     4.93799    -5.98793    -1.31722
 H     5.64818    -6.32470    -1.93343
Os    11.37260    -4.86757     3.07719
 I     8.67671    -4.86757     3.07719
 I    11.44461    -7.56344     3.07719
 I    11.33648    -2.19012     3.06839
 N    11.39586    -4.86842     5.19305
 N    11.39901    -4.84783     0.96272
 N    13.46732    -4.81350     3.09293
 C    12.27666    -5.66400     5.85712
 H    12.90885    -6.23183     5.33091
 C    12.32295    -5.71221     7.22902
 H    12.96945    -6.32385     7.68559
 C    11.48722    -4.92180     7.97438
 H    11.50592    -4.94832     8.97400
 C    10.61383    -4.08544     7.29888
 H    10.00230    -3.48019     7.81097
 C    10.58919    -4.08783     5.93172
 H     9.94338    -3.48339     5.46259
 C    10.58220    -5.62672     0.23884
 H     9.98784    -6.27375     0.71725
 C    10.52848    -5.57271    -1.14723
 H     9.89061    -6.15764    -1.64905
 C    11.35596    -4.71499    -1.82632
 H    11.32367    -4.65673    -2.82387
 C    12.23523    -3.92984    -1.09955
 H    12.86677    -3.31094    -1.56566
 C    12.22737    -4.01625     0.28833
 H    12.85794    -3.44115     0.81004
 C    14.21291    -5.57968     2.26410
 H    13.74271    -6.18309     1.61991
 C    15.59674    -5.56541     2.27286
 H    16.11229    -6.14511     1.64381
 C    16.25365    -4.73826     3.15966
 H    17.25297    -4.70688     3.17703
 C    15.51312    -3.95189     4.02522
 H    15.96578    -3.36320     4.69218
 C    14.14587    -3.99948     3.94720
 H    13.61774    -3.40347     4.55187
Os    -1.47641    -7.02298     3.86440
 I    -2.37950    -4.48575     3.74525
 I     1.08569    -6.19374     3.70048
 I    -4.00790    -7.87909     4.02073
 N    -1.37351    -6.91251     5.97448
 N    -1.57845    -7.18657     1.75791
 N    -0.82325    -9.01168     3.97502
 C    -0.30018    -7.43546     6.62580
 H     0.42309    -7.87432     6.09357
 C    -0.17953    -7.37837     7.99278
 H     0.63299    -7.75493     8.43836
 C    -1.17099    -6.80704     8.74896
 H    -1.09523    -6.75518     9.74516
 C    -2.28005    -6.30584     8.08855
 H    -3.03280    -5.90058     8.60998
 C    -2.34619    -6.36700     6.72412
 H    -3.15225    -5.98948     6.26561
 C    -1.15074    -6.20318     0.95168
 H    -0.72079    -5.39972     1.36230
 C    -1.28055    -6.25690    -0.42936
 H    -0.96673    -5.49420    -0.99415
 C    -1.84055    -7.36391    -1.01663
 H    -1.94960    -7.41532    -2.00824
 C    -2.25314    -8.40668    -0.20386
 H    -2.64420    -9.23581    -0.60230
 C    -2.11277    -8.28462     1.17369
 H    -2.41948    -9.03676     1.75743
 C     0.11132    -9.50881     3.13419
 H     0.49375    -8.90630     2.43306
 C     0.56247   -10.81524     3.20467
 H     1.25394   -11.14729     2.56346
 C     0.04336   -11.65436     4.17015
 H     0.35039   -12.60330     4.23334
 C    -0.90621   -11.16449     5.04817
 H    -1.27978   -11.74530     5.77118
 C    -1.32475    -9.86722     4.90788
 H    -2.03494    -9.53046     5.52409
