   96
 
Bi     0.00000     0.00000     0.00000
 I    -8.42651    -9.43824    -0.58954
 I    -7.51291    -5.24289    -0.31968
 I    -3.39337    -5.73637    -0.52588
 N    -5.62599    -7.65398     2.05846
 N    -5.41382    -3.69332     5.30280
 N    -7.81600     1.00375    -0.16037
 C    -6.67239    -7.31336     2.84511
 H    -7.61549    -7.04629     2.34864
 C    -6.57848    -7.29607     4.23841
 H    -7.43825    -7.00243     4.84090
 C    -5.37445    -7.65052     4.84362
 H    -5.28134    -7.64035     5.93253
 C    -4.30206    -8.01640     4.03520
 H    -3.35585    -8.33084     4.47319
 C    -4.46039    -8.00907     2.64412
 H    -3.62672    -8.30398     1.98584
 C    -4.23409    -3.87524     4.66421
 H    -3.33609    -4.03594     5.28059
 C    -4.13840    -3.86093     3.27093
 H    -3.17271    -3.99527     2.78297
 C    -5.28671    -3.66167     2.51048
 H    -5.22726    -3.64978     1.42039
 C    -6.49993    -3.48205     3.16636
 H    -7.41877    -3.31779     2.60477
 C    -6.53204    -3.50605     4.56513
 H    -7.48286    -3.36460     5.10306
 C    -8.34881    -0.16758     0.25108
 H    -9.40122    -0.16482     0.56418
 C    -7.60380    -1.35179     0.29803
 H    -8.06492    -2.26591     0.66220
 C    -6.27381    -1.33266    -0.11202
 H    -5.67650    -2.24457    -0.10095
 C    -5.71986    -0.12792    -0.53212
 H    -4.68082    -0.05432    -0.84961
 C    -6.51616     1.02240    -0.52903
 H    -6.08219     1.98424    -0.83658
Bi    -5.79600    -7.61248    -0.39263
 I     2.61889     1.83562     0.17647
 I     1.73565    -2.35550    -0.03073
 I    -2.37740    -1.89515     0.16111
 N    -0.12734     0.01299    -2.45495
 N    -0.38931    -3.90855    -5.69251
 N     2.02690    -8.61250    -0.22705
 C     0.93262    -0.33219    -3.22108
 H     1.86818    -0.59008    -2.70632
 C     0.86170    -0.36324    -4.61562
 H     1.73288    -0.65512    -5.20211
 C    -0.33410    -0.02062    -5.24343
 H    -0.41011    -0.04663    -6.33369
 C    -1.41940     0.35517    -4.45664
 H    -2.35839     0.66655    -4.91262
 C    -1.28303     0.36302    -3.06324
 H    -2.12532     0.66792    -2.42059
 C    -1.57580    -3.76891    -5.05522
 H    -2.47710    -3.62094    -5.67022
 C    -1.67608    -3.80498    -3.66289
 H    -2.64822    -3.70151    -3.17974
 C    -0.52454    -3.98075    -2.90047
 H    -0.58466    -4.01198    -1.81087
 C     0.69594    -4.10944    -3.55431
 H     1.61787    -4.24820    -2.99058
 C     0.73164    -4.06734    -4.95288
 H     1.68904    -4.16824    -5.48804
 C     2.56625    -7.44566    -0.64385
 H     3.60306    -7.46766    -1.00548
 C     1.84689    -6.24503    -0.63697
 H     2.31233    -5.33214    -0.99927
 C     0.53518    -6.24389    -0.17087
 H    -0.04367    -5.31999    -0.14303
 C    -0.02484    -7.44349     0.25593
 H    -1.04952    -7.49978     0.61977
 C     0.74492    -8.61069     0.19987
 H     0.30468    -9.56896     0.51152
 N    -0.98746    -8.70806    -2.81050
 C    -1.57514    -9.57703    -3.65775
 H    -2.09501   -10.41890    -3.18546
 C    -1.54074    -9.42618    -5.04580
 H    -2.03044   -10.14656    -5.69803
 C    -0.88802    -8.31218    -5.57362
 H    -0.85086    -8.15344    -6.65232
 C    -0.29776    -7.39921    -4.70700
 H     0.21096    -6.51738    -5.08963
 C    -0.36073    -7.63591    -3.32821
 H     0.10294    -6.95031    -2.60661
 N    -5.06455    -2.80629    -5.62452
 C    -4.48977    -1.95155    -4.75392
 H    -3.95572    -1.10666    -5.20445
 C    -4.55359    -2.12137    -3.36927
 H    -4.07492    -1.41241    -2.69718
 C    -5.22318    -3.23873    -2.87000
 H    -5.27894    -3.41150    -1.79425
 C    -5.80386    -4.13432    -3.76047
 H    -6.33002    -5.01645    -3.40220
 C    -5.70977    -3.88013    -5.13439
 H    -6.16221    -4.55259    -5.87559
