  120
 
Co     0.00000     0.00000     0.00000
Cl     2.28200    -0.46388    -0.21445
Cl    -5.76275    11.30660    -0.74402
Cl    -2.26407     0.77814     0.47241
 N    -0.70250    -0.20164    -1.83922
 N     0.41166     1.94293    -0.29815
 N     0.35344    -0.23436     1.93817
 C     0.27801     0.25150    -2.88678
 C     0.42689     1.77738    -2.82380
 C     1.18021     2.24079    -1.57139
 C     1.16812     2.55189     0.86165
 C     0.48841     2.22266     2.19860
 C     0.96484     0.87008     2.75058
Co    -6.78815     4.04462     8.08058
Cl    -4.53552     4.57478     7.67989
Cl    -2.23455    -7.27656     9.40597
Cl    -9.02116     3.25189     8.24600
 N    -6.74813     4.01884    10.05301
 N    -6.33425     2.09874     7.88215
 N    -7.12050     4.58280     6.20587
 C    -5.61157     3.27941    10.69521
 C    -5.65112     1.79979    10.29097
 C    -5.25501     1.60416     8.82172
 C    -5.92947     1.75166     6.46745
 C    -6.99099     2.22587     5.46452
 C    -6.75591     3.68790     5.05771
Co    -4.68338     1.44813    -3.82121
Cl    -6.44399    -0.04924    -4.21477
Cl    -2.89744    -0.15408    -4.15462
Cl    -3.04020     3.17570    -3.61937
 N    -4.30477     1.14861    -1.89486
 N    -6.03002     2.86678    -3.45283
 N    -4.52527     1.48893    -5.79437
 C    -5.54333     0.91882    -1.07423
 C    -6.38314     2.20498    -1.03455
 C    -7.04490     2.51697    -2.38344
 C    -6.77887     3.28466    -4.69973
 C    -5.80623     3.59698    -5.84531
 C    -5.44675     2.32752    -6.63083
Co     1.72446     3.37392    12.39914
Cl    -0.31663     2.32232    11.93748
Cl     0.71792     5.47826    12.96689
Cl     3.89457     4.20594    12.85104
 N     1.80134     4.21262    10.61573
 N     2.70236     1.69431    11.92771
 N     1.41959     3.10419    14.33773
 C     1.75167     3.34599     9.39155
 C     2.81757     2.24546     9.48372
 C     2.43920     1.18582    10.52858
 C     2.41428     0.58923    12.91742
 C     2.77988     1.03880    14.33998
 C     1.60904     1.77361    15.00656
 H    -0.88275    -1.23031    -1.96127
 H    -1.59663     0.31831    -1.96110
 H    -0.52645     2.40273    -0.36500
 H     0.95335    -1.09457     2.00233
 H    -0.61382    -0.44419     2.28562
 H     1.26107    -0.25938    -2.65793
 H    -0.07754    -0.04369    -3.91454
 H     1.00567     2.11568    -3.72348
 H    -0.58673     2.26302    -2.88264
 H     2.16812     1.69593    -1.50870
 H     1.37119     3.34525    -1.65933
 H     2.20786     2.11046     0.84324
 H     1.23467     3.66701     0.74525
 H     0.73196     3.02501     2.93813
 H    -0.63195     2.19384     2.06509
 H     2.08466     0.79062     2.66256
 H     0.67278     0.78077     3.83074
 H    -6.67282     5.03903    10.30207
 H    -7.66557     3.64390    10.38620
 H    -7.22492     1.59223     8.10769
 H    -6.59801     5.49083     6.12002
 H    -8.15469     4.76105     6.21223
 H    -4.65720     3.75994    10.31693
 H    -5.65204     3.36635    11.81402
 H    -4.91505     1.24021    10.92807
 H    -6.66886     1.37319    10.48240
 H    -5.04981     0.51346     8.64498
 H    -4.31747     2.19745     8.60338
 H    -5.78594     0.64320     6.35764
 H    -4.94928     2.27768     6.26858
 H    -6.94365     1.58095     4.55220
 H    -8.02148     2.12832     5.91468
 H    -5.66683     3.85182     4.82181
 H    -7.37052     3.93090     4.15016
 H    -3.77865     1.96567    -1.50065
 H    -3.68269     0.31088    -1.83671
 H    -5.46016     3.68080    -3.11730
 H    -3.53632     1.81822    -5.91447
 H    -4.60606     0.48052    -6.07820
 H    -5.27420     0.60996    -0.02586
 H    -6.11916     0.08435    -1.57925
 H    -5.74962     3.06725    -0.70404
 H    -7.19968     2.06800    -0.27697
 H    -7.61551     1.60711    -2.73803
 H    -7.76557     3.36867    -2.24111
 H    -7.44687     2.41998    -4.98877
 H    -7.40990     4.19119    -4.49335
 H    -4.86070     4.06164    -5.43699
 H    -6.28302     4.33301    -6.54038
 H    -4.96034     2.60844    -7.60331
 H    -6.37458     1.72593    -6.84389
 H     2.66102     4.80794    10.61354
 H     0.94278     4.82411    10.62515
 H     3.71971     1.94633    11.99717
 H     2.05866     3.81879    14.76502
 H     0.41835     3.40599    14.44596
 H     1.91443     3.95385     8.46194
 H     0.72094     2.88124     9.36048
 H     3.81181     2.70201     9.73489
 H     2.90645     1.74564     8.48548
 H     3.02896     0.25008    10.33126
 H     1.33591     0.95039    10.45714
 H     2.99336    -0.33766    12.66152
 H     1.30709     0.36913    12.84876
 H     3.67603     1.72341    14.31462
 H     3.04238     0.13960    14.95237
 H     1.81927     1.90362    16.10238
 H     0.66118     1.17861    14.88220
