  144
 
Hg     0.00000     0.00000     0.00000
Hg     3.10374     0.91249     1.49013
Hg    -2.03500     2.50415    -1.53368
Hg     1.06939     3.41235    -0.04739
 O     1.03955     0.31730     1.89963
 O    -2.06510    -0.59219     0.41292
 O     3.12341     2.76132     0.32759
 O    -0.02335    -3.09253     1.95228
Hg     0.05364     1.90938     3.03102
Hg     3.15901     2.82088     4.52136
Hg    -1.97992     4.41324     1.49676
Hg     1.12514     5.32135     2.98291
 O     1.09442     2.22568     4.92934
 O    -2.01051     1.31602     3.44369
 O     3.17879     4.66972     3.35881
 O     0.02971    -1.18363     4.98300
Hg     0.10916     3.81773     6.06158
Hg     3.21525     4.72870     7.55184
Hg    -1.92521     6.32026     4.52826
Hg     1.18006     7.22982     6.01336
 O     1.15020     4.13372     7.95981
 O    -1.95508     3.22445     6.47455
 O     3.23412     6.57799     6.38916
 O     0.08594     0.72404     8.01229
Hg     0.04395     4.94547    -3.10605
Hg     3.14741     5.85788    -1.61733
Hg    -1.99406     7.44719    -4.64121
Hg     1.11027     8.35695    -3.15517
 O     1.08335     5.26299    -1.20707
 O    -2.02150     4.35500    -2.69442
 O     3.16450     7.70652    -2.77997
 O     0.01915     1.84965    -1.16241
Hg     0.09781     6.85491    -0.07515
Hg     3.20237     7.76668     1.41347
Hg    -1.93858     9.35704    -1.61118
Hg     1.16601    10.26606    -0.12544
 O     1.13829     7.17141     1.82283
 O    -1.96672     6.26350     0.33658
 O     3.21979     9.61469     0.25021
 O     0.07339     3.75887     1.86950
Hg     0.15297     8.76341     2.95488
Hg     3.25849     9.67532     4.44393
Hg    -1.88357    11.26403     1.41840
Hg     1.22056    12.17439     2.90593
 O     1.19406     9.08007     4.85284
 O    -1.91123     8.17041     3.36755
 O     3.27499    11.52369     3.28087
 O     0.12901     5.66701     4.89971
Hg     0.08527     9.88980    -6.21686
Hg     3.18841    10.80080    -4.72691
Hg    -1.95050    12.39106    -7.75375
Hg     1.15430    13.30280    -6.26507
 O     1.12412    10.20620    -4.31705
 O    -1.97960     9.29646    -5.80443
 O     3.20757    12.64929    -5.88983
 O     0.06028     6.79398    -4.26964
Hg     0.13891    11.79934    -3.18615
Hg     3.24353    12.70975    -1.69642
Hg    -1.89676    14.30023    -4.72283
Hg     1.20972    15.21108    -3.23632
 O     1.17924    12.11499    -1.28757
 O    -1.92519    11.20529    -2.77444
 O     3.26275    14.55759    -2.86048
 O     0.11481     8.70331    -1.23807
Hg     0.19428    13.70750    -0.15604
Hg     3.29952    14.61786     1.33428
Hg    -1.84080    16.20852    -1.69146
Hg     1.26416    17.11880    -0.20476
 O     1.23452    14.02279     1.74294
 O    -1.86965    13.11269     0.25588
 O     3.31828    16.46621     0.17040
 O     0.17022    10.61162     1.79164
Hg     6.15362    -0.08497    -0.05160
Hg     9.25786     0.82466     1.43425
Hg     4.11907     2.41574    -1.58987
Hg     7.22304     3.32710    -0.09928
 O     7.19336     0.23219     1.84758
 O     4.08870    -0.68002     0.35834
 O     9.27723     2.67470     0.27338
 O     6.13002    -3.17821     1.89883
Hg     6.20776     1.82380     2.97960
Hg     9.31345     2.73287     4.46501
Hg     4.17373     4.32433     1.44151
Hg     7.27892     5.23592     2.93033
 O     7.24899     2.13968     4.87759
 O     4.14341     1.22860     3.38900
 O     9.33228     4.58243     3.30327
 O     6.18435    -1.26958     4.93013
Hg     6.26360     3.73196     6.00921
Hg     9.36792     4.64083     7.49652
Hg     4.22943     6.23288     4.47176
Hg     7.33349     7.14453     5.96169
 O     7.30296     4.04825     7.90831
 O     4.19967     3.13597     6.41981
 O     9.38726     6.49073     6.33496
 O     6.23991     0.63744     7.96099
Hg     6.19749     4.86058    -3.15767
Hg     9.30122     5.77080    -1.67184
Hg     4.16021     7.36063    -4.69705
Hg     7.26408     8.27179    -3.20699
 O     7.23695     5.17751    -1.25907
 O     4.13231     4.26602    -2.75022
 O     9.31802     7.61916    -2.83449
 O     6.17304     1.76432    -1.21396
Hg     6.25108     6.76919    -0.12692
Hg     9.35682     7.67896     1.35886
Hg     4.21531     9.26922    -1.66645
Hg     7.31967    10.17999    -0.17669
 O     7.29246     7.08600     1.77026
 O     4.18680     6.17452     0.28127
 O     9.37309     9.52644     0.19482
 O     6.22728     3.67317     1.81783
Hg     6.30734     8.67762     2.90273
Hg     9.41214     9.58694     4.38970
Hg     4.27068    11.17722     1.36398
Hg     7.37419    12.08872     2.85488
 O     7.34704     8.99479     4.80140
 O     4.24288     8.08303     3.31138
 O     9.42845    11.43509     3.22509
 O     6.28303     5.58126     4.84746
Hg     6.23860     9.80496    -6.26876
Hg     9.34219    10.71253    -4.78298
Hg     4.20300    12.30459    -7.80799
Hg     7.30789    13.21693    -6.31826
 O     7.27749    10.12088    -4.36941
 O     4.17380     9.20940    -5.85998
 O     9.36105    12.56091    -5.94681
 O     6.21391     6.70882    -4.32085
Hg     6.29258    11.71386    -3.23811
Hg     9.39762    12.62099    -1.75269
Hg     4.25809    14.21320    -4.77796
Hg     7.36348    15.12512    -3.28775
 O     7.33319    12.02810    -1.33984
 O     4.22863    11.11793    -2.82867
 O     9.41633    14.46958    -2.91552
 O     6.26871     8.61729    -1.28987
Hg     6.34881    13.62093    -0.20802
Hg     9.45314    14.52778     1.27999
Hg     4.31377    16.12030    -1.74689
Hg     7.41812    17.03309    -0.25662
 O     7.38741    13.93719     1.69176
 O     4.28444    13.02586     0.20155
 O     9.47147    16.37681     0.11585
 O     6.32423    10.52599     1.74011
