  168
 
Hg     0.00000     0.00000     0.00000
Hg     0.12790    -3.90307     5.33538
Hg     3.35170    -3.08793     1.83904
Hg    -3.20682    -3.07389     1.83145
 S     0.07748    -0.66681     3.60936
 S     3.25217    -2.40877    -1.77117
 O     0.17660    -2.08531     4.09679
 O    -0.03899    -0.61697     2.10995
 O     3.12303    -0.99712    -2.27136
 O     3.38407    -2.43662    -0.26839
 O     1.30592    -3.73260     1.31106
 O    -1.16293    -3.77607     1.43339
 O     2.04465     0.64264     0.55288
 O    -1.91400    -3.18269     5.77611
Hg    -6.42886    -3.87445     5.30478
Hg    -6.26653    -7.72461    10.70985
Hg    -3.09703    -6.96365     7.16660
Hg    -9.63937    -6.91461     7.23005
 S    -6.37408    -4.53034     8.92503
 S    -3.17617    -6.30820     3.55898
 O    -6.25616    -5.94571     9.40493
 O    -6.49043    -4.47632     7.42553
 O    -3.27895    -4.89885     3.04459
 O    -3.06022    -6.32970     5.05764
 O    -5.14983    -7.58242     6.63071
 O    -7.61957    -7.65504     6.75364
 O    -4.38469    -3.24347     5.85953
 O    -8.27351    -6.96373    11.24504
Hg     0.02007     3.78261     2.76036
Hg     0.14363    -0.11769     8.09823
Hg     3.36099     0.69633     4.59713
Hg    -3.18467     0.69522     4.59394
 S     0.09171     3.12055     6.37419
 S     3.27692     1.37672     0.99200
 O     0.18923     1.69955     6.85646
 O    -0.02058     3.17149     4.87433
 O     3.15070     2.79169     0.49139
 O     3.40011     1.34178     2.48730
 O     1.32249     0.03973     4.06269
 O    -1.14976    -0.00596     4.16646
 O     2.06301     4.43342     3.31379
 O    -1.89771     0.60706     8.54177
Hg    -6.41537    -0.09316     8.06726
Hg    -6.25014    -3.94069    13.47554
Hg    -3.09135    -3.17789     9.92773
Hg    -9.61157    -3.12580     9.99299
 S    -6.36096    -0.74522    11.68994
 S    -3.14996    -2.52312     6.31707
 O    -6.24455    -2.16721    12.16827
 O    -6.47534    -0.69212    10.19028
 O    -3.25205    -1.10967     5.81364
 O    -3.04442    -2.55351     7.81625
 O    -5.13662    -3.81075     9.38007
 O    -7.60417    -3.88554     9.48476
 O    -4.36276     0.55103     8.62044
 O    -8.25655    -3.17424    13.99668
Hg     0.02319     7.57049     5.52091
Hg     0.16685     3.66580    10.85733
Hg     3.37510     4.48403     7.35997
Hg    -3.17213     4.49042     7.35587
 S     0.11741     6.90421     9.13324
 S     3.29207     5.16896     3.75753
 O     0.21969     5.48629     9.62323
 O    -0.01250     6.94527     7.63440
 O     3.16322     6.58163     3.25865
 O     3.41517     5.13072     5.25279
 O     1.33533     3.82540     6.83204
 O    -1.13515     3.77916     6.93084
 O     2.07513     8.20084     6.07169
 O    -1.88569     4.37315    11.27532
Hg    -6.41255     3.69174    10.83010
Hg    -6.22455    -0.15421    16.23683
Hg    -3.07870     0.60784    12.68936
Hg    -9.59512     0.66329    12.76237
 S    -6.33236     3.04307    14.45067
 S    -3.13572     1.26585     9.07994
 O    -6.21347     1.62318    14.93447
 O    -6.46021     3.08792    12.95169
 O    -3.23724     2.68028     8.57897
 O    -3.03330     1.23087    10.57905
 O    -5.12402    -0.02690    12.14638
 O    -7.58557    -0.10203    12.24907
 O    -4.35855     4.31688    11.38154
 O    -8.24352     0.59321    16.73203
Hg     5.29317    -3.31460     4.50848
Hg     5.41054    -7.20465     9.83019
Hg     8.64140    -6.38318     6.34659
Hg     2.06400    -6.38869     6.34066
 S     5.37056    -3.97725     8.11610
 S     8.54768    -5.73163     2.73130
 O     5.47777    -5.38953     8.62081
 O     5.26001    -3.94511     6.61767
 O     8.42107    -4.31139     2.24422
 O     8.69276    -5.78357     4.22237
 O     6.59013    -7.02192     5.81056
 O     4.12130    -7.08431     5.92894
 O     7.33570    -2.67301     5.04702
 O     3.36960    -6.51033    10.25295
Hg    -1.15161    -7.18408     9.83015
Hg    -0.97856   -11.03850    15.20737
Hg     2.20138   -10.26840    11.67243
Hg    -4.36207   -10.23332    11.73577
 S    -1.07820    -7.83532    13.44001
 S     2.11834    -9.63534     8.05026
 O    -0.95055    -9.24846    13.93956
 O    -1.19351    -7.80066    11.94164
 O     2.01482    -8.21867     7.55941
 O     2.25044    -9.67947     9.54848
 O     0.13592   -10.86721    11.13052
 O    -2.33262   -10.96245    11.25429
 O     0.89988    -6.55929    10.35472
 O    -2.98472   -10.28451    15.72189
Hg     5.30369     0.47397     7.27186
Hg     5.42805    -3.43629    12.59360
Hg     8.64980    -2.60399     9.11311
Hg     2.08977    -2.60389     9.09895
 S     5.38517    -0.19032    10.88106
 S     8.57300    -1.94912     5.49226
 O     5.49158    -1.60367    11.38404
 O     5.27248    -0.16035     9.38219
 O     8.44748    -0.52704     5.01429
 O     8.70430    -2.00807     6.99125
 O     6.60590    -3.25369     8.56783
 O     4.13456    -3.31971     8.66067
 O     7.34641     1.11476     7.81503
 O     3.38305    -2.72332    13.01598
Hg    -1.13969    -3.39894    12.59220
Hg    -0.96472    -7.24687    17.97452
Hg     2.20437    -6.47977    14.43491
Hg    -4.33632    -6.44972    14.50084
 S    -1.06421    -4.04871    16.20474
 S     2.14259    -5.85078    10.80999
 O    -0.93998    -5.46218    16.70656
 O    -1.17930    -4.01713    14.70594
 O     2.04136    -4.43124    10.32549
 O     2.25872    -5.90180    12.30942
 O     0.14900    -7.10078    13.88981
 O    -2.32089    -7.19444    13.99235
 O     0.91220    -2.77575    13.12244
 O    -2.98084    -6.49868    18.47942
Hg     5.31246     4.25988    10.03324
Hg     5.45200     0.35403    15.35430
Hg     8.66304     1.18902    11.87357
Hg     2.10406     1.17884    11.86052
 S     5.40952     3.59798    13.63844
 S     8.58557     1.83987     8.25633
 O     5.51874     2.18793    14.14845
 O     5.28420     3.61879    12.14048
 O     8.45998     3.25988     7.77430
 O     8.71590     1.78532     9.75144
 O     6.62139     0.53116    11.33163
 O     4.15134     0.46852    11.42822
 O     7.36212     4.89130    10.56511
 O     3.39733     1.04607    15.74545
Hg    -1.12885     0.38694    15.35245
Hg    -0.93778    -3.46776    20.73600
Hg     2.22010    -2.70220    17.19263
Hg    -4.31774    -2.66094    17.27051
 S    -1.03728    -0.26250    18.96138
 S     2.15555    -2.06457    13.57421
 O    -0.90792    -1.67202    19.46639
 O    -1.16486    -0.24083    17.46335
 O     2.05188    -0.64737    13.08381
 O     2.27239    -2.11185    15.07338
 O     0.16484    -3.31336    16.65325
 O    -2.30395    -3.40549    16.75487
 O     0.92846     1.00077    15.87418
 O    -2.95995    -2.72844    21.20438
