   18
 
Hg     0.00000     0.00000     0.00000
Hg     0.93611    -3.82124    -2.35815
Hg    -1.85103     1.92662    -3.57288
Br     1.39758    -1.97799    -0.55527
Br    -1.17433     4.14877    -3.32377
Br     2.26357    -6.15063    -1.97789
Br    -1.74738     4.38156     0.36169
Br    -1.83702     0.08372    -1.41090
Br     1.66865    -5.59891     1.78675
Hg     3.87731     0.16710    -2.93323
Hg     4.73158    -3.62685    -5.28359
Hg     1.99341     2.24011    -6.53409
Br     5.44896    -1.58559    -3.73927
Br     2.80223     4.42127    -6.35210
Br     5.92843    -5.97032    -4.91150
Br     1.92863     4.47458    -2.54176
Br     1.98543     0.21547    -4.17683
Br     5.35012    -5.28077    -1.06760
