  160
 
 S     0.00000     0.00000     0.00000
 O    -1.38747    -1.56907     9.67590
 O    -0.25381     0.16585     8.93956
 N     0.74594    -3.09818    10.12909
 C    -0.32036    -1.03769     9.25156
 C     0.94167    -1.91615     9.19378
 C     1.22013    -2.35941     7.74459
 C     1.43932    -1.11855     6.88714
 C     2.37387    -0.05022     4.47641
 H     0.11496    -3.83242     9.67055
 H     1.71084    -3.50972    10.34389
 H     0.28482    -2.74698    11.02186
 H     1.82818    -1.31637     9.56440
 H     0.35016    -2.96063     7.35789
 H     2.12899    -3.01163     7.73395
 H     0.49320    -0.52187     6.81043
 H     2.23963    -0.47362     7.31773
 H     2.59419    -0.24322     3.40015
 H     3.27025     0.36655     4.98407
 H     1.52575     0.66461     4.56326
 S     1.94004    -1.64683     5.21698
 S    -4.21435     0.15209     0.64677
 O    -0.80721     0.74025    -3.74881
 O    -1.81104     2.31200    -2.58715
 N    -2.96502    -0.59400    -4.43302
 C    -1.83606     1.21817    -3.19466
 C    -3.14596     0.42601    -3.31998
 C    -3.51376    -0.23076    -1.97509
 C    -3.77587     0.87921    -0.96349
 C    -4.10909     1.62508     1.70335
 H    -2.32365    -1.38347    -4.09884
 H    -3.94327    -0.95845    -4.69937
 H    -2.51890    -0.11485    -5.26226
 H    -3.97252     1.13321    -3.62334
 H    -2.66822    -0.88564    -1.63178
 H    -4.42400    -0.86797    -2.11431
 H    -2.84953     1.50383    -0.83352
 H    -4.61043     1.53530    -1.29784
 H    -4.24896     1.28616     2.75267
 H    -4.90554     2.35153     1.42760
 H    -3.11282     2.10879     1.59695
 S    -2.60531     3.73758     6.52353
 O    -5.52414     1.58462    10.34567
 O    -4.88716     3.67152     9.93549
 N    -3.13630     0.57814     9.88269
 C    -4.73429     2.43632     9.85530
 C    -3.49222     1.85168     9.14294
 C    -3.81703     1.54204     7.67476
 C    -4.12463     2.80974     6.89285
 C    -1.91528     2.86827     5.09552
 H    -3.98229    -0.07981     9.84930
 H    -2.28240     0.08763     9.46291
 H    -2.95583     0.79608    10.89969
 H    -2.62157     2.57977     9.19698
 H    -4.69923     0.84996     7.63108
 H    -2.94071     1.00933     7.21585
 H    -4.65505     2.56857     5.94083
 H    -4.75075     3.51534     7.49791
 H    -0.87027     3.25293     5.00125
 H    -2.51060     3.09468     4.18713
 H    -1.88418     1.76986     5.26907
 O     3.45128    -1.36365    -3.68485
 O     2.66414     0.71514    -3.69356
 N     0.85165    -2.08097    -4.06830
 C     2.55680    -0.50211    -3.45933
 C     1.21254    -1.09435    -2.97422
 C     1.34474    -1.78975    -1.61547
 C     1.56784    -0.78785    -0.49028
 C    -0.70450    -1.18940     1.16957
 H     1.66737    -2.76729    -4.19303
 H    -0.04230    -2.62546    -3.85607
 H     0.75029    -1.55981    -4.98542
 H     0.41365    -0.29015    -2.89790
 H     2.21389    -2.49528    -1.65053
 H     0.41087    -2.38300    -1.42105
 H     2.02256    -1.29258     0.39666
 H     2.23542     0.04735    -0.81268
 H    -1.74892    -0.84316     1.36907
 H    -0.11306    -1.18922     2.10970
 H    -0.72336    -2.20829     0.72772
 S     0.43827    -5.55599    -0.15827
 O    -1.40483    -6.74556     8.89807
 O    -0.25417    -4.96584     8.30864
 N     0.74402    -8.26054     9.35950
 C    -0.32808    -6.18850     8.53780
 C     0.93703    -7.06189     8.44246
 C     1.19158    -7.47456     6.97992
 C     1.34994    -6.21657     6.13305
 C     2.14575    -5.07963     3.69420
 H     0.10310    -8.97666     8.88899
 H     1.70577    -8.68012     9.57570
 H     0.28985    -7.91468    10.25724
 H     1.82557    -6.46829     8.81678
 H     0.32984    -8.09599     6.60624
 H     2.11590    -8.10167     6.93535
 H     0.38935    -5.64052     6.10443
 H     2.15278    -5.55804     6.53857
 H     2.24769    -5.22939     2.59297
 H     3.09571    -4.67292     4.10498
 H     1.31322    -4.36894     3.89312
 S     1.78655    -6.69844     4.42924
 S    -4.42111    -4.84187    -0.15886
 O    -0.79824    -4.38391    -4.44124
 O    -1.81381    -2.82395    -3.27662
 N    -2.96071    -5.70439    -5.17808
 C    -1.83648    -3.90658    -3.91042
 C    -3.15319    -4.67138    -4.08132
 C    -3.57430    -5.29896    -2.73998
 C    -3.98514    -4.17667    -1.79090
 C    -2.98219    -4.43686     0.85899
 H    -2.34013    -6.50303    -4.82435
 H    -3.93291    -6.05766    -5.47200
 H    -2.48857    -5.23707    -6.00188
 H    -3.95098    -3.94667    -4.41569
 H    -2.72022    -5.88665    -2.31181
 H    -4.42753    -5.99935    -2.91960
 H    -3.15008    -3.43199    -1.68595
 H    -4.88562    -3.64246    -2.17515
 H    -3.16633    -4.88446     1.86203
 H    -2.88174    -3.33384     0.95325
 H    -2.06241    -4.87127     0.40684
 S    -2.32971    -1.41658     5.88241
 O    -5.52646    -3.54574     9.62154
 O    -4.93207    -1.45698     9.17983
 N    -3.10392    -4.52875     9.20514
 C    -4.74228    -2.69049     9.13104
 C    -3.46034    -3.25222     8.47013
 C    -3.69951    -3.54623     6.98201
 C    -3.91069    -2.26643     6.18818
 C    -1.66016    -2.28016     4.43858
 H    -3.94899    -5.18494     9.17356
 H    -2.25362    -5.02049     8.77691
 H    -2.91161    -4.31357    10.21968
 H    -2.60686    -2.50861     8.57245
 H    -4.59872    -4.20772     6.87524
 H    -2.81300    -4.10544     6.57630
 H    -4.40887    -2.48662     5.21354
 H    -4.53292    -1.53565     6.76518
 H    -0.62335    -1.88525     4.30335
 H    -2.28034    -2.06219     3.54469
 H    -1.61366    -3.37578     4.61948
 O     3.43157    -6.41436    -4.58443
 O     2.58951    -4.36318    -4.40703
 N     0.87353    -7.27846    -4.81790
 C     2.52549    -5.59748    -4.26858
 C     1.22184    -6.25398    -3.75799
 C     1.42497    -6.89790    -2.38351
 C     1.78732    -5.84752    -1.33842
 C     0.43999    -7.07280     0.82685
 H     1.70047    -7.95300    -4.93360
 H    -0.01342    -7.82796    -4.58475
 H     0.75669    -6.77556    -5.74521
 H     0.38928    -5.48601    -3.67654
 H     2.24473    -7.65724    -2.44892
 H     0.47604    -7.42949    -2.10042
 H     2.68989    -6.16619    -0.76442
 H     1.98250    -4.84972    -1.80427
 H    -0.26017    -6.88983     1.67005
 H     1.45632    -7.28581     1.22230
 H     0.08366    -7.93459     0.21684
