  216
 
Br     0.00000     0.00000     0.00000
 C   -11.42014     3.37371     2.55420
 C    -8.49095     4.47314     2.43259
 C    -7.83867     5.41900     1.63847
 C    -6.80011     4.99121     0.82149
 C    -6.39899     3.66268     0.77368
 C    -7.06152     2.73074     1.57333
 C    -8.09488     3.13139     2.41324
 C    -9.59668     4.89347     3.27602
 C   -11.51869     5.07794     4.41688
 C   -10.66392     6.11798     4.87670
 C   -12.78976     4.72850     4.92103
 C   -13.22703     5.50010     6.20444
 F   -12.31157     5.53059     7.16459
 F   -14.31095     4.96650     6.75873
 F   -13.53549     6.77106     5.97528
 N   -10.82282     4.39047     3.39561
 O    -9.41289     5.92876     4.13026
 O   -10.67649     7.01692     5.66146
 O   -13.55899     3.89178     4.51239
Br    -5.91925     6.26075    -0.27933
Br     4.31403     6.20229    -4.65759
 C    -1.18771     3.25539    -1.81030
 C     1.75477     4.34514    -1.98144
 C     2.40635     5.30870    -2.75552
 C     3.43788     4.90066    -3.59096
 C     3.83736     3.57328    -3.67688
 C     3.18184     2.62412    -2.89126
 C     2.15210     3.00485    -2.03684
 C     0.66188     4.75495    -1.11532
 C    -1.23098     4.94142     0.07418
 C    -0.36125     5.97642     0.51620
 C    -2.48499     4.59559     0.62325
 C    -2.88368     5.38004     1.91367
 F    -1.94814     5.39175     2.85444
 F    -3.96763     4.87469     2.49352
 F    -3.16839     6.65710     1.68541
 N    -0.56467     4.25759    -0.97012
 O     0.86977     5.78552    -0.25915
 O    -0.35383     6.87066     1.30716
 O    -3.26845     3.75843     0.24516
Br   -10.19488     0.15339     4.44775
 C    -4.67842    -2.97489     1.65709
 C    -7.58162    -1.78078     1.87938
 C    -8.24755    -0.79415     2.61175
 C    -9.30123    -1.17699     3.43119
 C    -9.70985    -2.50050     3.53674
 C    -9.03718    -3.47352     2.79613
 C    -7.98164    -3.11894     1.96260
 C    -6.48068    -1.39564     1.01377
 C    -4.60465    -1.26479    -0.20819
 C    -5.44204    -0.18934    -0.61914
 C    -3.38534    -1.66118    -0.79686
 C    -2.99147    -0.87769    -2.08872
 F    -3.93717    -0.85815    -3.01982
 F    -1.91747    -1.39299    -2.67757
 F    -2.69671     0.39791    -1.86573
 N    -5.27473    -1.93469     0.84316
 O    -6.66544    -0.34672     0.17503
 O    -5.43145     0.71555    -1.39717
 O    -2.63047    -2.54037    -0.45447
 C     5.56816    -3.02910    -2.69730
 C     2.64678    -1.89779    -2.56089
 C     1.96968    -0.91967    -1.82789
 C     0.91646    -1.31598    -1.01386
 C     0.52301    -2.64421    -0.91027
 C     1.21185    -3.60901    -1.64621
 C     2.26298    -3.24068    -2.47903
 C     3.75221    -1.50358    -3.41710
 C     5.65470    -1.35567    -4.59675
 C     4.80586    -0.30457    -5.04589
 C     6.89800    -1.73661    -5.14363
 C     7.31683    -0.97710    -6.44188
 F     6.37423    -0.92934    -7.37490
 F     8.37345    -1.53092    -7.02782
 F     7.65949     0.28766    -6.22535
 N     4.97114    -2.02265    -3.55224
 O     3.56590    -0.47334    -4.27731
 O     4.81701     0.58976    -5.83529
 O     7.66057    -2.59269    -4.76117
Br   -10.29375     0.70690     0.09560
 C    -4.66578     3.64369    -2.69453
 C    -7.60136     2.53325    -2.46910
 C    -8.28744     1.57976    -1.71202
 C    -9.36193     1.99642    -0.93751
 C    -9.76649     3.32419    -0.89056
 C    -9.06227     4.26639    -1.64102
 C    -7.99004     3.87665    -2.43727
 C    -6.50315     2.10280    -3.31687
 C    -4.62832     1.89937    -4.53034
 C    -5.49814     0.84726    -4.93193
 C    -3.38817     2.23454    -5.11510
 C    -3.03651     1.44135    -6.41383
 F    -3.98693     1.47545    -7.33957
 F    -1.94377     1.90801    -7.00859
 F    -2.80248     0.15181    -6.20098
 N    -5.28076     2.60138    -3.48966
 O    -6.71643     1.04795    -4.14315
 O    -5.50789    -0.06556    -5.70099
 O    -2.58811     3.06922    -4.76576
Br     0.00925     0.58726     4.34309
 C     5.60390     3.58034     1.47444
 C     2.66897     2.41728     1.74635
 C     1.98498     1.45799     2.49753
 C     0.93743     1.87685     3.30778
 C     0.55805     3.20994     3.39442
 C     1.25374     4.15573     2.64091
 C     2.29561     3.76436     1.80706
 C     3.76548     2.00170     0.88945
 C     5.64304     1.82947    -0.32818
 C     4.79355     0.76262    -0.72789
 C     6.87946     2.21139    -0.89151
 C     7.28512     1.44490    -2.18885
 F     6.34389     1.43817    -3.12472
 F     8.35961     1.96989    -2.76852
 F     7.58350     0.16732    -1.98196
 N     4.97613     2.52392     0.70955
 O     3.57198     0.94124     0.06554
 O     4.79634    -0.15290    -1.49371
 O     7.63109     3.08041    -0.51962
Br    -6.03461    -5.55620    -4.47871
 C   -11.55838    -2.56408    -1.62933
 C    -8.62239    -3.69347    -1.83178
 C    -7.97249    -4.65848    -2.60558
 C    -6.91151    -4.25865    -3.40713
 C    -6.48339    -2.93832    -3.45770
 C    -7.14611    -1.98672    -2.68147
 C    -8.20571    -2.35877    -1.86122
 C    -9.72193    -4.09920    -0.97425
 C   -11.59896    -4.26960     0.23811
 C   -10.73722    -5.32103     0.65917
 C   -12.83515    -3.91080     0.81487
 C   -13.19304    -4.68127     2.12449
 F   -12.23029    -4.66792     3.03817
 F   -14.26779    -4.18133     2.72400
 F   -13.46403    -5.96573     1.92412
 N   -10.93941    -3.58655    -0.81042
 O    -9.51686    -5.14085    -0.13010
 O   -10.73532    -6.22414     1.43963
 O   -13.62249    -3.06901     0.45295
Br     4.28402    -5.71006    -0.21076
 C    -1.19193    -2.61684     2.60026
 C     1.72895    -3.78617     2.42214
 C     2.36412    -4.76700     1.65609
 C     3.42022    -4.38702     0.83835
 C     3.85398    -3.07015     0.75922
 C     3.21071    -2.10361     1.53297
 C     2.16109    -2.45698     2.37387
 C     0.62234    -4.16840     3.28259
 C    -1.27265    -4.31060     4.47356
 C    -0.43112    -5.37345     4.90560
 C    -2.51640    -3.93855     5.02812
 C    -2.92317    -4.73567     6.30699
 F    -1.98979    -4.76013     7.24988
 F    -4.00906    -4.24054     6.89044
 F    -3.20370    -6.00975     6.05726
 N    -0.58952    -3.63794     3.43316
 O     0.80458    -5.20756     4.13391
 O    -0.44883    -6.27657     5.68596
 O    -3.28192    -3.07823     4.66416
 H   -10.68585     2.60308     2.26558
 H   -12.25914     2.86893     3.07914
 H   -11.82942     3.83588     1.62409
 H    -8.16374     6.46209     1.66008
 H    -8.58558     2.40077     3.05857
 H     6.36629     3.15246     2.16696
 H    -0.49689     2.42550    -2.03583
 H    -2.08860     2.82479    -1.32101
 H    -1.51310     3.71265    -2.77523
 H     2.08773     6.35294    -2.70423
 H     4.65550     3.25912    -4.33517
 H     3.48383     1.57539    -2.95967
 H     1.66516     2.25844    -1.40733
 H    -3.70197    -3.30354     1.23923
 H    -5.32880    -3.86388     1.71794
 H    -4.48824    -2.60047     2.68958
 H    -7.92324     0.24726     2.53926
 H   -10.54851    -2.79287     4.17758
 H    -9.34597    -4.51928     2.88219
 H    -7.47686    -3.88308     1.36980
 H     6.53391    -3.38797    -3.11414
 H     4.90608    -3.90397    -2.57925
 H     5.77844    -2.60506    -1.68784
 H     2.28672     0.12419    -1.89503
 H    -0.31669    -2.94759    -0.27564
 H     0.91902    -4.65899    -1.55656
 H     2.77758    -3.99770    -3.07233
 H    -3.61531     3.82444    -3.00952
 H    -4.63610     3.35132    -1.62019
 H    -5.21065     4.59849    -2.79272
 H    -7.96292     0.53623    -1.73391
 H   -10.62414     3.64466    -0.28884
 H    -9.36201     5.31749    -1.59211
 H    -7.46480     4.61750    -3.04225
 H     6.12443     4.29076     0.79892
 H     4.87699     4.13595     2.08844
 H     2.29157     0.41003     2.44600
 H    -0.27273     3.53279     4.03131
 H     0.97505     5.21072     2.71845
 H     2.81188     4.50771     1.19683
 H   -10.86494    -1.72937    -1.82860
 H   -11.88102    -2.99579    -2.60619
 H   -12.46197    -2.14475    -1.13506
 H    -8.31457    -5.69640    -2.57601
 H    -5.64096    -2.63302    -4.08795
 H    -6.82867    -0.94140    -2.73049
 H    -8.69887    -1.61197    -1.23679
 H    -0.47848    -1.80804     2.36909
 H    -1.54427    -3.06230     1.64008
 H    -2.07444    -2.16230     3.10141
 H     2.01555    -5.80199     1.70460
 H     4.68837    -2.77556     0.11367
 H     3.53605    -1.06190     1.46501
 H     1.68810    -1.69878     3.00014
 H    -5.57434     3.33427     0.13139
 H    -6.76422     1.67945     1.52688
