  208
 
Nd     0.00000     0.00000     0.00000
 O     2.50888    -0.14693     0.18332
 O     0.80330     2.36696    -0.21990
 H     3.15828     0.46661     0.73066
 H     0.62659     3.02644    -1.01647
 H     1.50654     2.87529     0.36412
 O    -1.05986     1.52960    -1.69960
 O    -1.44329    -1.38939     1.52833
 O    -1.93952     1.06256     1.18620
 O     1.09193     0.12866     2.25545
 O     0.82050    -0.01476    -2.37156
 O    -1.90296    -1.32721    -0.95810
 O     1.10437    -2.25048     0.11706
 H     3.16543    -0.75624    -0.36250
 H    -1.39927     2.51261    -1.56704
 H    -1.37965     1.30034    -2.67107
 H    -1.76209    -1.16295     2.50065
 H    -1.75772    -2.38035     1.40185
 H    -2.75100     0.57363     1.63549
 H    -2.21817     2.07013     1.21418
 H     2.06661    -0.16210     2.50742
 H     0.65254     0.32812     3.18474
 H     0.63251     0.70185    -3.11391
 H     1.53724    -0.63750    -2.80962
 H    -2.70135    -1.76521    -0.43794
 H    -2.17111    -1.45006    -1.96126
 H     2.07960    -2.46375     0.43552
 H     0.66973    -3.19759     0.01537
Nd     7.41256    -4.92007     0.26750
 O     4.90465    -4.77692     0.09491
 O     6.58914    -4.91555     2.63734
 H     4.24638    -4.17896     0.64891
 H     6.77783    -5.63530     3.37497
 H     5.86847    -4.29833     3.07663
 O     8.47253    -6.44672     1.96587
 O     8.85577    -3.53466    -1.26353
 O     9.32266    -3.60001     1.22052
 O     6.29139    -2.67861     0.15197
 O     6.57531    -2.04759     5.22544
 O     9.31735    -0.74160     3.81773
 O     6.28647     0.18923     2.74955
 H     4.25572    -5.37559    -0.47347
 H     8.79164    -6.22087     2.93715
 H     8.80365    -7.43469     1.83466
 H     9.17428    -2.54575    -1.13783
 H     9.18842    -3.76626    -2.23263
 H    10.11923    -3.16695     0.69664
 H     9.59778    -3.48323     2.22263
 H     5.31015    -2.47824    -0.15495
 H     6.71802    -1.72856     0.23941
 H     6.75147    -2.70553     6.02376
 H     5.87451    -2.55793     4.64142
 H    10.12843    -0.25239     3.36838
 H     9.59394    -1.74921     3.78750
 H     5.31138     0.47984     2.49945
 H     6.72487    -0.00967     1.82043
 S     9.81829    -4.41148     4.97694
 O     9.88880    -3.41483     3.88088
 O     9.22967    -3.84748     6.21181
 C    11.54457    -4.82354     5.40083
 F    11.63769    -5.70956     6.39768
 F    12.25892    -3.76830     5.79182
 O     9.21011    -5.68848     4.54307
 F    12.22217    -5.35934     4.38541
 S     8.91178     0.15690    -0.09304
 O     7.59173    -0.30101     0.40691
 O     9.65658     0.93378     0.92112
 C     8.55799     1.32443    -1.45033
 F     9.66466     1.83460    -2.00038
 F     7.83173     2.37584    -1.06970
 O     9.69181    -0.93576    -0.71380
 F     7.88289     0.76909    -2.45689
 S     3.45404    -2.66945     2.99508
 O     4.70315    -3.19829     3.59530
 O     3.27031    -1.22521     3.25324
 C     2.08591    -3.50630     3.86683
 F     0.88097    -3.11688     3.43739
 F     2.08390    -3.28959     5.18198
 O     3.29958    -3.05438     1.57450
 F     2.10457    -4.83088     3.72202
 S    -2.36176    -0.53572    -4.72850
 O    -2.45501    -1.52721    -3.62964
 O    -1.79360     0.75235    -4.27683
 C    -4.07487    -0.16977    -5.23584
 F    -4.14311     0.76274    -6.19152
 F    -4.84152     0.27974    -4.24323
 O    -1.71792    -1.09118    -5.94012
 F    -4.71027    -1.23224    -5.73040
 S    -1.50977    -5.08491     0.30589
 O    -0.17667    -4.63639    -0.16746
 O    -2.26720    -3.99951     0.96372
 C    -1.19678    -6.32620     1.60526
 F    -2.32001    -6.76041     2.18624
 F    -0.42995    -5.87787     2.59841
 O    -2.26694    -5.80724    -0.74045
 F    -0.58925    -7.42121     1.14632
 S     3.93580    -2.30470    -2.70823
 O     2.70339    -1.75004    -3.31976
 O     4.10823    -1.87613    -1.30313
 C     5.33014    -1.56851    -3.62569
 F     6.52007    -1.91395    -3.12389
 F     5.31923    -0.23616    -3.63773
 O     4.07061    -3.76247    -2.91960
 F     5.36340    -1.94044    -4.90635
Nd    -0.03458     5.25458     4.73300
 O     2.47361     5.10285     4.89406
 O     0.74071     7.63203     4.51959
 H     3.12534     5.69472     5.46445
 H     0.52820     8.30840     3.74735
 H     1.45186     8.13558     5.09738
 O    -1.09725     6.77333     3.02796
 O    -1.47142     3.85653     6.25620
 O    -1.96657     6.30701     5.94115
 O     1.06378     5.41424     6.98477
 O     0.77997     5.24380     2.35872
 O    -1.93885     3.92244     3.78435
 O     1.08364     3.01116     4.84400
 H     3.12924     4.50279     4.33756
 H    -1.42192     7.76367     3.15263
 H    -1.42442     6.54064     2.06048
 H    -1.81495     4.08998     7.22041
 H    -1.77855     2.86317     6.13331
 H    -2.75081     5.82222     6.43713
 H    -2.25746     7.31220     5.94867
 H     2.05667     5.19103     7.22883
 H     0.61588     5.58283     7.91569
 H     0.59029     5.96481     1.62174
 H     1.49338     4.62252     1.91577
 H    -2.73256     3.48632     4.31070
 H    -2.21383     3.79910     2.78329
 H     2.06563     2.81005     5.14948
 H     0.65724     2.06105     4.75511
Nd     7.37758     0.32035     5.00555
 O     4.86895     0.45981     4.81491
 O     6.55371     0.33221     7.37624
 H     4.21015     1.07240     5.35410
 H     6.73884    -0.38601     8.11792
 H     5.83705     0.95557     7.81456
 O     8.43885    -1.21335     6.70029
 O     8.81892     1.70354     3.46937
 O     9.28220     1.65294     5.95483
 O     6.26953     2.56909     4.88561
 O     6.53061     3.19150     9.97021
 O     9.25432     4.51422     8.54743
 O     6.22099     5.42893     7.49370
 H     4.22161    -0.15943     4.27093
 H     8.75567    -0.98453     7.67288
 H     8.78106    -2.19524     6.56671
 H     9.13871     2.69239     3.59721
 H     9.13199     1.47824     2.49485
 H    10.07990     2.09068     5.43256
 H     9.55163     1.78096     6.95695
 H     5.29315     2.78254     4.57061
 H     6.70361     3.51670     4.98772
 H     6.74467     2.51931    10.74663
 H     5.81891     2.68523     9.39653
 H    10.03759     5.00440     8.05399
 H     9.54539     3.51065     8.53598
 H     5.22649     5.65354     7.25495
 H     6.66662     5.26380     6.56199
 S     9.73345     0.86133     9.72568
 O     9.82784     1.85354     8.62783
 O     9.10245     1.42077    10.94161
 C    11.44641     0.47543    10.21879
 F    11.51115    -0.46406    11.16763
 F    12.10014     1.52618    10.71478
 O     9.15332    -0.42298     9.27620
 F    12.19884     0.02205     9.21653
 S     8.89123     5.39989     4.69130
 O     7.55851     4.95523     5.16980
 O     9.64407     6.13953     5.72847
 C     8.57547     6.61914     3.37167
 F     9.69783     7.05675     2.79227
 F     7.95141     7.71337     3.80856
 O     9.65242     4.30793     4.04835
 F     7.82139     6.14596     2.38073
 S     3.44144     2.63037     7.70291
 O     4.67341     2.07701     8.31873
 O     3.29667     4.08459     7.92762
 C     2.04603     1.87302     8.60186
 F     0.85669     2.21932     8.09925
 F     2.00314     2.22154     9.88818
 O     3.27965     2.21338     6.29335
 F     2.06521     0.54048     8.59029
 S    -2.45157     4.72545     0.02644
 O    -2.52208     3.73074     1.12444
 O    -1.85398     6.00722     0.46086
 C    -4.17735     5.12247    -0.41386
 F    -4.26738     5.99992    -1.41851
 F    -4.87051     5.65972     0.58997
 O    -1.85046     4.16374    -1.20350
 F    -4.87922     4.05828    -0.80472
 S    -1.52925     0.16038     5.09388
 O    -0.20929     0.62116     4.59650
 O    -2.30517     1.24955     5.72501
 C    -1.17790    -1.02596     6.43606
 F    -2.28694    -1.53180     6.98444
 F    -0.49114    -0.49191     7.44604
 O    -2.27840    -0.60585     4.07406
 F    -0.46591    -2.07964     6.03667
 S     3.91911     2.98429     2.00543
 O     2.66929     3.51476     1.40782
 O     4.08224     3.38066     3.42175
 C     5.28663     3.80428     1.11766
 F     6.49153     3.41475     1.54688
 F     5.27580     5.13162     1.24148
 O     4.09620     1.53700     1.75809
 F     5.28100     3.56686    -0.19463
