  208
 
Nd     0.00000     0.00000     0.00000
 O     2.56775     0.00000     0.00000
 O     0.73292     2.33880     0.00000
 H     3.07923     0.62130     0.50250
 H     0.80860     3.02671    -0.64618
 H     1.32384     2.77045     0.61038
 O    -1.28351     1.48738    -1.65602
 O    -1.28565    -1.48479     1.65313
 O    -1.72012     1.19724     1.27099
 O     0.98609     0.34860     2.21584
 O     0.73292    -0.25022    -2.32538
 O    -1.72012    -1.39178    -1.05439
 O     0.98609    -2.24042    -0.10953
 H     3.07923    -0.56608    -0.56397
 H    -1.57557     2.36291    -1.43658
 H    -1.57557     1.17553    -2.50305
 H    -1.50533    -1.20148     2.53193
 H    -1.50533    -2.38886     1.46547
 H    -2.57198     0.98687     1.62493
 H    -1.87177     2.13801     1.31452
 H     1.76170     0.05017     2.66783
 H     0.54570     0.60435     3.02207
 H     0.80860     0.31865    -3.07847
 H     1.32384    -0.90328    -2.68924
 H    -2.57198    -1.72119    -0.80736
 H    -1.87177    -1.53572    -1.98510
 H     1.76170    -2.65789     0.23554
 H     0.54570    -3.06938    -0.27756
Nd     7.18903    -5.11390     0.11164
 O     4.62072    -5.11335     0.11102
 O     6.45529    -4.86406     2.43743
 H     4.10981    -4.54782     0.67561
 H     6.37905    -5.43237     3.18991
 H     5.86381    -4.21044     2.80068
 O     8.47198    -6.60073     1.76704
 O     8.47413    -3.62856    -1.54211
 O     8.90916    -3.72212     1.16603
 O     6.20295    -2.87348     0.22117
 O     6.45529    -1.90305     5.09691
 O     8.90916    -0.76112     3.82551
 O     6.20295     0.08752     2.88065
 H     4.10981    -5.73520    -0.39086
 H     8.76405    -6.28888     2.61407
 H     8.76405    -7.47626     1.54761
 H     8.69298    -2.72487    -1.35403
 H     8.69298    -3.91224    -2.42049
 H     9.76101    -3.39272     0.91900
 H     9.06025    -3.57763     2.09613
 H     5.42733    -2.45602    -0.12390
 H     6.64195    -2.04434     0.38900
 H     6.37905    -2.59040     5.74247
 H     5.86381    -2.33414     4.48591
 H     9.76101    -0.55074     3.47157
 H     9.06025    -1.70133     3.78136
 H     5.42733     0.38595     2.42867
 H     6.64195    -0.16805     2.07423
 S     9.48814    -4.40974     4.90971
 O     9.51204    -3.44833     3.83929
 O     8.97567    -3.89242     6.14604
 C    11.25332    -4.73318     5.26982
 F    11.34819    -5.60794     6.24376
 F    11.83685    -3.62737     5.62795
 O     8.97567    -5.69432     4.52763
 F    11.83685    -5.20757     4.20867
 S     8.72230     0.02684    -0.02988
 O     7.46449    -0.44074     0.49071
 O     9.47542     0.82255     0.89650
 C     8.25942     1.20964    -1.34679
 F     9.34561     1.70138    -1.89428
 F     7.55806     2.17914    -0.83689
 O     9.47542    -0.97935    -0.72191
 F     7.55806     0.59894    -2.25617
 S     3.35557    -2.63507     2.93383
 O     4.59030    -3.12853     3.48323
 O     3.11548    -1.24580     3.19934
 C     2.05409    -3.49406     3.89021
 F     0.87360    -3.11159     3.46437
 F     2.17166    -3.20000     5.15213
 O     3.11548    -3.04770     1.58094
 F     2.17166    -4.78019     3.73284
 S    -2.30049    -0.70398    -4.79827
 O    -2.32300    -1.66557    -3.72765
 O    -1.78746     0.58005    -4.41558
 C    -4.06429    -0.38072    -5.15818
 F    -4.15916     0.49404    -6.13212
 F    -4.64781     0.09366    -4.09703
 O    -1.78746    -1.22185    -6.03398
 F    -4.64781    -1.48653    -5.51631
 S    -1.53382    -5.14019     0.14091
 O    -0.27684    -4.67298    -0.37927
 O    -2.28695    -4.13400     0.83293
 C    -1.07094    -6.32299     1.45781
 F    -2.15657    -6.81528     2.00592
 F    -0.36985    -5.71322     2.36822
 O    -2.28695    -5.93590    -0.78547
 F    -0.36985    -7.29342     0.94894
 S     3.83208    -2.47865    -2.82239
 O     2.59817    -1.98482    -3.37221
 O     4.07273    -2.06658    -1.46888
 C     5.13355    -1.61966    -3.77877
 F     6.31488    -2.00176    -3.35335
 F     5.01598    -0.33353    -3.62141
 O     4.07273    -3.86848    -3.08729
 F     5.01598    -1.91372    -5.04069
Nd    -0.00000     5.55003     4.98486
 O     2.56775     5.55003     4.98486
 O     0.73292     7.88883     4.98486
 H     3.07923     6.17132     5.48735
 H     0.80860     8.57673     4.33868
 H     1.32384     8.32048     5.59524
 O    -1.28351     7.03741     3.32884
 O    -1.28565     4.06524     6.63799
 O    -1.72012     6.74727     6.25584
 O     0.98609     5.89863     7.20070
 O     0.73292     5.29981     2.65948
 O    -1.72012     4.15825     3.93047
 O     0.98609     3.30961     4.87532
 H     3.07923     4.98394     4.42089
 H    -1.57557     7.91294     3.54827
 H    -1.57557     6.72556     2.48181
 H    -1.50533     4.34855     7.51679
 H    -1.50533     3.16117     6.45032
 H    -2.57198     6.53690     6.60979
 H    -1.87177     7.68804     6.29938
 H     1.76170     5.60020     7.65269
 H     0.54570     6.15438     8.00692
 H     0.80860     5.86868     1.90639
 H     1.32384     4.64674     2.29561
 H    -2.57198     3.82884     4.17750
 H    -1.87177     4.01431     2.99975
 H     1.76170     2.89214     5.22040
 H     0.54570     2.48065     4.70730
Nd     7.18903     0.43612     5.09650
 O     4.62072     0.43668     5.09588
 O     6.45529     0.68597     7.42229
 H     4.10981     1.00221     5.66046
 H     6.37905     0.11765     8.17476
 H     5.86381     1.33959     7.78554
 O     8.47198    -1.05070     6.75190
 O     8.47413     1.92147     3.44274
 O     8.90916     1.82790     6.15089
 O     6.20295     2.67655     5.20603
 O     6.45529     3.64698    10.08177
 O     8.90916     4.78891     8.81037
 O     6.20295     5.63755     7.86551
 H     4.10981    -0.18517     4.59400
 H     8.76405    -0.73886     7.59893
 H     8.76405    -1.92624     6.53246
 H     8.69298     2.82516     3.63083
 H     8.69298     1.63778     2.56436
 H     9.76101     2.15731     5.90385
 H     9.06025     1.97240     7.08098
 H     5.42733     3.09401     4.86095
 H     6.64195     3.50568     5.37386
 H     6.37905     2.95963    10.72733
 H     5.86381     3.21588     9.47077
 H     9.76101     4.99928     8.45642
 H     9.06025     3.84869     8.76621
 H     5.42733     5.93598     7.41352
 H     6.64195     5.38198     7.05908
 S     9.48813     1.14029     9.89456
 O     9.51204     2.10170     8.82415
 O     8.97567     1.65760    11.13090
 C    11.25332     0.81685    10.25467
 F    11.34819    -0.05791    11.22861
 F    11.83685     1.92266    10.61281
 O     8.97567    -0.14429     9.51249
 F    11.83685     0.34246     9.19353
 S     8.72230     5.57687     4.95497
 O     7.46449     5.10929     5.47557
 O     9.47542     6.37257     5.88135
 C     8.25942     6.75967     3.63807
 F     9.34561     7.25141     3.09058
 F     7.55806     7.72917     4.14797
 O     9.47542     4.57067     4.26295
 F     7.55806     6.14897     2.72869
 S     3.35557     2.91496     7.91868
 O     4.59030     2.42150     8.46809
 O     3.11548     4.30423     8.18420
 C     2.05409     2.05597     8.87506
 F     0.87360     2.43844     8.44923
 F     2.17166     2.35003    10.13698
 O     3.11548     2.50233     6.56579
 F     2.17166     0.76983     8.71770
 S    -2.30049     4.84605     0.18659
 O    -2.32300     3.88445     1.25720
 O    -1.78746     6.13007     0.56928
 C    -4.06429     5.16930    -0.17332
 F    -4.15916     6.04406    -1.14726
 F    -4.64781     5.64369     0.88783
 O    -1.78746     4.32817    -1.04913
 F    -4.64781     4.06349    -0.53146
 S    -1.53382     0.40984     5.12576
 O    -0.27684     0.87704     4.60558
 O    -2.28695     1.41603     5.81779
 C    -1.07094    -0.77297     6.44267
 F    -2.15657    -1.26525     6.99077
 F    -0.36985    -0.16319     7.35308
 O    -2.28695    -0.38587     4.19938
 F    -0.36985    -1.74339     5.93380
 S     3.83208     3.07137     2.16247
 O     2.59817     3.56520     1.61265
 O     4.07273     3.48345     3.51598
 C     5.13355     3.93036     1.20609
 F     6.31488     3.54827     1.63151
 F     5.01598     5.21650     1.36345
 O     4.07273     1.68155     1.89757
 F     5.01598     3.63630    -0.05583
