  136
 
 C     0.00000     0.00000     0.00000
 C     0.88459     0.88113    -0.89702
 C     0.89117    -0.92920     0.83965
 H     0.29599    -1.58339     1.48671
 H     1.51210    -1.56475     0.19898
 H     0.27959     1.51304    -1.55638
 H     1.56999    -0.35502     1.48157
 C    -0.93310    -0.84154    -0.88424
 C    -0.83665     0.89735     0.92623
 H    -1.57062    -1.50147    -0.28487
 H    -1.50188     0.30571     1.56497
 H    -1.58876    -0.20760    -1.49011
 H    -0.19847     1.50385     1.57691
 H     1.52273     1.54225    -0.30025
 H     1.54025     0.27470    -1.53139
 H    -0.36302    -1.47647    -1.57291
 H    -1.46772     1.58498     0.35097
 C    -4.90159    -2.78592    -2.18983
 C    -3.94601    -3.63519    -1.33525
 C    -4.08002    -1.83261    -3.06971
 H    -4.72399    -1.20494    -3.69447
 H    -3.45980    -1.16764    -2.45866
 H    -4.49602    -4.31931    -0.68034
 H    -3.40712    -2.38533    -3.73596
 C    -5.82454    -1.97298    -1.26837
 C    -5.74882    -3.71821    -3.07013
 H    -6.51829    -1.34983    -1.84215
 H    -6.46241    -3.15556    -3.68112
 H    -6.42231    -2.62953    -0.62730
 H    -5.11902    -4.30235    -3.74963
 H    -3.28435    -4.23627    -1.97062
 H    -3.31251    -3.00691    -0.69960
 H    -5.24996    -1.30894    -0.61220
 H    -6.32261    -4.42845    -2.46354
 C     2.23680    -4.89388     2.75589
 C     1.36665    -3.95640     3.60921
 C     1.32661    -5.81317     1.92622
 H     1.90896    -6.49965     1.30292
 H     0.68108    -6.41860     2.57140
 H     1.98809    -3.29930     4.22829
 H     0.67499    -5.23446     1.26109
 C     3.11561    -5.74656     3.68488
 C     3.11892    -4.05564     1.81995
 H     3.75019    -6.43518     3.11732
 H     3.75135    -4.68826     1.18824
 H     3.77168    -5.11870     4.29714
 H     2.50902    -3.42994     1.15903
 H     0.73483    -3.31606     2.98413
 H     0.70789    -4.52176     4.27697
 H     2.50678    -6.34885     4.36919
 H     3.77951    -3.38812     2.38590
 C    -2.75429     2.15680     4.91740
 C    -3.60973     1.28117     3.98725
 C    -3.68094     3.03580     5.77203
 H    -3.11194     3.67287     6.45710
 H    -4.29666     3.68957     5.14495
 H    -2.98375     0.66474     3.33278
 H    -4.36204     2.42664     6.37777
 C    -1.82834     3.04135     4.06960
 C    -1.91283     1.25481     5.83373
 H    -1.19869     3.68191     4.69590
 H    -1.29247     1.84337     6.51770
 H    -1.16534     2.43433     3.44367
 H    -2.54929     0.60368     6.44246
 H    -4.25460     0.60535     4.55938
 H    -4.25224     1.89741     3.34786
 H    -2.40352     3.69297     3.40116
 H    -1.24336     0.60920     5.25334
 C    -2.75978    -2.82274     2.80920
 C    -3.65795    -3.70440     3.69111
 C    -3.64037    -1.87708     1.97719
 H    -3.03646    -1.21683     1.34580
 H    -4.26087    -1.24410     2.62042
 H    -3.06343    -4.31908     4.37616
 H    -4.31399    -2.43614     1.31721
 C    -1.81735    -2.00030     3.70102
 C    -1.93474    -3.71673     1.87049
 H    -1.15881    -1.35881     3.10586
 H    -1.28598    -3.12327     1.21760
 H    -1.18338    -2.65023     4.31331
 H    -2.58321    -4.32407     1.23020
 H    -4.26984    -4.38200     3.08536
 H    -4.33945    -3.09836     4.29837
 H    -2.37888    -1.35039     4.38241
 H    -1.29186    -4.40279     2.43421
 C     2.21142     0.04671     4.92741
 C     1.31645     0.91604     4.03066
 C     1.33110    -0.90124     5.75668
 H     1.93271    -1.53279     6.41857
 H     0.74204    -1.56166     5.11132
 H     1.91248     1.53129     3.34758
 H     0.62652    -0.34419     6.38533
 C     3.17010    -0.77171     4.04862
 C     3.02231     0.95153     5.86813
 H     3.81918    -1.41449     4.65245
 H     3.65290     0.36489     6.54445
 H     3.81266    -0.11834     3.44879
 H     2.36448     1.57390     6.48423
 H     0.69402     1.59411     4.62521
 H     0.64497     0.30090     3.42123
 H     2.62192    -1.41714     3.35234
 H     3.67953     1.62468     5.30518
 C    -4.95034     2.14458    -0.03755
 C    -4.05168     1.25941    -0.91520
 C    -4.07185     3.09403     0.79166
 H    -4.67649     3.74386     1.43292
 H    -3.46314     3.73590     0.14573
 H    -4.64588     0.63745    -1.59397
 H    -3.38431     2.53821     1.43999
 C    -5.88672     2.96582    -0.93819
 C    -5.78285     1.25543     0.89837
 H    -6.56455     3.59167    -0.34843
 H    -6.43749     1.85237     1.54208
 H    -6.50070     2.31522    -1.57009
 H    -5.13937     0.65077     1.54649
 H    -3.43613     0.58862    -0.30550
 H    -3.37426     1.86218    -1.53004
 H    -5.31973     3.62860    -1.60245
 H    -6.42018     0.56604     0.33212
 C     0.08552    -4.91782    -2.17421
 C     0.97622    -4.02271    -1.29920
 C     0.97163    -5.86680    -2.99647
 H     0.37150    -6.54454    -3.61247
 H     1.60482    -6.48045    -2.34665
 H     0.37569    -3.39943    -0.62711
 H     1.63430    -5.30923    -3.66889
 C    -0.85330    -5.73691    -1.27527
 C    -0.74187    -4.03677    -3.12324
 H    -1.50669    -6.38821    -1.86534
 H    -1.39180    -4.63928    -3.76656
 H    -1.49233    -5.08541    -0.66984
 H    -0.09437    -3.43717    -3.77214
 H     1.59140    -3.35223    -1.90941
 H     1.65489    -4.61833    -0.67866
 H    -0.28842    -6.37633    -0.58669
 H    -1.38156    -3.34084    -2.56803
