  168
 
 O     0.00000     0.00000     0.00000
 N    -1.56306     1.49265    -0.54877
 H    -0.81591     2.00497    -1.08042
 N    -3.24755     1.60732     1.83435
 N    -3.80085    -0.55470     2.73788
 N    -4.90539     2.79443     0.55611
 C    -1.18091     0.35380     0.14161
 C    -2.86615     2.08132    -0.57661
 C    -3.69307     2.16224     0.57684
 C    -3.07941     0.17982     1.83282
 C    -2.13613    -0.41915     0.96180
 C    -2.02012    -1.82118     0.97722
 H    -1.30016    -2.30020     0.30611
 C    -2.79614    -2.57470     1.85338
 H    -2.75715    -3.66506     1.86336
 C    -3.63139    -1.89947     2.75892
 H    -4.19231    -2.44779     3.53243
 C    -5.31543     3.39075    -0.59414
 H    -6.27585     3.93327    -0.54479
 C    -4.56943     3.32602    -1.77295
 H    -4.94978     3.79262    -2.68242
 C    -3.33377     2.66132    -1.78781
 C    -2.54575     2.56593    -3.04161
 H    -1.55846     3.10688    -2.96033
 H    -3.07534     3.02426    -3.91272
 H    -2.33982     1.49547    -3.27559
 C    -3.84081     2.19859     3.05752
 H    -4.86047     1.85641     3.28315
 C    -2.86756     2.47336     4.19775
 H    -1.82577     2.16501     4.07605
 H    -3.23538     2.35870     5.22729
 C    -3.41836     3.62370     3.37676
 H    -4.16643     4.29158     3.83001
 H    -2.75790     4.14967     2.67995
 O    -6.98993     9.00745    -2.16982
 N    -5.43718     7.50651    -1.61107
 H    -6.19264     6.99221    -1.09514
 N    -3.74723     7.38339    -3.99909
 N    -3.21341     9.53897    -4.92733
 N    -2.10514     6.17861    -2.71984
 C    -5.81143     8.64787    -2.30424
 C    -4.13983     6.90429    -1.58811
 C    -3.31214     6.82307    -2.74053
 C    -3.91700     8.80927    -4.00375
 C    -4.84733     9.41410    -3.12213
 C    -4.95167    10.81734    -3.13425
 H    -5.65367    11.30079    -2.44821
 C    -4.18863    11.56626    -4.02508
 H    -4.21852    12.65741    -4.03115
 C    -3.37980    10.88450    -4.94942
 H    -2.83708    11.42898    -5.73860
 C    -1.69668     5.57898    -1.57064
 H    -0.73600     5.03681    -1.61919
 C    -2.44728     5.63887    -0.39442
 H    -2.07526     5.16004     0.51183
 C    -3.68010     6.30838    -0.38113
 C    -4.47765     6.39102     0.86772
 H    -5.44666     5.81975     0.78522
 H    -3.93680     5.95761     1.74470
 H    -4.71762     7.45713     1.08794
 C    -3.15700     6.78061    -5.21826
 H    -2.12950     7.10638    -5.43735
 C    -4.11966     6.51541    -6.36861
 H    -5.15554     6.84795    -6.26706
 H    -3.73104     6.60870    -7.39351
 C    -3.60755     5.36083    -5.53017
 H    -2.87272     4.66882    -5.96833
 H    -4.29209     4.86028    -4.83740
 O    -1.56075    -3.95338     4.90047
 H    -2.28126    -3.79016     5.64367
 O    -2.88750    -2.44947     6.64480
 O    -2.21315    -0.33654     6.95639
 H    -2.99459    -0.30212     7.66798
 C    -1.16268    -1.58001     5.23704
 C    -0.45522    -0.43279     4.81439
 H    -0.63204     0.50405     5.34955
 C     0.43072    -0.49977     3.75212
 H     0.95981     0.38664     3.41199
 C     0.64245    -1.72699     3.08643
 H     1.32731    -1.76577     2.22834
 C    -0.00849    -2.87873     3.49782
 H     0.16690    -3.84021     3.01953
 C    -0.92526    -2.80294     4.56791
 C    -2.14529    -1.52143     6.31522
 O    -7.47766     6.67757     4.64254
 H    -6.75817     6.48913     3.90553
 O    -6.17930     5.12552     2.92743
 O    -6.89467     3.02626     2.62674
 H    -6.10686     2.98072     1.92988
 C    -7.92405     4.30705     4.33997
 C    -8.64973     3.17993     4.78541
 H    -8.49354     2.23082     4.26659
 C    -9.52737     3.28162     5.85171
 H   -10.06524     2.40939     6.21403
 C    -9.71934     4.52540     6.49288
 H   -10.40582     4.59171     7.34760
 C    -9.05176     5.65897     6.05942
 H    -9.21243     6.63323     6.51808
 C    -8.13663     5.54541     4.99118
 C    -6.94258     4.21733     3.26346
 O   -10.64516     2.87715    -1.97879
 N    -9.08433     1.36403    -1.47553
 H    -9.82214     0.84512    -0.94383
 N    -7.43877     1.20982    -3.89744
 N    -6.86789     3.37092    -4.78585
 N    -5.78655     0.00756    -2.63885
 C    -9.47772     2.49983    -2.16226
 C    -7.77463     0.78961    -1.46024
 C    -6.98405     0.66328    -2.63470
 C    -7.60074     2.63852    -3.88615
 C    -8.54008     3.25127    -3.02021
 C    -8.66514     4.65258    -3.05913
 H    -9.38524     5.13996    -2.39449
 C    -7.89442     5.39877    -3.94501
 H    -7.94964     6.48539    -3.96392
 C    -7.03870     4.71294    -4.82426
 H    -6.45751     5.24485    -5.59067
 C    -5.33777    -0.53887    -1.48178
 H    -4.38948    -1.10096    -1.55097
 C    -6.02730    -0.39965    -0.27214
 H    -5.60958    -0.82086     0.64205
 C    -7.25889     0.27093    -0.24204
 C    -7.99449     0.43424     1.04223
 H    -7.99267     1.51529     1.33797
 H    -7.51161    -0.14845     1.86255
 H    -9.05340     0.07594     0.94701
 C    -6.76531     0.65605    -5.10207
 H    -5.70169     0.92430    -5.17570
 C    -7.61110     0.52821    -6.35912
 H    -7.11017     0.68776    -7.32626
 H    -8.64607     0.89174    -6.34931
 C    -7.23069    -0.71340    -5.57412
 H    -7.99781    -1.24146    -5.00167
 H    -6.47899    -1.38558    -6.00686
 O    -3.66103    -5.97007    -0.07359
 N    -5.21701    -4.45747    -0.60051
 H    -4.47014    -3.93451    -1.11339
 N    -6.86334    -4.29715     1.82503
 N    -7.43801    -6.45452     2.71917
 N    -8.50726    -3.08031     0.57297
 C    -4.83036    -5.59391     0.09174
 C    -6.52150    -3.86938    -0.60981
 C    -7.31321    -3.74342     0.56410
 C    -6.71063    -5.72589     1.81216
 C    -5.78256    -6.34379     0.93741
 C    -5.67332    -7.74630     0.96679
 H    -4.96486    -8.23716     0.29293
 C    -6.44337    -8.48937     1.85566
 H    -6.40230    -9.57746     1.86788
 C    -7.27778    -7.79826     2.75053
 H    -7.84989    -8.32795     3.52494
 C    -8.94997    -2.52169    -0.57996
 H    -9.89567    -1.95548    -0.50893
 C    -8.25739    -2.65339    -1.78875
 H    -8.66663    -2.21613    -2.69937
 C    -7.03274    -3.33615    -1.82385
 C    -6.29880    -3.49766    -3.10923
 H    -6.31794    -4.57699    -3.41210
 H    -6.77608    -2.90356    -3.92496
 H    -5.23735    -3.15189    -3.00857
 C    -7.52342    -3.73111     3.03101
 H    -8.59171    -3.97799     3.10807
 C    -6.67044    -3.61680     4.28483
 H    -7.17135    -3.76180     5.25397
 H    -5.64442    -4.00437     4.27133
 C    -7.02705    -2.36952     3.49739
 H    -6.25203    -1.86093     2.91762
 H    -7.76146    -1.67945     3.93133
