   81
 
Ni     0.00000     0.00000     0.00000
Ni   -13.35141    -4.19526    -0.28018
Ni    -6.83846    -0.16014    -0.10972
Cl     6.21197     2.04317     1.11003
Cl    -5.16026    -1.65027    -1.10165
Cl    -7.47838    -2.33302     0.85213
Cl     0.64754     0.18719     2.34420
Cl    -1.77432     1.44988     0.90748
Cl   -12.67897    -1.99910    -1.19394
Ni    -0.02595     1.99035    -3.25048
Ni   -13.38251    -2.19609    -3.53429
Ni    -6.91553     1.82456    -3.36816
Cl     6.19219     4.04359    -2.13223
Cl    -5.23794     0.29216    -4.26513
Cl    -7.47420    -0.39755    -2.47780
Cl     0.61942     2.17673    -0.90707
Cl    -1.80005     3.44046    -2.34616
Cl   -12.70373     0.00770    -4.43076
Ni    -0.05508     3.97993    -6.50347
Ni   -13.40394    -0.20554    -6.78006
Ni    -6.90670     3.81905    -6.61247
Cl     6.16199     6.02352    -5.38973
Cl    -5.29506     2.36945    -7.52194
Cl    -7.57579     1.69051    -5.74872
Cl     0.59342     4.16611    -4.15958
Cl    -1.82760     5.43143    -5.59664
Cl   -12.73671     1.99006    -7.68192
Ni     1.10673    -3.64301    -0.00726
Ni   -12.24573    -7.83658    -0.28485
Ni    -5.78543    -3.81700    -0.13179
Cl     7.31660    -1.59375     1.10139
Cl    -4.07826    -5.36232    -0.94028
Cl    -6.37628    -6.05200     0.74404
Cl     1.74892    -3.45528     2.33795
Cl    -0.67141    -2.19487     0.89878
Cl   -11.57703    -5.65786    -1.17525
Ni     1.08153    -1.65239    -3.25700
Ni   -12.28327    -5.84618    -3.53910
Ni    -5.77314    -1.81858    -3.37112
Cl     7.29183     0.40136    -2.15743
Cl    -4.13780    -3.17268    -4.28117
Cl    -6.50370    -3.86437    -2.48730
Cl     1.72113    -1.46368    -0.91235
Cl    -0.70107    -0.20556    -2.35515
Cl   -11.61071    -3.64253    -4.43229
Ni     1.05093     0.33681    -6.51010
Ni   -12.30435    -3.85084    -6.78861
Ni    -5.84887     0.15885    -6.63108
Cl     7.26836     2.39978    -5.40991
Cl    -4.15977    -1.31740    -7.60833
Cl    -6.46567    -2.02260    -5.65215
Cl     1.69485     0.52616    -4.16463
Cl    -0.72790     1.78485    -5.60528
Cl   -11.62762    -1.66018    -7.68067
Ni     2.20662    -7.28681    -0.01528
Ni   -11.14624   -11.48043    -0.30535
Ni    -4.64192    -7.45158    -0.13064
Cl     8.42394    -5.24283     1.08456
Cl    -2.99382    -8.87268    -1.02809
Cl    -5.26595    -9.58424     0.74833
Cl     2.85363    -7.10006     2.33012
Cl     0.43254    -5.83824     0.89211
Cl   -10.47158    -9.28658    -1.19287
Ni     2.18310    -5.29592    -3.26481
Ni   -11.18304    -9.48449    -3.55052
Ni    -4.74010    -5.47803    -3.39286
Cl     8.38976    -3.22845    -2.17291
Cl    -2.97132    -6.98568    -4.41805
Cl    -5.35842    -7.72989    -2.34635
Cl     2.82681    -5.11018    -0.91999
Cl     0.41084    -3.84646    -2.36091
Cl   -10.50438    -7.28674    -4.43894
Ni     2.15289    -3.30739    -6.51640
Ni   -11.20998    -7.49767    -6.79855
Ni    -4.73045    -3.48362    -6.63099
Cl     8.36227    -1.25718    -5.42198
Cl    -3.01732    -5.00384    -7.50789
Cl    -5.34113    -5.74148    -5.86236
Cl     2.80097    -3.11900    -4.17268
Cl     0.38038    -1.85692    -5.61145
Cl   -10.53741    -5.31868    -7.69285
