   96
 
Nb     0.00000     0.00000     0.00000
Nb    -1.14289    -5.08420    -5.71356
Nb     2.29284    -8.89373    -2.18418
Nb    10.98297    -9.37998    -2.13514
Nb     4.75219   -12.80699    -1.60833
Nb     8.04103    -5.87785    -1.34138
Nb     2.47653    -3.90438     0.54994
Nb    -4.09817    -1.59251    -4.88783
Br     1.53676    -1.98720     1.91848
Br    -1.36120    -2.58606    -6.09560
Br     3.22446   -10.82321    -3.54085
Br     8.25181    -8.37492    -0.94294
Br     0.90523    -1.90690    -1.40745
Br    -3.93351    -4.09523    -4.49873
Br     3.85682   -10.88451    -0.21707
Br    10.82929    -6.87975    -2.54091
Br    -1.72556    -1.62460     0.81344
Br    -2.82724    -5.28682    -7.56683
Br     4.67336    -8.09256    -2.13269
Br    11.46384    -8.80874     0.25518
Br     6.48349   -11.19279    -2.43208
Br     9.72180    -5.67092     0.51516
Br     0.09810    -4.71196     0.48685
Br    -4.57430    -2.14899    -7.28264
Br     9.35577    -9.59751    -4.04063
Br     0.61271   -10.56635    -1.35753
Br    -0.70404    -4.46438    -3.32384
Br     2.36783     0.84384     0.00631
Br    -2.46749    -1.38630    -2.98353
Br     4.14855    -2.22199    -0.26896
Br     7.60823    -6.51641    -3.72765
Br     2.38209   -13.64336    -1.61429
Br    -1.18355     1.57069    -1.42819
Br    -2.24142    -7.14249    -4.76298
Br     2.12529    -7.88362     0.11429
Br    13.10475   -10.18512    -3.00150
Br     5.93000   -14.37177    -0.16841
Br     9.15157    -3.82955    -2.29736
Br     2.65246    -4.90114    -1.75453
Br    -6.22195    -0.81255    -4.00459
Br    -3.00636     0.47980    -5.79335
Br     3.56132    -5.39051     2.15159
Br     5.91116    -5.27473    -0.32078
Br     4.90903   -13.82870    -3.89766
Br     9.88098   -11.43642    -1.20606
Br     1.21475    -7.40119    -3.78243
Br     0.98560    -5.68344    -6.73926
Br    -0.15535     1.01248     2.29393
Nb    -2.16481    -1.83137     5.46305
Nb    -3.29091    -6.90980    -0.29825
Nb     0.12262   -10.71624     3.26882
Nb     8.81595   -11.20213     3.30430
Nb     2.59222   -14.62312     3.82817
Nb     5.88763    -7.69250     4.07839
Nb     0.31730    -5.73300     6.01469
Nb    -6.24996    -3.41820     0.52095
Br    -0.61740    -3.81291     7.38400
Br    -3.51031    -4.41241    -0.68623
Br     1.03496   -12.65302     1.90966
Br     6.07896   -10.19337     4.45872
Br    -1.26926    -3.74952     4.06617
Br    -6.08065    -5.91968     0.90868
Br     1.70425   -12.69758     5.22070
Br     8.67797    -8.69888     2.91063
Br    -3.88749    -3.45410     6.28681
Br    -4.97353    -7.11167    -2.15423
Br     2.50205    -9.91561     3.29362
Br     9.26924   -10.64783     5.70481
Br     4.31026   -13.00682     2.98071
Br     7.54376    -7.50769     5.95688
Br    -2.05968    -6.54698     5.98078
Br    -6.71921    -3.97583    -1.87439
Br     7.21101   -11.40117     1.37796
Br    -1.55307   -12.38787     4.10792
Br    -2.85013    -6.27421     2.08560
Br     0.20253    -0.98941     5.46638
Br    -4.62114    -3.20512     2.42453
Br     1.98885    -4.05152     5.19324
Br     5.47271    -8.31592     1.68380
Br     0.22420   -15.46445     3.85339
Br    -3.35265    -0.27250     4.02464
Br    -4.39509    -8.96046     0.65788
Br    -0.02825    -9.70653     5.56886
Br    10.94471   -12.00253     2.45113
Br     3.79149   -16.17279     5.26657
Br     7.01360    -5.64483     3.13820
Br     0.47799    -6.72506     3.70814
Br    -8.37412    -2.63589     1.40419
Br    -5.14399    -1.35700    -0.39273
Br     1.42439    -7.21264     7.60268
Br     3.75541    -7.10434     5.10017
Br     2.72395   -15.64853     1.53992
Br     7.69727   -13.26025     4.20660
Br    -0.95940    -9.23300     1.66549
Br    -1.15315    -7.51273    -1.30274
Br    -2.31492    -0.82673     7.76006
