   64
 
 N     0.00000     0.00000     0.00000
 N    -3.05647    -2.82267    -1.77585
 N    -4.12900     0.64472    -1.71597
 N    -4.10486    -1.30531     1.33758
 N    -1.04506    -0.33291    -0.20938
 N    -2.58677    -3.50193    -1.02434
 N    -3.54356     0.59378    -2.66543
 N    -4.10039    -0.26432     1.74144
 N     4.60739    -3.16739    -0.85492
 N     1.55012    -5.98837    -2.62946
 N     0.47794    -2.52122    -2.56999
 N     0.49563    -4.47215     0.48289
 N     3.56200    -3.50040    -1.06231
 N     2.02036    -6.66799    -1.87865
 N     1.06205    -2.57273    -3.52028
 N     0.50218    -3.43165     0.88807
 N     2.02841     1.59508     5.03169
 N    -1.02790    -1.22738     3.25506
 N    -2.10060     2.23806     3.31482
 N    -2.07843     0.28975     6.36706
 N     0.98364     1.26258     4.82070
 N    -0.55940    -1.90837     4.00580
 N    -1.51515     2.18958     2.36521
 N    -2.07359     1.33041     6.77149
 N     6.63523    -1.57181     4.17614
 N     3.57900    -4.39355     2.40094
 N     2.50691    -0.92777     2.46110
 N     2.52390    -2.87660     5.51262
 N     5.59018    -1.90478     3.96750
 N     4.04805    -5.07471     3.15113
 N     3.09138    -0.97761     1.51091
 N     2.52629    -1.83662     5.91894
 N     2.57643     4.40533    -2.43690
 N    -0.48126     1.58135    -4.21283
 N    -1.55196     5.04605    -4.15207
 N    -1.53058     3.09945    -1.09968
 N     1.53207     4.07106    -2.64735
 N    -0.01008     0.90223    -3.46205
 N    -0.96681     4.99669    -5.10176
 N    -1.52922     4.14049    -0.69583
 N     7.18340     1.23761    -3.29128
 N     4.12547    -1.58478    -5.06602
 N     3.05463     1.88129    -5.00639
 N     3.07039    -0.06737    -1.95434
 N     6.13865     0.90374    -3.50034
 N     4.59719    -2.26487    -4.31649
 N     3.63892     1.83074    -5.95658
 N     3.07469     0.97341    -1.54975
 N     4.60452     5.99871     2.59401
 N     1.54793     3.17741     0.81860
 N     0.47655     6.63797     0.87826
 N     0.49764     4.69427     3.93049
 N     3.55987     5.66632     2.38250
 N     2.01819     2.49671     1.56857
 N     1.06162     6.59287    -0.07171
 N     0.49589     5.73508     4.33468
 N     9.21085     2.83177     1.73901
 N     6.15514     0.01083    -0.03519
 N     5.08391     3.47484     0.02437
 N     5.09865     1.52798     3.07597
 N     8.16605     2.49890     1.52922
 N     6.62562    -0.67072     0.71382
 N     5.66798     3.42602    -0.92612
 N     5.09881     2.56823     3.48171
