  480
 
 K     0.00000     0.00000     0.00000
 C     9.92061    -0.20594    -0.27604
 C    10.74655     1.09364    -0.21536
 C    13.09557     1.42848     0.12304
 C    13.98108     0.39442     0.83007
 C    14.50624    -0.67179    -0.12246
 C    16.93355    -0.70832    -3.76954
 C    16.25122     1.67030    -5.68104
 C    15.97795     0.43159    -3.40090
 C    15.38823     2.78355    -6.29798
 C    13.95929     6.16813    -2.73855
 C     8.58509    -0.06471     0.46135
 C    10.93213     1.69118     1.18944
 C    12.32982     2.32573     1.11562
 C    15.56288    -1.58112     0.48805
 C    15.30828     1.04685    -4.63905
 C    14.36765     3.16349    -5.20057
 C    14.63846     4.52808    -4.56435
 C    13.72964     4.80549    -3.36595
 C     9.62820    -0.55756    -1.72585
 K    11.91350     0.95139    -3.54957
 O    12.08502     0.72489    -0.66400
 O    15.24186     0.05881    -1.19029
 O    14.04036    -0.96644    -2.80221
 O     9.20768     0.17828    -2.59867
 O    14.49617     2.15438    -4.14539
 O    12.35418     4.84593    -3.93244
 O     9.85188    -1.88787    -1.94441
 O     9.77020     2.33367    -4.95496
 O    12.54802     1.13171    -6.45098
 O    11.55224     3.56792    -2.24987
 O    11.77120    -1.67442    -4.71034
 C    11.34769     4.20725    -3.26403
 C     9.47127    -2.46455    -3.26363
 C     9.15750     3.20730    -3.96022
 C     8.73508     1.66284    -5.73921
 C    11.82172     0.26011    -6.88837
 C    12.78405    -1.77700    -5.74618
 C    11.94652    -2.76098    -3.74164
 C    10.01186     4.48890    -3.93486
 C     8.12792    -3.13140    -3.05595
 C    10.58843    -3.45087    -3.60697
 C     7.70067     3.40219    -4.41662
 C     8.85701     2.12288    -7.19888
 C     7.38785     2.06732    -5.10966
 C    12.12828    -1.22526    -7.02159
 O    10.63739     0.53657    -7.50483
 C    13.19577    -3.25949    -5.77854
 C    13.04324    -3.68769    -4.31040
 C     9.30859     5.59656    -3.14273
 C    10.27649     1.96443    -7.72906
 C    13.09172    -1.30116    -8.20849
 C    10.40904     2.15737    -9.23235
 C    14.93933    -0.20994    -2.49295
 C     9.53913    -7.80719     3.31690
 C    11.18058   -12.46177     0.26623
 C    12.06827   -11.20715     0.32620
 C    12.53917    -9.56218     1.99478
 C    12.45546    -9.80658     3.50722
 C    11.06143    -9.56656     4.07722
 C     8.33277    -6.08246     4.54845
 C     8.33669    -4.29295     2.04928
 C     9.30296    -6.30461     3.38196
 C     8.54663    -3.90597     0.57762
 C    13.50072    -4.42317    -0.54169
 C    11.79057   -13.53245    -0.64548
 C    13.51356   -11.43397     0.79359
 C    13.86916   -10.06594     1.39934
 C    10.97310    -9.73893     5.58228
 C     8.70166    -5.78854     2.06065
 C     9.66472    -4.84818     0.08777
 C    11.03378    -4.16021     0.05149
 C    12.17008    -5.11899    -0.28923
 C     9.81224   -12.12939    -0.31118
 K     9.43978    -8.74540     0.13304
 O    11.47853   -10.34385     1.35084
 O    10.76106    -8.12425     3.83545
 O     8.74511    -8.65568     2.96061
 O     9.52816   -11.40435    -1.24252
 O     9.74322    -5.94562     1.05726
 O    11.81791    -5.74208    -1.59115
 O     8.87498   -12.89242     0.32758
 O     9.41815    -8.55402    -2.70677
 O     7.21348    -6.95118    -0.53559
 O    12.03442    -7.80398    -0.69688
 O     7.01699   -10.08932     0.81567
 C    11.80014    -7.11343    -1.66475
 C     7.45418   -12.81137    -0.10539
 C    10.78102    -8.88335    -3.10704
 C     8.46717    -9.43690    -3.38273
 C     6.38020    -7.78566    -0.83016
 C     6.15038    -9.03597     1.33234
 C     7.13471   -11.16484     1.80713
 C    11.53776    -7.54090    -3.10252
 C     7.14440   -14.19691    -0.65668
 C     6.66849   -12.46747     1.15257
 C    10.64182    -9.58128    -4.46970
 C     7.45001    -8.54813    -4.10474
 C     9.29535   -10.31440    -4.34685
 C     5.39867    -8.47040     0.11226
 O     6.14667    -8.16172    -2.12031
 C     5.28104    -9.71733     2.40142
 C     6.24796   -10.75266     2.99874
 C    12.89717    -7.65772    -3.79804
 C     6.87901    -7.45114    -3.20698
 C     4.38537    -7.39623     0.52533
 C     5.84154    -6.59041    -3.89732
 C     7.99372    -1.62462     8.25222
 C     6.44091     2.06236    12.03052
 C     5.35351     1.31301    11.23136
 C     5.29514    -0.96133    10.47459
 C     6.13689    -2.03202    11.18118
 C     7.54825    -2.13027    10.61367
 C     9.17700    -2.92432     6.56208
 C     7.36768    -1.58912     4.37313
 C     7.84676    -2.22431     6.86073
 C     6.43110    -0.51228     3.80314
 C     1.93376    -0.73041     6.17529
 C     5.83256     2.88994    13.16626
 C     4.32232     0.55848    12.08283
 C     3.97817    -0.66164    11.21473
 C     8.35079    -3.30547    11.14275
 C     7.54671    -1.12633     5.82856
 C     5.59086    -0.03890     5.00984
 C     4.17309    -0.60970     4.99877
 C     3.35492    -0.21246     6.22706
 C     7.17927     3.00301    11.09151
 K     6.75919     1.59790     8.04587
 O     6.05494     0.28986    10.46756
 O     7.37393    -2.42875     9.16193
 O     8.64332    -0.65283     8.58407
 O     6.70763     3.70007    10.21635
 O     6.25664    -0.56111     6.20891
 O     3.26049     1.27661     6.17751
 O     8.51391     3.01161    11.39004
 O     5.60135     4.05824     7.08894
 O     7.70706     2.01662     5.26945
 O     3.84121     1.45090     8.35754
 O     9.54544     2.29076     8.17016
 C     3.51233     1.98674     7.31777
 C     9.41307     3.87064    10.57265
 C     4.36498     4.27833     7.82882
 C     6.37294     5.29751     7.01429
 C     8.56330     2.85671     5.47398
 C    10.12099     1.61410     7.01128
 C    10.16653     1.75805     9.38772
 C     3.28104     3.47445     7.08167
 C     9.77633     5.05787    11.44520
 C    10.59604     2.96670    10.22566
 C     4.15967     5.80321     7.86043
 C     6.49149     5.70669     5.54096
 C     5.60151     6.33448     7.85461
 C    10.01935     2.61263     5.84716
 O     8.33942     4.18268     5.25459
 C    11.54135     1.21651     7.44229
 C    11.35358     0.88415     8.92986
 C     1.88444     3.84023     7.59431
 C     7.02518     4.58282     4.66146
 C    10.67681     2.05050     4.58161
 C     7.35766     5.00347     3.24094
 C    -1.95517    -1.28679     2.41892
 C     3.50081    -1.73068     1.01584
 C     2.46721    -2.54349     0.21029
 C     0.43399    -3.62136     0.88677
 C     0.21019    -4.08414     2.33374
 C    -0.36872    -2.98033     3.21628
 C    -4.18200    -0.66879     3.20676
 C    -4.94666     0.26753     0.41203
 C    -3.39824    -1.11387     1.96688
 C    -4.75560     0.64979    -1.06227
 C    -3.26883    -3.57421    -3.50907
 C     4.92681    -2.05041     0.56018
 C     2.69991    -4.06089     0.13792
 C     1.27217    -4.62394     0.06727
 C    -0.70795    -3.42956     4.62605
 C    -3.50586    -0.05618     0.85415
 C    -3.57614    -0.22900    -1.52611
 C    -4.03929    -1.50608    -2.23398
 C    -2.87389    -2.41900    -2.60614
 C     3.27985    -0.24110     0.79123
 O     1.20322    -2.38148     0.93142
 O    -1.67163    -2.60981     2.59259
 O    -1.16383    -0.40959     2.70650
 O     2.88838     0.33290    -0.20401
 O    -2.85400    -0.62591    -0.31510
 O    -1.95555    -1.57746    -3.42091
 O     3.68165     0.45365     1.90498
 O     0.68305     1.12220    -2.56151
 O    -1.89756     2.29357    -0.33314
 O    -0.21666    -2.07166    -2.06677
 O     0.67554     1.99081     1.98792
 C    -0.64290    -1.48379    -3.03799
 C     3.59087     1.93874     1.88566
 C     1.29020     0.07862    -3.38688
 C     1.52289     2.31831    -2.56259
 C    -1.09866     3.16365    -0.04586
 C    -0.56383     2.64712     2.37383
 C     1.42937     1.61303     3.18779
 C     0.11496    -0.65299    -4.06352
 C     5.02459     2.44131     1.91861
 C     2.78768     2.31803     3.12716
 C     2.24670     0.82313    -4.33309
 C     0.68436     3.49345    -3.08669
 C     2.72906     2.00194    -3.47297
 C    -0.81754     3.74797     1.32858
 O    -0.40497     3.85795    -0.99308
 C    -0.32798     3.15974     3.80877
 C     0.58336     2.07073     4.39275
 C     0.61106    -1.62457    -5.13808
 C    -0.69016     3.57981    -2.42638
 C    -2.06505     4.55661     1.70000
 C    -1.53334     4.74640    -2.91242
 H    16.35808    -1.58747    -4.15898
 H    17.51834    -1.02944    -2.88133
 H    17.63743    -0.39689    -4.57834
 H    13.17466     6.36712    -1.96696
 H    14.95128     6.20438    -2.23596
 H    13.90583     6.97875    -3.49943
 H     7.88291    -0.87177     0.14982
 H     8.77008    -0.16443     1.56056
 H     8.11709     0.91966     0.24390
 H    15.81477    -2.40474    -0.21527
 H    15.18480    -2.00027     1.44717
 H    16.49177    -0.99599     0.68886
 H     7.79801    -3.65922    -3.97723
 H     8.16862    -3.86723    -2.22288
 H     7.34619    -2.37071    -2.79905
 H     8.50226     6.04348    -3.77647
 H     8.86149     5.18402    -2.21120
 H    10.02927     6.39857    -2.86617
 H    13.45729    -2.33650    -8.36163
 H    13.98123    -0.65558    -8.00195
 H    12.57843    -0.95848    -9.13739
 H     9.89306     1.32547    -9.77047
 H     9.94457     3.12184    -9.53323
 H    11.48179     2.15211    -9.52752
 H     7.38693    -6.64469     4.36286
 H     8.78904    -6.44991     5.49729
 H     8.09645    -5.00214     4.65458
 H    14.28672    -5.18080    -0.76028
 H    13.78647    -3.82697     0.35225
 H    13.41362    -3.74056    -1.41836
 H    11.07216   -14.36985    -0.78792
 H    12.73342   -13.91968    -0.20165
 H    12.03169   -13.09500    -1.65029
 H    11.06886   -10.81388     5.85838
 H     9.97284    -9.38003     5.93455
 H    11.75848    -9.16078     6.11193
 H     6.04172   -14.31960    -0.76030
 H     7.52509   -14.97152     0.04990
 H     7.63703   -14.33893    -1.64276
 H    12.76155    -7.82925    -4.88682
 H    13.48140    -8.51580    -3.36586
 H    13.49142    -6.72952    -3.64260
 H     3.65168    -7.81697     1.24555
 H     4.91312    -6.53586     1.00004
 H     3.84011    -7.01722    -0.37193
 H     4.99336    -7.19485    -4.27677
 H     5.42212    -5.83690    -3.17223
 H     6.30592    -6.03052    -4.73554
 H     9.19533    -3.30624     5.51818
 H     9.33263    -3.76848     7.26932
 H    10.03223    -2.20478     6.66334
 H     1.92386    -1.84102     6.21111
 H     1.36742    -0.36193     7.07938
 H     1.40283    -0.38650     5.26658
 H     5.50031     2.19895    13.97661
 H     6.58488     3.59411    13.58845
 H     4.96113     3.47587    12.79650
 H     7.85322    -4.26468    10.87919
 H     8.42896    -3.23586    12.25823
 H     9.37315    -3.29890    10.70535
 H    10.10633     4.72053    12.45092
 H     8.88592     5.72939    11.56762
 H    10.59460     5.64407    10.97570
 H     1.12839     3.10375     7.23782
 H     1.87116     3.84393     8.70778
 H     1.60559     4.85143     7.21355
 H    10.08154     1.18603     4.19309
 H    11.70076     1.66731     4.79943
 H    10.73658     2.84007     3.80058
 H     7.69668     4.12469     2.65052
 H     6.44077     5.43711     2.76378
 H     8.16299     5.77073     3.23593
 H    -5.25945    -0.54603     2.95839
 H    -4.08986    -1.43494     4.01143
 H    -3.77391     0.30093     3.57621
 H    -4.07404    -4.17026    -3.00934
 H    -3.65476    -3.19271    -4.48035
 H    -2.39199    -4.22991    -3.70154
 H     5.22141    -3.06596     0.90120
 H     5.64608    -1.30142     0.95158
 H     4.97621    -2.03921    -0.56622
 H    -1.39307    -4.30546     4.62060
 H    -1.21820    -2.60621     5.18492
 H     0.21656    -3.70462     5.17890
 H     5.55174     2.15523     0.98275
 H     5.56721     2.00581     2.78743
 H     5.02205     3.55563     2.02106
 H    -0.22921    -2.20717    -5.57130
 H     1.34531    -2.34409    -4.69293
 H     1.13540    -1.06870    -5.94841
 H    -2.95449     3.88884     1.76928
 H    -1.89675     5.04374     2.68378
 H    -2.26935     5.33361     0.92627
 H    -1.89358     4.55984    -3.94652
 H    -2.42300     4.88988    -2.24888
 H    -0.95611     5.69846    -2.89935
 H    10.52320    -1.03159     0.20258
 H    10.36921     1.86811    -0.92697
 H    13.68301     1.99846    -0.62762
 H    13.39813    -0.11719     1.63742
 H    14.84156     0.94688     1.29749
 H    13.67144    -1.24160    -0.59210
 H    16.56394     0.90966    -6.43399
 H    17.15444     2.09806    -5.19751
 H    16.51987     1.24004    -2.84634
 H    14.83054     2.39810    -7.18357
 H    16.01040     3.64829    -6.60385
 H    10.92174     0.87953     1.95669
 H    10.14754     2.43907     1.41945
 H    12.26652     3.36707     0.71938
 H    12.82126     2.34826     2.10944
 H    14.62163     0.32952    -5.14035
 H    13.31622     3.09504    -5.56653
 H    14.46151     5.31413    -5.34777
 H    15.69606     4.57414    -4.21286
 H    13.77869     3.98750    -2.61084
 H     9.41455    -1.63553    -4.00593
 H     9.19964     2.65742    -2.98834
 H     8.96721     0.58146    -5.64046
 H    13.65647    -1.16252    -5.43119
 H    12.25240    -2.26706    -2.79066
 H    10.18352     4.82651    -4.99505
 H    10.32110    -3.94085    -4.57322
 H    10.67145    -4.23691    -2.80987
 H     7.02715     3.59571    -3.55945
 H     7.62465     4.24554    -5.14972
 H     8.13462     1.52612    -7.81485
 H     8.58049     3.20635    -7.27127
 H     6.59187     2.16696    -5.87520
 H     7.07628     1.30865    -4.35280
 H    11.18260    -1.78871    -7.22816
 H    12.50869    -3.84857    -6.42060
 H    14.24910    -3.36852    -6.12585
 H    12.75935    -4.75620    -4.22317
 H    14.00118    -3.51779    -3.76463
 H    10.99076     2.59991    -7.15464
 H    11.05043   -12.86051     1.30659
 H    12.05217   -10.64503    -0.63734
 H    12.32177    -8.50166     1.74038
 H    12.72726   -10.86782     3.72498
 H    13.20226    -9.13401     4.00402
 H    10.29291   -10.17901     3.54865
 H     7.29037    -4.12141     2.36972
 H     9.03367    -3.70462     2.69248
 H    10.27659    -5.77695     3.56408
 H     7.61236    -4.08115    -0.00632
 H     8.84311    -2.83916     0.47911
 H    13.57515   -12.23638     1.55476
 H    14.18636   -11.67202    -0.06588
 H    14.20656    -9.38192     0.57618
 H    14.67458   -10.14209     2.15330
 H     7.83111    -6.40136     1.72675
 H     9.42664    -5.33455    -0.88241
 H    10.98192    -3.33232    -0.70540
 H    11.24322    -3.71033     1.05579
 H    12.26229    -5.92637     0.47500
 H     7.36428   -12.01623    -0.87900
 H    11.19684    -9.59166    -2.35023
 H     7.98364   -10.02804    -2.57289
 H     6.81001    -8.26761     1.80269
 H     8.21464   -11.20904     2.06680
 H    10.90456    -6.76295    -3.60636
 H     5.58219   -12.37378     0.87370
 H     6.78703   -13.29062     1.90556
 H    11.48342   -10.28901    -4.63806
 H    10.59585    -8.83195    -5.28802
 H     6.61390    -9.20268    -4.47289
 H     7.93492    -8.05036    -4.97684
 H     8.80087   -10.43184    -5.33136
 H     9.45223   -11.32264    -3.89252
 H     4.88711    -9.31975    -0.41421
 H     4.41598   -10.24392     1.92639
 H     4.92305    -9.00166     3.16507
 H     5.70070   -11.61768     3.42229
 H     6.88229   -10.28945     3.79440
 H     7.68562    -6.83599    -2.74339
 H     7.15947     1.30694    12.45503
 H     4.84464     1.98100    10.49192
 H     5.15151    -1.21257     9.40257
 H     5.61131    -3.01650    11.06137
 H     6.22215    -1.78967    12.27118
 H     8.09352    -1.16310    10.71280
 H     6.89143    -2.58966     4.32603
 H     8.34085    -1.60655     3.82845
 H     7.00160    -2.96020     6.86548
 H     5.78823    -0.90892     2.99125
 H     7.03423     0.34062     3.41043
 H     4.78888     0.21548    13.03736
 H     3.43455     1.19032    12.28451
 H     3.64579    -1.52218    11.82799
 H     3.17042    -0.40728    10.48285
 H     8.29736    -0.30420     5.86479
 H     5.58706     1.06953     5.11798
 H     4.22660    -1.72470     4.97378
 H     3.66156    -0.24841     4.06692
 H     3.86159    -0.49705     7.17758
 H     8.86022     4.19074     9.65879
 H     4.53665     3.88161     8.85966
 H     7.36538     5.03352     7.43723
 H     9.51773     0.69468     6.83047
 H     9.37836     1.16247     9.90202
 H     3.35844     3.69651     5.98218
 H    11.07924     2.58351    11.16254
 H    11.33773     3.56811     9.64934
 H     3.61847     6.15408     6.94785
 H     3.60648     6.12017     8.76665
 H     5.48035     5.99093     5.14796
 H     7.15809     6.60624     5.48102
 H     6.00167     6.36391     8.89708
 H     5.67135     7.34815     7.41093
 H    10.49635     3.57864     6.15391
 H    11.89935     0.32540     6.86759
 H    12.24951     2.05950     7.31442
 H    11.09105    -0.19586     9.03724
 H    12.26375     1.09992     9.52359
 H     6.34633     3.69857     4.68770
 H     3.37865    -1.95893     2.10696
 H     2.32039    -2.12121    -0.81414
 H    -0.52664    -3.35352     0.39565
 H    -0.47599    -4.97132     2.30876
 H     1.18367    -4.39939     2.77866
 H     0.28715    -2.07824     3.21858
 H    -5.59830    -0.63530     0.49066
 H    -5.37999     1.10018     0.99955
 H    -3.79285    -2.08951     1.57289
 H    -5.66306     0.45696    -1.67136
 H    -4.48059     1.72836    -1.13545
 H     3.28908    -4.31854    -0.77995
 H     3.22755    -4.43519     1.03783
 H     1.20783    -5.65294     0.47250
 H     0.92576    -4.63032    -0.99442
 H    -2.95453     0.88115     1.10812
 H    -2.83528     0.33060    -2.13609
 H    -4.72436    -2.08012    -1.55770
 H    -4.60640    -1.20954    -3.15407
 H    -2.32306    -2.76655    -1.70177
 H     3.06612     2.24524     0.95183
 H     1.85734    -0.60056    -2.70502
 H     1.81172     2.47409    -1.50023
 H    -1.36342     1.86822     2.36303
 H     1.53801     0.50925     3.12606
 H    -0.57947     0.10430    -4.51131
 H     3.35912     2.05065     4.05520
 H     2.63293     3.42747     3.11134
 H     3.08589     0.15908    -4.65001
 H     1.70605     1.19136    -5.23047
 H     0.52619     3.38424    -4.18495
 H     1.25612     4.44078    -2.88587
 H     3.59873     1.68550    -2.84843
 H     3.02433     2.87298    -4.09075
 H     0.08789     4.41195     1.27857
 H    -1.27286     3.25580     4.37803
 H     0.20958     4.13779     3.79913
 H    -0.03407     1.22477     4.77726
 H     1.22694     2.44973     5.21497
 H    -1.24165     2.61317    -2.49495
 N     4.09892    -2.70839    -3.90798
 N    -0.86012    -2.05780     8.25706
 C    -1.52840    -2.83721     7.72920
 N    11.40506    -1.55473     3.79634
 C     3.61095    -2.16890    -4.80371
 S     4.85434    -3.48438    -2.61866
 N     3.27479     6.52586     3.37917
 C     4.08401     5.98748     2.75871
 S     2.08046     7.30635     4.28002
 S     0.09467    -0.92026     9.06559
 C    10.59994    -1.48648     2.97202
 S    12.56465    -1.65386     5.02025
