  160
 
 O     0.00000     0.00000     0.00000
 O     1.80868     0.62651     6.53742
 C    -0.93826    -1.13785     4.97592
 C    -0.02101    -0.68786     5.91349
 C     1.10162     0.61323     4.19622
 C     1.00242     0.21538     5.52091
 C     2.81449     1.57683     6.20872
 C    -0.84974    -0.70357     3.64853
 C     0.16503     0.15776     3.26090
 C    -1.15171    -1.70566     7.72326
 H    -1.73197    -1.83145     5.25631
 H    -1.58434    -1.06065     2.92546
 H     0.24746     0.48434     2.22006
 H     1.90490     1.26710     3.86647
 H    -1.24121    -2.72012     7.31426
 H    -2.05507    -1.11786     7.51795
 H    -0.95522    -1.74587     8.80158
 H     3.56793     1.13437     5.54766
 H     3.25215     1.79986     7.19417
 H     2.38578     2.48288     5.76887
 O     0.01548    -1.05992     7.22272
 O     1.81942     1.65595     0.66185
 C     2.71143     1.77025    -1.61019
 C     1.81920     1.30872    -0.65485
 C     0.65416     0.02656    -2.35753
 C     0.78550     0.41136    -1.03231
 C    -0.97648    -0.98823    -0.30283
 C     2.58714     1.35531    -2.94102
 C     1.56248     0.49907    -3.31233
 C     2.98945     2.31917     1.13135
 H     3.51293     2.45873    -1.34146
 H     3.30109     1.72316    -3.67952
 H     1.44848     0.18963    -4.35501
 H    -0.15431    -0.62882    -2.67176
 H     3.05893     3.33208     0.71405
 H     3.89330     1.73903     0.90880
 H     2.81801     2.36558     2.21361
 H    -1.74188    -0.58692    -0.97626
 H    -1.41019    -1.20024     0.68616
 H    -0.51422    -1.88931    -0.71852
 O    -2.73018    -3.22594     1.86056
 O    -0.90500    -4.87853     2.54183
 C    -3.67077    -3.15286     4.11314
 C    -2.74957    -3.58744     3.17249
 C    -1.59134    -4.85694     4.88894
 C    -1.70940    -4.47244     3.56212
 C     0.07787    -5.85488     2.86303
 C    -3.56416    -3.57479     5.44309
 C    -2.52575    -4.40744     5.82935
 C    -3.88686    -2.55011     1.37745
 H    -4.48649    -2.48608     3.83322
 H    -4.30389    -3.23337     6.16797
 H    -2.42290    -4.71694     6.87321
 H    -0.77450    -5.49485     5.21630
 H    -3.95088    -1.53875     1.79806
 H    -4.80159    -3.12079     1.58195
 H    -3.69597    -2.50458     0.29826
 H     0.83867    -5.43528     3.53041
 H     0.50794    -6.07771     1.87453
 H    -0.37258    -6.75696     3.29094
 O    -0.79658     3.97386    -4.74998
 O    -2.61373     5.63065    -4.07430
 C     0.14250     3.90353    -2.49508
 C    -0.77365     4.33989    -3.43878
 C    -1.92793     5.62097    -1.72696
 C    -1.80987     5.23046    -3.05190
 C    -3.58936     6.61688    -3.76270
 C     0.03178     4.32526    -1.16525
 C    -1.00235     5.16383    -0.78155
 C     0.35964     3.29727    -5.23213
 H     0.95373     3.23096    -2.77315
 H     0.76338     3.97589    -0.43658
 H    -1.10604     5.46763     0.26416
 H    -2.74022     6.26934    -1.40814
 H     0.43642     2.29444    -4.79317
 H     1.26877     3.88260    -5.04588
 H     0.16048     3.22559    -6.30825
 H    -4.35334     6.21131    -3.09033
 H    -4.02361     6.83355    -4.75082
 H    -3.12591     7.51743    -3.34615
 O     5.44019    -0.06087    -0.03376
 O     7.22259     0.59517     6.54551
 C     4.46324    -1.11396     4.94622
 C     5.37386    -0.68059     5.89774
 C     6.55962     0.58092     4.19223
 C     6.42474     0.19620     5.51787
 C     8.21066     1.57140     6.23980
 C     4.58800    -0.69335     3.61705
 C     5.63333     0.13618     3.24196
 C     4.18749    -1.66813     7.68908
 H     3.64205    -1.77895     5.21562
 H     3.85664    -1.03406     2.88311
 H     5.74581     0.44865     2.19963
 H     7.38320     1.21555     3.87457
 H     4.07744    -2.67246     7.26128
 H     3.29800    -1.05789     7.48770
 H     4.37331    -1.73048     8.76826
 H     8.98164     1.15126     5.58475
 H     8.63027     1.79554     7.23286
 H     7.76393     2.47049     5.80299
 O     5.37219    -1.03651     7.21218
 O     7.25285     1.60145     0.64701
 C     8.17510     1.70839    -1.61275
 C     7.26873     1.25238    -0.66814
 C     6.11912    -0.02541    -2.38335
 C     6.23683     0.35674    -1.05625
 C     4.41968    -0.99360    -0.36787
 C     8.06383     1.29484    -2.94510
 C     7.03937     0.44433    -3.32768
 C     8.41014     2.27625     1.12956
 H     8.98172     2.38683    -1.33309
 H     8.79032     1.65724    -3.67353
 H     6.93412     0.13651    -4.37165
 H     5.31180    -0.67637    -2.70838
 H     8.47981     3.28445     0.70177
 H     9.32042     1.69806     0.92760
 H     8.21729     2.33255     2.20786
 H     3.68038    -0.54130    -1.03858
 H     3.96528    -1.20690     0.61158
 H     4.84072    -1.90789    -0.79834
 O     2.67617    -3.20458     1.85754
 O     4.38902    -5.00360     2.47775
 C     1.77537    -3.11953     4.12359
 C     2.64953    -3.59907     3.16072
 C     3.74330    -4.97511     4.83653
 C     3.63311    -4.55859     3.51808
 C     5.36996    -5.98762     2.78202
 C     1.87469    -3.56851     5.44505
 C     2.85831    -4.47770     5.80014
 C     1.51002    -2.53690     1.38502
 H     1.00530    -2.39217     3.86575
 H     1.17292    -3.18654     6.18768
 H     2.95634    -4.80936     6.83772
 H     4.51650    -5.67605     5.13949
 H     1.42577    -1.53788     1.82994
 H     0.60648    -3.13006     1.57459
 H     1.70266    -2.45996     0.30849
 H     6.15719    -5.56756     3.41782
 H     5.76878    -6.23195     1.78540
 H     4.92355    -6.87560     3.24019
 O     4.49608     3.80731    -4.75495
 O     2.78316     5.59068    -4.10608
 C     5.43281     3.72227    -2.50204
 C     4.54153     4.19796    -3.45098
 C     3.45658     5.55864    -1.75548
 C     3.55599     5.14935    -3.07676
 C     1.81461     6.58323    -3.79173
 C     5.34571     4.16639    -1.17780
 C     4.35731     5.06318    -0.80531
 C     5.65652     3.14365    -5.24649
 H     6.20427     2.99966    -2.77020
 H     6.05977     3.78877    -0.44489
 H     4.26777     5.38413     0.23628
 H     2.67960     6.25086    -1.44215
 H     5.75292     2.14466    -4.80314
 H     6.55965     3.74150    -5.07145
 H     5.44770     3.06445    -6.31999
 H     1.04822     6.18245    -3.11928
 H     1.38084     6.80475    -4.77928
 H     2.28231     7.47919    -3.37167
