  112
 
Cl     0.00000     0.00000     0.00000
Cl     3.07535    -0.04170     0.14617
Cl     3.15920     5.32856     0.33814
Cl     4.66443     2.64242     0.35230
 C    -1.26756     2.69225    -0.04414
 N    -2.42203     2.69634    -0.11151
 C     0.88279     3.90482     0.13130
 C     0.85592     1.46764     0.06537
 C     2.28288     3.87594     0.22402
 C     0.16262     2.68766     0.04830
 C     2.26108     1.44551     0.14616
 C     0.19233     5.16075     0.12447
 C     2.97138     2.64848     0.23059
 N    -0.36694     6.17269     0.11440
Cl     3.00874     9.48552     0.81967
Cl    -0.02258     8.99729     0.65130
Cl    -0.92271    14.26628     1.24606
Cl    -2.00158    11.42539     0.76256
 C     3.85615    12.30530     1.25011
 N     4.99854    12.47404     1.30741
 C     1.54456    13.18698     1.27368
 C     1.94111    10.80185     0.95635
 C     0.16540    12.96277     1.14807
 C     2.44168    12.09600     1.16354
 C     0.55433    10.57942     0.85672
 C     2.04030    14.50920     1.51715
 C    -0.32913    11.66210     0.93352
 N     2.44889    15.57052     1.72554
Cl     5.82901     0.92442     3.98364
Cl     2.75545     0.93826     3.85677
Cl     2.71582    -4.43729     3.74254
Cl     1.18889    -1.76752     3.65811
 C     7.11971    -1.75529     4.05954
 N     8.27474    -1.74680     4.11138
 C     4.98011    -2.99037     3.92927
 C     4.98566    -0.55188     3.94579
 C     3.58062    -2.97600     3.83253
 C     5.68926    -1.76491     3.98249
 C     3.57970    -0.54393     3.86649
 C     5.68645    -4.23647     3.96877
 C     2.88123    -1.75456     3.79745
 N     6.26341    -5.23778     4.00650
Cl     1.36541     9.83344     4.42920
Cl     4.39757    10.33102     4.60252
Cl     5.31806     5.06330     4.07348
Cl     6.38430     7.92182     4.48922
 C     0.52626     6.99850     4.05320
 N    -0.61470     6.82325     3.98374
 C     2.84261     6.12670     4.06666
 C     2.43614     8.51662     4.32254
 C     4.22278     6.36158     4.16830
 C     1.93980     7.21537     4.14687
 C     3.82177     8.74679     4.41488
 C     2.36459     4.78886     3.87788
 C     4.71169     7.66853     4.34847
 N     1.98514     3.70873     3.71681
Cl     5.66867     0.61902    -3.12062
Cl     8.74275     0.58068    -2.96987
Cl     8.82321     5.95178    -2.80709
Cl    10.32809     3.26613    -2.75062
 C     4.39903     3.31127    -3.19290
 N     3.24431     3.31536    -3.25489
 C     6.54880     4.52568    -3.02630
 C     6.52293     2.08822    -3.06974
 C     7.94796     4.49816    -2.92046
 C     5.82920     3.30754    -3.10144
 C     7.92774     2.06730    -2.98076
 C     5.85853     5.78150    -3.04953
 C     8.63664     3.27101    -2.89679
 N     5.29978     6.79358    -3.07143
Cl     8.66583    10.09934    -2.33293
Cl     5.63343     9.62216    -2.50862
Cl     4.75046    14.89230    -1.90040
Cl     3.65878    12.05234    -2.36099
 C     9.52177    12.91959    -1.89173
 N    10.66309    13.08952    -1.81694
 C     7.21358    13.80656    -1.88729
 C     7.60272    11.42014    -2.20041
 C     5.83326    13.58579    -2.00554
 C     8.10765    12.71264    -1.99272
 C     6.21492    11.20215    -2.29862
 C     7.71066    15.12965    -1.65132
 C     5.33375    12.28612    -2.21371
 N     8.11711    16.19272    -1.44802
Cl    11.49631     1.54223     0.87040
Cl     8.42200     1.56172     0.74528
Cl     8.37536    -3.81331     0.60474
Cl     6.84940    -1.14188     0.56276
 C    12.78308    -1.13947     0.92693
 N    13.93780    -1.13392     0.98780
 C    10.64199    -2.37019     0.78155
 C    10.65027     0.06791     0.82047
 C     9.24169    -2.35340     0.69649
 C    11.35270    -1.14631     0.84471
 C     9.24410     0.07827     0.74755
 C    11.34732    -3.61726     0.80316
 C     8.54331    -1.13116     0.67843
 N    11.92405    -4.61905     0.82712
Cl     7.03078    10.45168     1.27953
Cl    10.06274    10.95425     1.44108
Cl    10.98898     5.68554     0.92969
Cl    12.05007     8.54432     1.35949
 C     6.19466     7.61371     0.91898
 N     5.05358     7.43342     0.86844
 C     8.51248     6.74772     0.91113
 C     8.10293     9.13706     1.16843
 C     9.89200     6.98359     1.01697
 C     7.60831     7.83503     0.99590
 C     9.48840     9.36900     1.25950
 C     8.03393     5.41080     0.71802
 C    10.37889     8.29092     1.20036
 N     7.65230     4.33185     0.55415
