  112
 
Cl     0.00000     0.00000     0.00000
Cl     3.09843    -0.40375     0.07594
Cl     3.70546     4.90237     0.49797
Cl     4.92791     2.04772     0.51143
 C    -0.90170     2.77792     0.01874
 N    -2.04160     2.93732    -0.09337
 C     1.33703     3.71401     0.30785
 C     1.05510     1.31547     0.13238
 C     2.71706     3.52879     0.39336
 C     0.49861     2.59540     0.15964
 C     2.43212     1.13859     0.20955
 C     0.74518     5.00315     0.36413
 C     3.26382     2.24726     0.36168
 N     0.21635     6.03055     0.39884
Cl     2.35011     8.20143     0.69213
Cl    -0.72031     8.71287     0.58436
Cl     0.21181    13.96760     0.86017
Cl    -1.79133    11.61241     0.55290
 C     4.03008    10.64046     0.99167
 N     5.17976    10.54111     1.08049
 C     2.12932    12.14741     0.89345
 C     1.73276     9.76840     0.73026
 C     0.75940    12.37476     0.79707
 C     2.62641    10.82944     0.86815
 C     0.35659    10.00712     0.64409
 C     3.01955    13.24446     1.02533
 C    -0.12926    11.30970     0.66561
 N     3.74035    14.13855     1.15848
Cl     6.62658     0.59011     3.27413
Cl     3.53065     0.98306     3.19539
Cl     2.94881    -4.31951     2.67837
Cl     1.70775    -1.47632     2.75055
 C     7.54219    -2.19124     3.20810
 N     8.68028    -2.36408     3.31718
 C     5.30920    -3.12238     2.89030
 C     5.57900    -0.72865     3.12795
 C     3.92797    -2.94337     2.81639
 C     6.14197    -2.00426     3.07068
 C     4.20086    -0.55674     3.05355
 C     5.90813    -4.40514     2.78445
 C     3.37419    -1.66635     2.88469
 N     6.43794    -5.42949     2.70500
Cl     3.42386     9.39254     3.66477
Cl     6.49079     8.87865     3.76587
Cl     5.55365     3.61847     3.62037
Cl     7.55737     5.97436     3.84514
 C     1.73974     6.94399     3.38758
 N     0.58982     7.02851     3.28905
 C     3.63663     5.44070     3.53111
 C     4.03614     7.82334     3.63920
 C     5.00604     5.21321     3.62907
 C     3.14255     6.76049     3.52179
 C     5.41253     7.58470     3.72584
 C     2.74146     4.34319     3.44642
 C     5.89571     6.28117     3.72930
 N     2.01668     3.44661     3.36121
Cl     4.66874     0.67522    -2.55071
Cl     7.77071     0.28777    -2.47826
Cl     8.34543     5.59574    -2.03535
Cl     9.58614     2.75328    -2.02598
 C     3.75320     3.45190    -2.53102
 N     2.61472     3.61931    -2.64879
 C     5.98521     4.39368    -2.22188
 C     5.71747     1.99515    -2.41392
 C     7.36581     4.21593    -2.13931
 C     5.15319     3.27122    -2.38230
 C     7.09584     1.82499    -2.33348
 C     5.38696     5.67958    -2.15310
 C     7.92071     2.93769    -2.17584
 N     4.85384     6.70450    -2.11119
Cl     7.00081     8.89169    -1.84012
Cl     3.92956     9.39793    -1.97205
Cl     4.84973    14.65290    -1.66827
Cl     2.85554    12.29445    -2.00909
 C     8.67730    11.34859    -1.53572
 N     9.82934    11.27916    -1.44865
 C     6.77117    12.83753    -1.63170
 C     6.38183    10.45644    -1.80039
 C     5.40200    13.06138    -1.73270
 C     7.27156    11.51995    -1.65878
 C     5.00521    10.69255    -1.89715
 C     7.66781    13.93027    -1.50444
 C     4.51687    11.99382    -1.87520
 N     8.40263    14.81444    -1.38095
Cl    11.40172     1.24597     0.73379
Cl     8.29791     1.63837     0.65637
Cl     7.71037    -3.65956     0.16307
Cl     6.47763    -0.81567     0.21674
 C    12.31177    -1.52644     0.67498
 N    13.45120    -1.68257     0.79395
 C    10.07818    -2.46586     0.35354
 C    10.35035    -0.07080     0.58388
 C     8.69688    -2.28665     0.28494
 C    10.91162    -1.34714     0.53125
 C     8.97220     0.10130     0.50891
 C    10.67850    -3.74800     0.24667
 C     8.14471    -1.00797     0.34425
 N    11.21281    -4.77020     0.16702
Cl     8.18514    10.04882     1.12902
Cl    11.25090     9.54034     1.23931
Cl    10.31656     4.27799     1.10388
Cl    12.32157     6.63856     1.34906
 C     6.50299     7.59801     0.84553
 N     5.35281     7.67758     0.74345
 C     8.40277     6.09897     1.00276
 C     8.79930     8.48083     1.10545
 C     9.77152     5.87353     1.11123
 C     7.90591     7.41805     0.98625
 C    10.17586     8.24367     1.20149
 C     7.50960     4.99932     0.91863
 C    10.66151     6.94157     1.21487
 N     6.78592     4.10164     0.83515
