   52
 
Si     0.00000     0.00000     0.00000
Si     0.08687    -2.57178     4.20592
Si    -1.85066    -4.43556     2.51890
 K    -1.93193    -5.44434    -1.35708
Si     0.78156    -4.82598     0.91974
Si     1.73745    -1.89279     1.66567
Si    -1.93753    -1.86378    -1.68702
Si    -2.63221     0.39042     1.59916
Si    -3.58810    -2.54277     0.85323
 K     0.08181     1.00855     3.87517
 K    -6.30157     1.80868    -0.50241
Si     0.53855     0.80065    -4.37820
Si    -2.84203     2.79809    -0.17228
 K    -2.92330     1.78931    -4.04826
Si    -0.21044     2.40692    -1.77164
Si    -4.64540    -1.09289    -2.71273
Si     4.44469    -2.66443     2.69118
Si     0.99137    -7.23365     2.69118
Si     5.19368    -4.27070     0.08462
Si     2.79475    -3.34267     5.23163
 O     0.87203    -5.32041    -0.65563
 O    -0.11934     1.91324    -3.34681
 O    -1.27964    -2.97636    -2.71841
 O     5.10321    -3.77627     1.65999
 O    -3.20480    -3.73842     1.90916
 O    -4.19680     3.49448    -0.78222
 O     1.35467    -0.69737     0.60893
 O    -5.02755     0.10328    -3.76927
 O    -1.16077    -3.45531     3.60992
 O    -0.70973    -0.08362    -4.97440
 O     1.47820    -3.34183     0.98618
 O     0.48683     3.89182    -1.70500
 O    -0.68935    -0.98048    -1.09183
 O     5.69350    -1.78038     3.28657
 O    -3.32833    -1.09396     1.53191
 O     4.49694    -5.75582     0.01717
 O     1.20852    -3.56445     4.92458
 O    -5.17433    -2.76454     0.54618
 O     1.52335    -5.86158     1.98581
 O     0.53135     1.37132    -0.70557
 O    -3.05802    -0.87059    -2.40629
 O     3.32420    -1.67125     1.97191
 O    -3.37285     1.42655     0.53247
 O    -2.38148    -5.80710     3.22365
 O     0.84599    -1.69959     3.00627
 O    -5.53686    -0.89969    -1.37213
 O    -0.84117    -4.75733     1.29145
 O    -1.83254     2.47632    -1.39973
 O    -2.69664    -2.73596    -0.48737
 O     3.68621    -3.53587     3.89103
 O    -1.00948     0.32178     1.22745
 O    -0.01811    -6.91187     3.91863
