   64
 
Os     0.00000     0.00000     0.00000
Os    -7.75215     0.45846    -0.00255
Os    -6.48343     3.08418     0.07606
Os     1.25141     2.70825     0.13779
 I     1.67957     0.95268    -2.11053
 I    -8.20376     2.34637    -1.97336
 I    -5.99202     1.18313     2.11953
 I    -0.42048     1.96509    -2.11865
 I    -6.16038    -1.88050    -0.09524
 I    -1.71786    -0.70207    -2.12994
 I     0.51938    -1.91885     1.95165
 I    -7.26557    -1.31105    -2.12862
 I    -9.39042    -0.47606     2.05810
 I     0.39941    -1.73142    -2.23016
 I    -1.53077     2.36124     0.04558
 I    -4.95783     0.71507     0.03136
Os     3.16566    -1.23917    -6.33528
Os    -4.57496    -0.82672    -6.36781
Os    -3.32985     1.81611    -6.24623
Os     4.45908     1.39745    -6.23639
 I     4.87982    -0.52605    -4.28170
 I    -4.99056     0.90626    -4.14716
 I    -2.90086    -0.13822    -4.20445
 I     2.68344     0.70190    -8.35352
 I    -4.13343    -2.69349    -4.27782
 I     1.46692    -2.10642    -4.31485
 I     3.64390    -3.12950    -4.37181
 I    -4.15615    -2.58818    -8.44166
 I    -6.26183    -1.72088    -4.26645
 I     3.55142    -2.96953    -8.48086
 I     1.60458     1.11490    -6.25349
 I    -1.78728    -0.49978    -6.31618
Os     2.51304     5.34789     0.17920
Os    -5.25343     5.74555     0.13549
Os    -3.96601     8.42566     0.26836
Os     3.76761     7.99254     0.26461
 I     4.15890     6.26870    -1.97776
 I    -6.72304     8.10482     0.28037
 I    -2.43094     6.03860     0.17841
 I     2.05563     7.25567    -1.85037
 I    -4.77362     3.95945    -1.93506
 I     0.77206     4.57081    -1.96712
 I     0.85952     4.47434     2.20337
 I    -6.96677     4.96997    -1.88883
 I    -6.88748     4.83351     2.23538
 I     2.91649     3.61042    -2.02863
 I     0.97707     7.69730     0.25752
 I    -3.50798     6.66036    -1.84354
Os     5.67464     4.07928    -6.14459
Os    -2.04678     4.50389    -6.18784
Os    -0.81253     7.14441    -6.06426
Os     6.92974     6.73631    -6.01730
 I     8.44587     4.40041    -6.16023
 I    -2.49173     6.22830    -3.95811
 I    -0.36672     5.26148    -4.03078
 I     4.12785     6.45610    -6.06826
 I    -1.64578     2.61315    -4.07850
 I     2.87985     3.75518    -6.20155
 I     3.95856     3.18601    -4.14503
 I    -3.81804     3.76042    -8.20704
 I    -3.74449     3.60260    -4.04655
 I     6.07284     2.34487    -8.28991
 I     5.20656     5.82453    -4.04785
 I     0.73877     4.78248    -6.13279
