  224
 
 O     0.00000     0.00000     0.00000
 O     2.80100    -1.45900     3.77400
 O     1.29900    -0.41700     2.46500
 H     2.25300    -1.23900     4.50500
 C     3.20700    -1.47300     1.45000
 O     2.73100    -1.07500     0.32200
 O     4.23300    -2.11700     1.63100
 H     3.27900    -1.29500    -0.40900
 C     2.32500    -1.06100     2.64700
 C    -1.45200     0.67400     7.19100
 O    -1.92800     0.27500     6.06200
 O    -0.42600     1.31700     7.37200
 H    -1.38000     0.49500     5.33200
 C    -2.33400     0.26100     8.38700
 O    -1.85800     0.66000     9.51500
 O    -3.36000    -0.38200     8.20600
 H    -2.40700     0.44000    10.24600
 O    -0.56100     0.93500     4.09700
 H    -1.01800     1.13000     3.41400
 H     0.06400     0.36300     3.77000
 O     1.43400    -0.79900     5.74000
 H     1.89100    -0.60400     6.42200
 H     0.80900    -1.37100     6.06700
 H     0.45700    -0.19500     0.68200
 H    -0.62600     0.57200     0.32600
 O     4.09800    -1.73500    -1.64300
 H     3.64100    -1.93000    -2.32600
 H     4.72300    -1.16300    -1.97000
 O    -6.09300     0.00000     0.00000
 O    -3.29200    -1.45900     3.77400
 O    -4.79400    -0.41700     2.46500
 H    -3.84000    -1.23900     4.50500
 C    -2.88600    -1.47300     1.45000
 O    -3.36200    -1.07500     0.32200
 O    -1.86000    -2.11700     1.63100
 H    -2.81400    -1.29500    -0.40900
 C    -3.76800    -1.06100     2.64700
 C    -7.54500     0.67400     7.19100
 O    -8.02100     0.27500     6.06200
 O    -6.51900     1.31700     7.37200
 H    -7.47300     0.49500     5.33200
 C    -8.42700     0.26100     8.38700
 O    -7.95100     0.66000     9.51500
 O    -9.45300    -0.38200     8.20600
 H    -8.50000     0.44000    10.24600
 O    -6.65400     0.93500     4.09700
 H    -7.11100     1.13000     3.41400
 H    -6.02900     0.36300     3.77000
 O    -4.65900    -0.79900     5.74000
 H    -4.20200    -0.60400     6.42200
 H    -5.28400    -1.37100     6.06700
 H    -5.63600    -0.19500     0.68200
 H    -6.71900     0.57200     0.32600
 O    -1.99500    -1.73500    -1.64300
 H    -2.45200    -1.93000    -2.32600
 H    -1.37000    -1.16300    -1.97000
 O     0.00000     3.46900     0.00000
 O     2.80100     2.01000     3.77400
 O     1.29900     3.05200     2.46500
 H     2.25300     2.23000     4.50500
 C     3.20700     1.99600     1.45000
 O     2.73100     2.39400     0.32200
 O     4.23300     1.35200     1.63100
 H     3.27900     2.17400    -0.40900
 C     2.32500     2.40800     2.64700
 C    -1.45200     4.14300     7.19100
 O    -1.92800     3.74400     6.06200
 O    -0.42600     4.78600     7.37200
 H    -1.38000     3.96400     5.33200
 C    -2.33400     3.73000     8.38700
 O    -1.85800     4.12900     9.51500
 O    -3.36000     3.08700     8.20600
 H    -2.40700     3.90900    10.24600
 O    -0.56100     4.40400     4.09700
 H    -1.01800     4.59900     3.41400
 H     0.06400     3.83200     3.77000
 O     1.43400     2.67000     5.74000
 H     1.89100     2.86500     6.42200
 H     0.80900     2.09800     6.06700
 H     0.45700     3.27400     0.68200
 H    -0.62600     4.04100     0.32600
 O     4.09800     1.73400    -1.64300
 H     3.64100     1.53900    -2.32600
 H     4.72300     2.30600    -1.97000
 O    -6.09300     3.46900     0.00000
 O    -3.29200     2.01000     3.77400
 O    -4.79400     3.05200     2.46500
 H    -3.84000     2.23000     4.50500
 C    -2.88600     1.99600     1.45000
 O    -3.36200     2.39400     0.32200
 O    -1.86000     1.35200     1.63100
 H    -2.81400     2.17400    -0.40900
 C    -3.76800     2.40800     2.64700
 C    -7.54500     4.14300     7.19100
 O    -8.02100     3.74400     6.06200
 O    -6.51900     4.78600     7.37200
 H    -7.47300     3.96400     5.33200
 C    -8.42700     3.73000     8.38700
 O    -7.95100     4.12900     9.51500
 O    -9.45300     3.08700     8.20600
 H    -8.50000     3.90900    10.24600
 O    -6.65400     4.40400     4.09700
 H    -7.11100     4.59900     3.41400
 H    -6.02900     3.83200     3.77000
 O    -4.65900     2.67000     5.74000
 H    -4.20200     2.86500     6.42200
 H    -5.28400     2.09800     6.06700
 H    -5.63600     3.27400     0.68200
 H    -6.71900     4.04100     0.32600
 O    -1.99500     1.73400    -1.64300
 H    -2.45200     1.53900    -2.32600
 H    -1.37000     2.30600    -1.97000
 O     0.00000     6.93800     0.00000
 O     2.80100     5.47900     3.77400
 O     1.29900     6.52100     2.46500
 H     2.25300     5.69900     4.50500
 C     3.20700     5.46500     1.45000
 O     2.73100     5.86300     0.32200
 O     4.23300     4.82100     1.63100
 H     3.27900     5.64300    -0.40900
 C     2.32500     5.87700     2.64700
 C    -1.45200     7.61200     7.19100
 O    -1.92800     7.21300     6.06200
 O    -0.42600     8.25500     7.37200
 H    -1.38000     7.43300     5.33200
 C    -2.33400     7.19900     8.38700
 O    -1.85800     7.59800     9.51500
 O    -3.36000     6.55600     8.20600
 H    -2.40700     7.37800    10.24600
 O    -0.56100     7.87300     4.09700
 H    -1.01800     8.06800     3.41400
 H     0.06400     7.30100     3.77000
 O     1.43400     6.13900     5.74000
 H     1.89100     6.33400     6.42200
 H     0.80900     5.56700     6.06700
 H     0.45700     6.74300     0.68200
 H    -0.62600     7.51000     0.32600
 O     4.09800     5.20300    -1.64300
 H     3.64100     5.00800    -2.32600
 H     4.72300     5.77500    -1.97000
 O    -6.09300     6.93800     0.00000
 O    -3.29200     5.47900     3.77400
 O    -4.79400     6.52100     2.46500
 H    -3.84000     5.69900     4.50500
 C    -2.88600     5.46500     1.45000
 O    -3.36200     5.86300     0.32200
 O    -1.86000     4.82100     1.63100
 H    -2.81400     5.64300    -0.40900
 C    -3.76800     5.87700     2.64700
 C    -7.54500     7.61200     7.19100
 O    -8.02100     7.21300     6.06200
 O    -6.51900     8.25500     7.37200
 H    -7.47300     7.43300     5.33200
 C    -8.42700     7.19900     8.38700
 O    -7.95100     7.59800     9.51500
 O    -9.45300     6.55600     8.20600
 H    -8.50000     7.37800    10.24600
 O    -6.65400     7.87300     4.09700
 H    -7.11100     8.06800     3.41400
 H    -6.02900     7.30100     3.77000
 O    -4.65900     6.13900     5.74000
 H    -4.20200     6.33400     6.42200
 H    -5.28400     5.56700     6.06700
 H    -5.63600     6.74300     0.68200
 H    -6.71900     7.51000     0.32600
 O    -1.99500     5.20300    -1.64300
 H    -2.45200     5.00800    -2.32600
 H    -1.37000     5.77500    -1.97000
 O     0.00000    10.40700     0.00000
 O     2.80100     8.94800     3.77400
 O     1.29900     9.99000     2.46500
 H     2.25300     9.16800     4.50500
 C     3.20700     8.93400     1.45000
 O     2.73100     9.33200     0.32200
 O     4.23300     8.29000     1.63100
 H     3.27900     9.11200    -0.40900
 C     2.32500     9.34600     2.64700
 C    -1.45200    11.08100     7.19100
 O    -1.92800    10.68200     6.06200
 O    -0.42600    11.72400     7.37200
 H    -1.38000    10.90200     5.33200
 C    -2.33400    10.66800     8.38700
 O    -1.85800    11.06700     9.51500
 O    -3.36000    10.02500     8.20600
 H    -2.40700    10.84700    10.24600
 O    -0.56100    11.34200     4.09700
 H    -1.01800    11.53700     3.41400
 H     0.06400    10.77000     3.77000
 O     1.43400     9.60800     5.74000
 H     1.89100     9.80300     6.42200
 H     0.80900     9.03600     6.06700
 H     0.45700    10.21200     0.68200
 H    -0.62600    10.97900     0.32600
 O     4.09800     8.67200    -1.64300
 H     3.64100     8.47700    -2.32600
 H     4.72300     9.24400    -1.97000
 O    -6.09300    10.40700     0.00000
 O    -3.29200     8.94800     3.77400
 O    -4.79400     9.99000     2.46500
 H    -3.84000     9.16800     4.50500
 C    -2.88600     8.93400     1.45000
 O    -3.36200     9.33200     0.32200
 O    -1.86000     8.29000     1.63100
 H    -2.81400     9.11200    -0.40900
 C    -3.76800     9.34600     2.64700
 C    -7.54500    11.08100     7.19100
 O    -8.02100    10.68200     6.06200
 O    -6.51900    11.72400     7.37200
 H    -7.47300    10.90200     5.33200
 C    -8.42700    10.66800     8.38700
 O    -7.95100    11.06700     9.51500
 O    -9.45300    10.02500     8.20600
 H    -8.50000    10.84700    10.24600
 O    -6.65400    11.34200     4.09700
 H    -7.11100    11.53700     3.41400
 H    -6.02900    10.77000     3.77000
 O    -4.65900     9.60800     5.74000
 H    -4.20200     9.80300     6.42200
 H    -5.28400     9.03600     6.06700
 H    -5.63600    10.21200     0.68200
 H    -6.71900    10.97900     0.32600
 O    -1.99500     8.67200    -1.64300
 H    -2.45200     8.47700    -2.32600
 H    -1.37000     9.24400    -1.97000
