  256
 
 O     0.00000     0.00000     0.00000
 O     2.62942    -1.19307     1.54731
 C     2.76201    -0.98442     0.23786
 H     2.99573    -0.42065     2.14282
 C     2.02349    -2.10338    -0.52409
 O     1.41964    -3.02784    -0.02393
 O     2.14548    -1.88110    -1.83298
 H     1.78437    -2.65209    -2.43365
 O     3.37516    -0.06545    -0.26323
 O    -1.94373    -3.03271     3.87876
 O    -1.20358    -1.90753     5.69595
 C    -1.33642    -2.11348     4.38428
 H    -1.56087    -2.68032     6.29082
 C    -0.60135    -0.98478     3.63225
 O     0.00547    -0.06747     4.14055
 O    -0.73254    -1.19154     2.32083
 H    -0.36639    -0.41924     1.72689
 O    -0.72765     1.14958    -1.80539
 C    -0.60024     0.92864    -0.49720
 H    -0.37102     0.37656    -2.40663
 C    -1.32218     2.05552     0.27064
 O    -1.92102     2.98752    -0.22149
 O    -1.18911     1.83716     1.57995
 H    -1.53610     2.61167     2.18098
 O     1.46998     2.96956     4.16790
 O     2.15547     1.83033     2.33535
 C     2.04718     2.04041     3.64892
 H     1.80272     2.61299     1.74656
 C     2.77284     0.89778     4.38826
 O     3.36281    -0.02795     3.87338
 O     2.65917     1.09933     5.70275
 H     3.02842     0.32501     6.28715
 O    -6.74000     0.00942     0.01145
 O    -4.10698    -1.18707     1.55421
 C    -3.97655    -0.97256     0.24464
 H    -3.74236    -0.41686     2.15206
 C    -4.71449    -2.09267    -0.51700
 O    -5.31837    -3.01746    -0.01722
 O    -4.59061    -1.87310    -1.82623
 H    -4.95305    -2.64401    -2.42590
 O    -3.36656    -0.05075    -0.25377
 O    -8.68563    -3.01813     3.89035
 O    -7.93703    -1.90193     5.70835
 C    -8.07327    -2.10205     4.39689
 H    -8.30132    -2.67386     6.30100
 C    -7.33765    -0.97546     3.64295
 O    -6.72908    -0.05891     4.15001
 O    -7.47137    -1.18342     2.33180
 H    -7.10452    -0.41226     1.73649
 O    -7.47045     1.15822    -1.79281
 C    -7.34109     0.93828    -0.48414
 H    -7.11321     0.38572    -2.39376
 C    -8.06015     2.06649     0.28441
 O    -8.65390     3.00227    -0.20767
 O    -7.92809     1.84861     1.59386
 H    -8.28128     2.62095     2.19387
 O    -5.27498     2.97572     4.17349
 O    -4.58360     1.83689     2.34294
 C    -4.69542     2.04727     3.65598
 H    -4.93790     2.61824     1.75292
 C    -3.96634     0.90812     4.39741
 O    -3.36376    -0.01005     3.88425
 O    -4.09040     1.10616     5.71161
 H    -3.71973     0.33341     6.29730
 O    -0.00299    -6.03174    -0.02923
 O     2.61156    -7.24297     1.51230
 C     2.73279    -7.02864     0.20229
 H     2.98449    -6.47296     2.10655
 C     1.98360    -8.13965    -0.56194
 O     1.36108    -9.05627    -0.07004
 O     2.11830    -7.92293    -1.87211
 H     1.74859    -8.68827    -2.47097
 O     3.34657    -6.10913    -0.29745
 O    -1.98565    -9.06601     3.82969
 O    -1.23728    -7.95784     5.65401
 C    -1.36907    -8.15641     4.33968
 H    -1.61101    -8.72670     6.24180
 C    -0.61950    -7.02944     3.59922
 O    -0.00816    -6.11906     4.11624
 O    -0.74381    -7.22537     2.28559
 H    -0.37104    -6.45032     1.70041
 O    -0.73902    -4.89469    -1.83934
 C    -0.60876    -5.10871    -0.53004
 H    -0.38068    -5.66857    -2.43825
 C    -1.34378    -3.98636     0.23140
 O    -1.95235    -3.06400    -0.26764
 O    -1.21412    -4.20112     1.54095
 H    -1.57780    -3.43105     2.13912
 O     1.43787    -3.08443     4.12713
 O     2.14245    -4.21974     2.30074
 C     2.02922    -4.00870     3.61313
 H     1.78256    -3.44375     1.70860
 C     2.76204    -5.14362     4.35778
 O     3.35314    -6.06997     3.84665
 O     2.64707    -4.93757     5.67210
 H     3.01604    -5.70990     6.25987
 O    -6.74486    -6.02587    -0.01975
 O    -4.13255    -7.23239     1.52014
 C    -4.00450    -7.01629     0.21034
 H    -3.76178    -6.46470     2.11739
 C    -4.75104    -8.12917    -0.55464
 O    -5.37318    -9.04679    -0.06404
 O    -4.61351    -7.91440    -1.86481
 H    -4.98407    -8.67931    -2.46347
 O    -3.38927    -6.09684    -0.28627
 O    -8.72780    -9.05218     3.84298
 O    -7.96952    -7.95228     5.66731
 C    -8.10567    -8.14577     4.35323
 H    -8.35097    -8.71919     6.25371
 C    -7.35505    -7.02218     3.60952
 O    -6.74133    -6.11198     4.12327
 O    -7.48260    -7.22117     2.29643
 H    -7.10824    -6.44873     1.70856
 O    -7.48114    -4.88699    -1.82781
 C    -7.34977    -5.10106    -0.51811
 H    -7.12179    -5.66035    -2.42639
 C    -8.08051    -3.97726     0.24519
 O    -8.68339    -3.04980    -0.25178
 O    -7.95161    -4.19318     1.55471
 H    -8.32195    -3.42607     2.15246
 O    -5.30722    -3.07645     4.13270
 O    -4.59645    -4.21143     2.30836
 C    -4.71376    -4.00013     3.62025
 H    -4.95777    -3.43682     1.71483
 C    -3.97836    -5.13217     4.36685
 O    -3.37905    -6.05349     3.85673
 O    -4.09851    -4.92716     5.68068
 H    -3.72869    -5.69849     6.26982
 O    -0.00743     0.00922    -8.27827
 O     2.63086    -1.18730    -6.72946
 C     2.75366    -0.97332    -8.03983
 H     2.99417    -0.41561    -6.13197
 C     2.01649    -2.09643    -8.79743
 O     1.41020    -3.01915    -8.29762
 O     2.14124    -1.87833   -10.10804
 H     1.77288    -2.64302   -10.70713
 O     3.35368    -0.05030    -8.54667
 O    -1.94689    -3.01741    -4.39962
 O    -1.22836    -1.88048    -2.58183
 C    -1.34714    -2.09371    -3.89272
 H    -1.59263    -2.65461    -1.98875
 C    -0.60852    -0.96726    -4.64347
 O    -0.00502    -0.04640    -4.13611
 O    -0.73222    -1.17688    -5.95474
 H    -0.36560    -0.40442    -6.54733
 O    -0.75723     1.15423   -10.07848
 C    -0.61606     0.93477    -8.77083
 H    -0.40847     0.38517   -10.68437
 C    -1.33542     2.06249    -8.00145
 O    -1.93094     2.99487    -8.49492
 O    -1.20269     1.84038    -6.69217
 H    -1.54647     2.61435    -6.08834
 O     1.46163     2.98958    -4.10976
 O     2.14998     1.84686    -5.93649
 C     2.04172     2.05811    -4.62387
 H     1.79698     2.63017    -6.52452
 C     2.76640     0.91758    -3.88156
 O     3.35182    -0.01145    -4.39531
 O     2.65526     1.12698    -2.56966
 H     3.01635     0.34752    -1.98191
 O    -6.74974     0.01721    -8.26749
 O    -4.10890    -1.17972    -6.72295
 C    -3.98506    -0.96174    -8.03334
 H    -3.74748    -0.40995    -6.12320
 C    -4.72081    -2.08626    -8.79102
 O    -5.32655    -3.00985    -8.29122
 O    -4.59439    -1.87062   -10.10185
 H    -4.96494    -2.63506   -10.69980
 O    -3.38670    -0.03681    -8.53741
 O    -8.68680    -3.00455    -4.38392
 O    -7.96333    -1.87271    -2.56581
 C    -8.08440    -2.08229    -3.87642
 H    -8.33559    -2.64529    -1.97432
 C    -7.34666    -0.95793    -4.63048
 O    -6.73969    -0.03777    -4.12616
 O    -7.47646    -1.16879    -5.94114
 H    -7.10959    -0.39842    -6.53611
 O    -7.49905     1.16344   -10.06682
 C    -7.35675     0.94437    -8.75864
 H    -7.14972     0.39465   -10.67235
 C    -8.07133     2.07468    -7.98859
 O    -8.65921     3.01249    -8.48145
 O    -7.94169     1.85131    -6.67911
 H    -8.29050     2.62318    -6.07596
 O    -5.27729     2.99846    -4.10440
 O    -4.58681     1.85511    -5.93010
 C    -4.69629     2.06723    -4.61795
 H    -4.94219     2.63700    -6.51916
 C    -3.96880     0.92933    -3.87422
 O    -3.37478     0.00517    -4.38702
 O    -4.08574     1.13751    -2.56274
 H    -3.72586     0.35869    -1.97326
 O    -0.01194    -6.02430    -8.31054
 O     2.61546    -7.23471    -6.75809
 C     2.72980    -7.01809    -8.06900
 H     2.98662    -6.46513    -6.16244
 C     1.97913    -8.13228    -8.82786
 O     1.35445    -9.04734    -8.33642
 O     2.11356    -7.91854   -10.13996
 H     1.73431    -8.67577   -10.73688
 O     3.33393    -6.09814    -8.57675
 O    -1.98448    -9.04547    -4.44406
 O    -1.25773    -7.92115    -2.62157
 C    -1.37676    -8.12926    -3.93515
 H    -1.63818    -8.69097    -2.03503
 C    -0.62654    -7.00407    -4.67658
 O    -0.01927    -6.08877    -4.16211
 O    -0.74515    -7.20496    -5.98949
 H    -0.37431    -6.43017    -6.57533
 O    -0.76621    -4.89116   -10.11653
 C    -0.62379    -5.10335    -8.80765
 H    -0.41566    -5.66242   -10.71892
 C    -1.35428    -3.97917    -8.04418
 O    -1.95869    -3.05482    -8.54258
 O    -1.22428    -4.19904    -6.73484
 H    -1.58457    -3.42993    -6.13287
 O     1.42320    -3.06229    -4.15672
 O     2.14000    -4.19921    -5.97493
 C     2.02183    -3.98699    -4.66374
 H     1.77870    -3.42449    -6.56746
 C     2.75414    -5.11753    -3.91322
 O     3.33976    -6.04972    -4.42084
 O     2.64409    -4.89974    -2.60198
 H     3.00458    -5.67684    -2.00973
 O    -6.75398    -6.02084    -8.30094
 O    -4.12426    -7.22687    -6.75231
 C    -4.01047    -7.00652    -8.06337
 H    -3.75349    -6.45944    -6.15485
 C    -4.76085    -8.12202    -8.82128
 O    -5.38414    -9.03803    -8.32932
 O    -4.62654    -7.91078   -10.13376
 H    -5.00804    -8.66794   -10.72940
 O    -3.40806    -6.08482    -8.56892
 O    -8.72736    -9.03302    -4.43006
 O    -7.99051    -7.91889    -2.60632
 C    -8.11394    -8.12065    -3.91944
 H    -8.37856    -8.68760    -2.02201
 C    -7.36310    -6.99800    -4.66366
 O    -6.75188    -6.08398    -4.15182
 O    -7.48801    -7.20016    -5.97611
 H    -7.11584    -6.42759    -6.56456
 O    -7.49924    -4.88129   -10.10637
 C    -7.36086    -5.09597    -8.79681
 H    -7.14989    -5.65279   -10.70855
 C    -8.08754    -3.96993    -8.03250
 O    -8.68877    -3.04271    -8.52988
 O    -7.95585    -4.18879    -6.72297
 H    -8.32396    -3.42371    -6.12162
 O    -5.31880    -3.05544    -4.15108
 O    -4.59768    -4.19156    -5.96845
 C    -4.71867    -3.97936    -4.65765
 H    -4.96084    -3.41798    -6.56206
 C    -3.98301    -5.10742    -3.90652
 O    -3.38704    -6.03270    -4.41413
 O    -4.10009    -4.89330    -2.59539
 H    -3.73823    -5.66943    -2.00275
