  176
 
As     0.00000     0.00000     0.00000
As    -4.90796    -0.43800     0.85648
 F     1.18263     1.26049     0.00000
 F    -6.09059    -1.69849     0.85648
 F     0.28562    -0.23562    -1.70208
 F    -5.19358    -0.20239     2.55856
 F    -1.20630     1.17347    -0.44263
 F    -3.70167    -1.61148     1.29911
 F    -1.18837    -1.22434    -0.06736
 F    -3.71959     0.78633     0.92384
 F    -0.31122     0.28431     1.65476
 F    -4.59673    -0.72233    -0.79827
 F     1.21421    -1.12975     0.37827
 F    -6.12216     0.69173     0.47821
 O    -2.24548    -3.71395     0.73561
 O    -2.98993     0.31317     3.96953
 H    -2.67996    -4.32507     1.02311
 H    -2.55545     0.92429     3.68202
 H    -1.50029    -3.65576     1.03923
 H    -3.73511     0.25498     3.66590
 H    -2.75124    -2.96069     0.86565
 H    -2.48417    -0.44010     3.83950
As     5.75112    -3.69466    -3.14640
As     0.84315    -4.13267    -2.28992
 F     6.93375    -2.43418    -3.14640
 F    -0.33947    -5.39315    -2.28992
 F     6.03674    -3.93028    -4.84848
 F     0.55754    -3.89705    -0.58784
 F     4.54482    -2.52119    -3.58903
 F     2.04945    -5.30614    -1.84728
 F     4.56274    -4.91900    -3.21376
 F     2.03153    -2.90833    -2.22256
 F     5.43990    -3.41035    -1.49164
 F     1.15438    -4.41699    -3.94467
 F     6.96532    -4.82441    -2.76813
 F    -0.37105    -3.00293    -2.66819
 O     3.50563    -7.40861    -2.41079
 O     2.76119    -3.38149     0.82313
 H     3.07116    -8.01973    -2.12329
 H     3.19567    -2.77037     0.53563
 H     4.25083    -7.35043    -2.10717
 H     2.01601    -3.43968     0.51950
 H     2.99987    -6.65535    -2.28075
 H     3.26695    -4.13476     0.69310
As     4.42167     4.13267     2.28992
As    -0.48630     3.69466     3.14640
 F     5.60429     5.39315     2.28992
 F    -1.66893     2.43418     3.14640
 F     4.70729     3.89705     0.58784
 F    -0.77191     3.93028     4.84848
 F     3.21537     5.30613     1.84729
 F     0.72000     2.52119     3.58903
 F     3.23329     2.90833     2.22256
 F     0.70208     4.91900     3.21376
 F     4.11044     4.41698     3.94468
 F    -0.17507     3.41034     1.49165
 F     5.63587     3.00292     2.66819
 F    -1.70050     4.82440     2.76813
 O     2.17618     0.41871     3.02553
 O     1.43174     4.44584     6.25945
 H     1.74171    -0.19240     3.31303
 H     1.86622     5.05696     5.97194
 H     2.92138     0.47690     3.32915
 H     0.68655     4.38764     5.95582
 H     1.67042     1.17197     3.15557
 H     1.93750     3.69257     6.12942
As    10.17278     0.43800    -0.85648
As     5.26482     0.00000     0.00000
 F    11.35541     1.69849    -0.85648
 F     4.08219    -1.26049     0.00000
 F    10.45840     0.20238    -2.55856
 F     4.97921     0.23561     1.70208
 F     8.96648     1.61147    -1.29911
 F     6.47112    -1.17347     0.44264
 F     8.98441    -0.78633    -0.92384
 F     6.45319     1.22434     0.06736
 F     9.86156     0.72232     0.79828
 F     5.57605    -0.28433    -1.65475
 F    11.38699    -0.69174    -0.47821
 F     4.05062     1.12974    -0.37827
 O     7.92730    -3.27595    -0.12087
 O     7.18285     0.75118     3.11305
 H     7.49282    -3.88707     0.16663
 H     7.61733     1.36230     2.82555
 H     8.67249    -3.21776     0.18275
 H     6.43767     0.69298     2.80942
 H     7.42154    -2.52269     0.00917
 H     7.68861    -0.00209     2.98302
As     0.32745     2.96278    -3.84866
As    -4.58051     2.52477    -2.99218
 F     1.51008     4.22326    -3.84866
 F    -5.76314     1.26429    -2.99218
 F     0.61307     2.72716    -5.55074
 F    -4.86613     2.76039    -1.29010
 F    -0.87885     4.13624    -4.29128
 F    -3.37422     1.35130    -2.54954
 F    -0.86093     1.73844    -3.91602
 F    -3.39214     3.74911    -2.92482
 F     0.01623     3.24709    -2.19390
 F    -4.26929     2.24044    -4.64693
 F     1.54166     1.83303    -3.47039
 F    -5.79471     3.65451    -3.37045
 O    -1.91803    -0.75118    -3.11305
 O    -2.66248     3.27595     0.12087
 H    -2.35251    -1.36229    -2.82555
 H    -2.22800     3.88707    -0.16663
 H    -1.17284    -0.69299    -2.80942
 H    -3.40766     3.21775    -0.18276
 H    -2.42379     0.00208    -2.98301
 H    -2.15672     2.52268    -0.00916
As     6.07856    -0.73189    -6.99506
As     1.17060    -1.16989    -6.13858
 F     7.26119     0.52860    -6.99506
 F    -0.01203    -2.43038    -6.13858
 F     6.36419    -0.96751    -8.69714
 F     0.88499    -0.93428    -4.43650
 F     4.87227     0.44158    -7.43768
 F     2.37690    -2.34336    -5.69594
 F     4.89019    -1.95622    -7.06242
 F     2.35898     0.05445    -6.07122
 F     5.76734    -0.44757    -5.34030
 F     1.48183    -1.45422    -7.79333
 F     7.29277    -1.86163    -6.61678
 F    -0.04360    -0.04015    -6.51685
 O     3.83308    -4.44584    -6.25945
 O     3.08864    -0.41871    -3.02553
 H     3.39861    -5.05696    -5.97194
 H     3.52311     0.19241    -3.31303
 H     4.57827    -4.38765    -5.95582
 H     2.34345    -0.47691    -3.32916
 H     3.32732    -3.69258    -6.12941
 H     3.59440    -1.17198    -3.15556
As     4.74911     7.09544    -1.55874
As    -0.15885     6.65744    -0.70226
 F     5.93174     8.35593    -1.55874
 F    -1.34148     5.39695    -0.70226
 F     5.03474     6.85982    -3.26082
 F    -0.44446     6.89305     0.99982
 F     3.54282     8.26891    -2.00136
 F     1.04745     5.48396    -0.25962
 F     3.56074     5.87111    -1.62610
 F     1.02953     7.88177    -0.63490
 F     4.43789     7.37976     0.09602
 F     0.15238     6.37311    -2.35701
 F     5.96332     5.96569    -1.18047
 F    -1.37305     7.78717    -1.08053
 O     2.50363     3.38149    -0.82313
 O     1.75919     7.40861     2.41079
 H     2.06915     2.77037    -0.53563
 H     2.19366     8.01973     2.12329
 H     3.24882     3.43968    -0.51950
 H     1.01400     7.35042     2.10716
 H     1.99787     4.13475    -0.69309
 H     2.26495     6.65535     2.28076
As    10.50023     3.40078    -4.70514
As     5.59227     2.96278    -3.84866
 F    11.68286     4.66127    -4.70514
 F     4.40964     1.70229    -3.84866
 F    10.78585     3.16516    -6.40722
 F     5.30665     3.19839    -2.14658
 F     9.29393     4.57425    -5.14776
 F     6.79856     1.78930    -3.40602
 F     9.31186     2.17644    -4.77250
 F     6.78064     4.18711    -3.78130
 F    10.18901     3.68509    -3.05038
 F     5.90350     2.67845    -5.50341
 F    11.71444     2.27103    -4.32686
 F     4.37807     4.09251    -4.22693
 O     8.25475    -0.31317    -3.96953
 O     7.51030     3.71395    -0.73561
 H     7.82027    -0.92429    -3.68202
 H     7.94478     4.32507    -1.02311
 H     8.99994    -0.25498    -3.66590
 H     6.76512     3.65576    -1.03924
 H     7.74899     0.44009    -3.83949
 H     8.01606     2.96068    -0.86564
