  176
 
As     0.00000     0.00000     0.00000
As    -5.10202    -0.21148    -0.03883
 F     0.83878     1.39255     0.45878
 F    -5.94225    -1.60393    -0.49512
 F     1.17144    -0.37950    -1.17841
 F    -6.25238     0.15355     1.16358
 F    -0.92609     0.80722    -1.18226
 F    -4.15188    -1.03456     1.11297
 F    -0.83382    -1.43654    -0.45318
 F    -4.26132     1.21971     0.42319
 F    -1.21019     0.31965     1.14778
 F    -3.91476    -0.50538    -1.21695
 F     0.92009    -0.90722     1.11008
 F    -6.04183     0.70790    -1.12241
 O    -2.19924    -3.76180     0.08299
 O    -2.98639     0.66977     3.49775
 H    -2.58439    -4.49613     0.69755
 H    -2.61151     1.43254     2.91000
 H    -1.24660    -3.68998     0.46580
 H    -3.93288     0.59434     3.10004
 H    -2.63088    -2.91517     0.48798
 H    -2.53340    -0.15383     3.06893
As     5.49106    -3.70454    -3.20776
As     0.40855    -3.89777    -3.18999
 F     6.33589    -2.30758    -2.77101
 F    -0.43847    -5.29091    -3.63321
 F     6.65070    -4.09388    -4.39540
 F    -0.73842    -3.51462    -1.99026
 F     4.55725    -2.90113    -4.38779
 F     1.35431    -4.71372    -2.02906
 F     4.65349    -5.14239    -3.64864
 F     1.25807    -2.46712    -2.74360
 F     4.29273    -3.37077    -2.05239
 F     1.59266    -4.21847    -4.36529
 F     6.42156    -4.60126    -2.09868
 F    -0.52632    -2.98511    -4.28274
 O     3.27830    -7.46076    -3.14282
 O     2.52885    -3.02100     0.32866
 H     2.91207    -8.21318    -2.53869
 H     2.89529    -2.26253    -0.26935
 H     4.23519    -7.38666    -2.77079
 H     1.57492    -3.09802    -0.05042
 H     2.83997    -6.62842    -2.71439
 H     2.97451    -3.84629    -0.10375
As     4.88048     4.57675     2.18937
As    -0.24038     4.34670     2.15138
 F     5.72986     5.96517     2.63939
 F    -1.09267     2.95269     1.72188
 F     6.03748     4.18568     1.00052
 F    -1.39130     4.74739     3.34342
 F     3.94907     5.38972     1.01587
 F     0.69624     3.53855     3.32526
 F     4.03227     3.14515     1.74383
 F     0.61057     5.77945     2.58557
 F     3.68438     4.90086     3.35142
 F     0.94870     4.01155     0.98706
 F     5.80365     3.66329     3.29193
 F    -1.17314     5.24547     1.04563
 O     2.67176     0.81355     2.26131
 O     1.88773     5.24043     5.68347
 H     2.29301     0.06316     2.86081
 H     2.26000     5.99581     5.08392
 H     3.62014     0.89587     2.65269
 H     0.94058     5.15439     5.29016
 H     2.22292     1.64829     2.67252
 H     2.34366     4.41219     5.26695
As    10.36951     0.87830    -1.02391
As     5.27433     0.66022    -1.00957
 F    11.23836     2.25760    -0.58141
 F     4.42096    -0.73315    -1.43984
 F    11.51235     0.47636    -2.22289
 F     4.12880     1.05900     0.18727
 F     9.43894     1.70742    -2.18615
 F     6.21480    -0.14886     0.16024
 F     9.50016    -0.54015    -1.47014
 F     6.12800     2.09246    -0.57943
 F     9.19274     1.21493     0.15339
 F     6.45706     0.32112    -2.18091
 F    11.29317    -0.04945     0.06632
 F     4.33908     1.56217    -2.11136
 O     8.14907    -2.88698    -0.96012
 O     7.40257     1.54918     2.51433
 H     7.81242    -3.63078    -0.32210
 H     7.77328     2.30791     1.91823
 H     9.10975    -2.78305    -0.60258
 H     6.45046     1.47450     2.13004
 H     7.70159    -2.05396    -0.54218
 H     7.84759     0.72255     2.08249
As     0.09981     2.89761    -3.59004
As    -5.00233     2.68869    -3.63346
 F     0.93940     4.28520    -3.11882
 F    -5.85239     1.30245    -4.09172
 F     1.24934     2.54245    -4.79529
 F    -6.15744     3.06549    -2.43894
 F    -0.84636     3.72815    -4.73973
 F    -4.06424     1.86572    -2.47227
 F    -0.73994     1.46853    -4.06035
 F    -4.15485     4.11629    -3.17817
 F    -1.09053     3.18826    -2.41439
 F    -3.81253     2.37339    -4.80373
 F     1.03812     1.97028    -2.51173
 F    -5.92961     3.60793    -4.72802
 O    -2.11172    -0.90939    -3.53959
 O    -2.88120     3.56020    -0.09620
 H    -2.46005    -1.59488    -2.84320
 H    -2.55175     4.29492    -0.74779
 H    -1.15695    -0.77559    -3.17657
 H    -3.84290     3.44546    -0.44506
 H    -2.55972    -0.04476    -3.18903
 H    -2.43480     2.71947    -0.49904
As     5.57900    -0.80842    -6.81641
As     0.50188    -0.99138    -6.79580
 F     6.44438     0.56226    -6.33971
 F    -0.35055    -2.37807    -7.24953
 F     6.72160    -1.18072    -8.02300
 F    -0.65652    -0.60915    -5.60486
 F     4.64808     0.04099    -7.96323
 F     1.43415    -1.81236    -5.62864
 F     4.71335    -2.22117    -7.28721
 F     1.35000     0.43543    -6.33871
 F     4.40021    -0.49860    -5.63338
 F     1.68894    -1.31465    -7.96586
 F     6.50357    -1.75610    -5.74275
 F    -0.42267    -0.07075    -7.89143
 O     3.37420    -4.57549    -6.74116
 O     2.63811    -0.12764    -3.26280
 H     3.04896    -5.32114    -6.09753
 H     2.96027     0.60997    -3.91532
 H     4.33710    -4.46399    -6.39265
 H     1.67290    -0.24081    -3.60326
 H     2.92440    -3.74481    -6.32133
 H     3.08199    -0.96527    -3.67509
As     4.97759     7.46827    -1.38729
As    -0.14190     7.24890    -1.43325
 F     5.82264     8.86961    -0.96676
 F    -1.00724     5.87373    -1.89715
 F     6.10658     7.08765    -2.60543
 F    -1.28211     7.62301    -0.22384
 F     4.01229     8.27318    -2.54089
 F     0.79764     6.40785    -0.28665
 F     4.13214     6.02905    -1.80911
 F     0.72221     8.66536    -0.97268
 F     3.81137     7.79190    -0.19637
 F     1.03225     6.93549    -2.61938
 F     5.93685     6.57129    -0.30319
 F    -1.07372     8.18661    -2.50948
 O     2.73948     3.68232    -1.34965
 O     1.98667     8.13561     2.09318
 H     2.39288     2.93638    -0.71794
 H     2.32725     8.87963     1.45748
 H     3.70039     3.76939    -0.98932
 H     1.02434     8.03919     1.73968
 H     2.30271     4.51752    -0.92612
 H     2.42513     7.29814     1.67560
As    10.46485     3.76365    -4.60880
As     5.36568     3.57019    -4.60791
 F    11.31668     5.16088    -4.18653
 F     4.50117     2.18954    -5.05792
 F    11.59284     3.37773    -5.82644
 F     4.21894     3.96035    -3.40779
 F     9.50587     4.57071    -5.76612
 F     6.29717     2.73973    -3.44719
 F     9.61585     2.32604    -5.02779
 F     6.22670     4.99065    -4.15639
 F     9.29804     4.09626    -3.42046
 F     6.54222     3.24024    -5.78639
 F    11.42053     2.86346    -3.52358
 F     4.43753     4.49625    -5.69659
 O     8.24021     0.00232    -4.55536
 O     7.50596     4.44771    -1.07313
 H     7.85302    -0.76460    -3.98139
 H     7.84574     5.19173    -1.70933
 H     9.18900     0.05576    -4.15904
 H     6.54154     4.35427    -1.42237
 H     7.80001     0.82394    -4.10876
 H     7.94084     3.61198    -1.49790
