   72
 
 O     0.00000     0.00000     0.00000
 O    -0.89793     0.52230    -0.45173
 O    -1.96556    -3.13317    -0.03456
 O    -2.81334    -2.53988    -0.49587
 O     0.93643    -3.97859     3.20553
 O     0.03583    -3.44462     2.77309
 O    -1.10748    -7.06688     3.13894
 O    -1.94539    -6.47593     2.65740
 O     1.90645    -7.99172     6.45540
 O     1.00668    -7.45694     6.02221
 O    -0.11824   -11.03079     6.40235
 O    -0.97651   -10.47995     5.90897
 O    -0.05458     2.37269     3.00693
 O    -0.95144     2.89459     2.55264
 O    -2.10712    -0.71158     3.06388
 O    -2.95766    -0.14460     2.57572
 O     0.88437    -1.60304     6.21759
 O    -0.01563    -1.07527     5.77634
 O    -1.21639    -4.67047     6.25540
 O    -2.05513    -4.09058     5.76204
 O     1.86191    -5.62974     9.46828
 O     0.96106    -5.09678     9.03502
 O    -0.19427    -8.69451     9.52007
 O    -1.04679    -8.12275     9.04088
 O    -0.01363     4.92170     6.14948
 O    -0.89351     5.44561     5.66520
 O    -2.09198     1.74467     6.09249
 O    -2.94493     2.30937     5.60571
 O     0.87503     0.97305     9.34099
 O    -0.00068     1.52545     8.88166
 O    -1.20128    -2.20762     9.28285
 O    -2.04243    -1.62624     8.79536
 O     1.83142    -3.01786    12.55427
 O     0.94240    -2.47022    12.11486
 O    -0.18345    -6.22214    12.54306
 O    -1.03993    -5.65703    12.06295
 O     4.07624     3.62592    -2.99806
 O     3.20961     4.18322    -3.46868
 O     1.98104     0.48558    -3.10303
 O     1.07950     1.01483    -3.53947
 O     5.04019    -0.37675     0.22804
 O     4.19650     0.21502    -0.24245
 O     2.91495    -3.49486     0.11651
 O     2.03503    -2.95381    -0.34844
 O     5.92735    -4.33365     3.43495
 O     5.08395    -3.74552     2.95966
 O     3.82419    -7.45350     3.36955
 O     2.94714    -6.92984     2.87988
 O     4.06148     6.04471     0.00933
 O     3.20414     6.60848    -0.47068
 O     1.99761     3.09169    -0.05478
 O     1.09239     3.60576    -0.50156
 O     5.03139     2.03890     3.24167
 O     4.19433     2.63148     2.76052
 O     2.96758    -0.91608     3.18744
 O     2.06710    -0.40320     2.72985
 O     5.91876    -1.92473     6.44378
 O     5.08482    -1.32963     5.96061
 O     3.92612    -4.92598     6.44041
 O     3.03399    -4.40049     5.98082
 O     3.97066     8.44941     3.15457
 O     3.09596     8.98400     2.67233
 O     1.93879     5.46499     3.00466
 O     1.03942     5.99093     2.55993
 O     4.90706     4.47394     6.36466
 O     4.06419     5.06758     5.89507
 O     2.90283     1.47271     6.24113
 O     2.00575     1.99670     5.78952
 O     5.75348     0.51638     9.53828
 O     4.91358     1.12407     9.08138
 O     3.85758    -2.53885     9.48812
 O     2.97066    -2.00060     9.03319
