  240
 
Br     0.00000     0.00000     0.00000
 O     6.79499     0.00000     0.00000
 H     7.56834     0.20058     0.00000
 O     6.50042     2.06156    -0.82440
 C     6.04727     0.99623    -0.39846
 C     4.58299     0.74840    -0.30705
 C     4.09982    -0.40153     0.30867
 H     4.70893    -1.03827     0.66445
 C     2.73179    -0.62358     0.40797
 H     2.39480    -1.40466     0.83034
 C     1.86695     0.32381    -0.12777
 C     2.32730     1.47088    -0.75949
 H     1.71547     2.09503    -1.13302
 C     3.69394     1.69205    -0.83745
 H     4.02683     2.48123    -1.24916
Br   -10.00262     8.19687    -9.37786
 O    -6.12677     5.19436    -4.67244
 H    -5.77422     4.96213    -3.99415
 O    -7.77681     5.86306    -3.31360
 C    -7.27020     5.78489    -4.43471
 C    -7.93141     6.36176    -5.63611
 C    -7.27402     6.38626    -6.86055
 H    -6.39891     6.02312    -6.93356
 C    -7.88759     6.94022    -7.97739
 H    -7.44098     6.96381    -8.81644
 C    -9.16958     7.45725    -7.83905
 C    -9.85199     7.43023    -6.63041
 H   -10.73406     7.77512    -6.56666
 C    -9.22273     6.89166    -5.51810
 H    -9.66741     6.88237    -4.67810
Br   -12.75060    10.06188    -5.85115
 O   -19.54577    10.06110    -5.85176
 H   -20.31912     9.86053    -5.85176
 O   -19.25034     7.99913    -5.02708
 C   -18.79700     9.06524    -5.45242
 C   -17.33359     9.31347    -5.54410
 C   -16.84974    10.46222    -6.16016
 H   -17.45885    11.09896    -6.51593
 C   -15.48153    10.68504    -6.25885
 H   -15.14540    11.46654    -6.68149
 C   -14.61773     9.73729    -5.72398
 C   -15.07721     8.58981    -5.09200
 H   -14.46625     7.96607    -4.71874
 C   -16.44454     8.36982    -5.01371
 H   -16.77656     7.58023    -4.60172
Br    -3.43824    -1.12268     1.19206
 O    -7.31409     1.87983    -3.51336
 H    -7.66682     2.11129    -4.19226
 O    -5.66423     1.21036    -4.87280
 C    -6.17066     1.28930    -3.75109
 C    -5.50945     0.71244    -2.54969
 C    -6.16702     0.68716    -1.32586
 H    -7.04214     1.05030    -1.25285
 C    -5.55327     0.13397    -0.20842
 H    -5.99988     0.11038     0.63064
 C    -4.27042    -0.38347    -0.34648
 C    -3.58905    -0.35681    -1.55600
 H    -2.70681    -0.70093    -1.61914
 C    -4.21813     0.18253    -2.66770
 H    -3.77345     0.19183    -3.50770
Br    -2.79772    -2.87762     4.50970
 O     3.99727    -2.87762     4.50970
 H     4.77061    -2.67704     4.50970
 O     3.70270    -0.81605     3.68530
 C     3.24955    -1.88139     4.11125
 C     1.78527    -2.12921     4.20265
 C     1.30210    -3.27915     4.81838
 H     1.91121    -3.91589     5.17415
 C    -0.06593    -3.50120     4.91767
 H    -0.40292    -4.28227     5.34004
 C    -0.93077    -2.55380     4.38193
 C    -0.47043    -1.40674     3.75021
 H    -1.08226    -0.78258     3.37669
 C     0.89621    -1.18556     3.67226
 H     1.22910    -0.39639     3.26054
Br   -12.80034     5.31925    -4.86815
 O    -8.92449     2.31675    -0.16274
 H    -8.57194     2.08451     0.51555
 O   -10.57453     2.98544     1.19610
 C   -10.06793     2.90727     0.07499
 C   -10.72914     3.48414    -1.12641
 C   -10.07175     3.50864    -2.35084
 H    -9.19663     3.14550    -2.42385
 C   -10.68531     4.06260    -3.46768
 H   -10.23871     4.08619    -4.30674
 C   -11.96730     4.57963    -3.32935
 C   -12.64972     4.55261    -2.12070
 H   -13.53178     4.89750    -2.05695
 C   -12.02045     4.01404    -1.00840
 H   -12.46514     4.00475    -0.16840
Br   -15.54833     7.18426    -1.34145
 O   -22.34350     7.18349    -1.34206
 H   -23.11684     6.98291    -1.34206
 O   -22.04806     5.12151    -0.51738
 C   -21.59473     6.18762    -0.94272
 C   -20.13132     6.43586    -1.03440
 C   -19.64746     7.58460    -1.65046
 H   -20.25657     8.22135    -2.00623
 C   -18.27925     7.80742    -1.74914
 H   -17.94313     8.58892    -2.17179
 C   -17.41546     6.85967    -1.21428
 C   -17.87493     5.71219    -0.58229
 H   -17.26397     5.08845    -0.20904
 C   -19.24226     5.49221    -0.50400
 H   -19.57428     4.70261    -0.09202
Br    -6.23597    -4.00029     5.70176
 O   -10.11182    -0.99779     0.99634
 H   -10.46455    -0.76633     0.31745
 O    -8.46196    -1.66726    -0.36310
 C    -8.96838    -1.58832     0.75862
 C    -8.30717    -2.16518     1.96001
 C    -8.96474    -2.19046     3.18384
 H    -9.83986    -1.82732     3.25685
 C    -8.35100    -2.74365     4.30129
 H    -8.79760    -2.76724     5.14034
 C    -7.06814    -3.26109     4.16323
 C    -6.38677    -3.23443     2.95370
 H    -5.50453    -3.57854     2.89056
 C    -7.01586    -2.69509     1.84200
 H    -6.57117    -2.68579     1.00200
Br     0.69026     2.98769     2.33465
 O     7.48525     2.98769     2.33465
 H     8.25860     3.18826     2.33465
 O     7.19068     5.04925     1.51025
 C     6.73753     3.98391     1.93619
 C     5.27325     3.73609     2.02760
 C     4.79008     2.58615     2.64332
 H     5.39919     1.94941     2.99910
 C     3.42205     2.36411     2.74262
 H     3.08506     1.58303     3.16499
 C     2.55721     3.31150     2.20688
 C     3.01756     4.45857     1.57516
 H     2.40573     5.08272     1.20163
 C     4.38420     4.67974     1.49720
 H     4.71709     5.46892     1.08549
Br    -9.31236    11.18455    -7.04321
 O    -5.43651     8.18205    -2.33779
 H    -5.08396     7.94982    -1.65950
 O    -7.08655     8.85074    -0.97895
 C    -6.57994     8.77258    -2.10006
 C    -7.24115     9.34944    -3.30146
 C    -6.58376     9.37394    -4.52590
 H    -5.70865     9.01081    -4.59891
 C    -7.19733     9.92791    -5.64274
 H    -6.75072     9.95150    -6.48179
 C    -8.47932    10.44493    -5.50440
 C    -9.16173    10.41792    -4.29576
 H   -10.04380    10.76281    -4.23201
 C    -8.53247     9.87935    -3.18345
 H    -8.97715     9.87005    -2.34345
Br   -12.06034    13.04956    -3.51650
 O   -18.85551    13.04879    -3.51711
 H   -19.62886    12.84821    -3.51711
 O   -18.56008    10.98681    -2.69243
 C   -18.10674    12.05292    -3.11777
 C   -16.64333    12.30116    -3.20946
 C   -16.15948    13.44991    -3.82551
 H   -16.76859    14.08665    -4.18128
 C   -14.79127    13.67273    -3.92420
 H   -14.45514    14.45422    -4.34684
 C   -13.92747    12.72497    -3.38933
 C   -14.38695    11.57749    -2.75735
 H   -13.77599    10.95376    -2.38409
 C   -15.75428    11.35751    -2.67906
 H   -16.08630    10.56792    -2.26707
Br    -2.74798     1.86501     3.52670
 O    -6.62383     4.86751    -1.17871
 H    -6.97656     5.09897    -1.85761
 O    -4.97397     4.19805    -2.53815
 C    -5.48040     4.27699    -1.41644
 C    -4.81919     3.70012    -0.21504
 C    -5.47676     3.67485     1.00879
 H    -6.35188     4.03798     1.08180
 C    -4.86301     3.12166     2.12623
 H    -5.30962     3.09807     2.96529
 C    -3.58016     2.60422     1.98817
 C    -2.89879     2.63087     0.77865
 H    -2.01655     2.28676     0.71550
 C    -3.52787     3.17022    -0.33305
 H    -3.08319     3.17951    -1.17305
Br    -2.10746     0.11007     6.84435
 O     4.68753     0.11007     6.84435
 H     5.46087     0.31065     6.84435
 O     4.39296     2.17163     6.01995
 C     3.93981     1.10630     6.44590
 C     2.47553     0.85847     6.53730
 C     1.99236    -0.29147     7.15303
 H     2.60147    -0.92821     7.50880
 C     0.62433    -0.51351     7.25232
 H     0.28734    -1.29459     7.67469
 C    -0.24051     0.43388     6.71658
 C     0.21983     1.58095     6.08486
 H    -0.39200     2.20510     5.71134
 C     1.58647     1.80212     6.00691
 H     1.91936     2.59130     5.59519
Br   -12.11008     8.30694    -2.53351
 O    -8.23423     5.30443     2.17191
 H    -7.88168     5.07220     2.85020
 O    -9.88427     5.97312     3.53075
 C    -9.37767     5.89496     2.40964
 C   -10.03888     6.47182     1.20824
 C    -9.38149     6.49632    -0.01619
 H    -8.50637     6.13319    -0.08920
 C    -9.99505     7.05029    -1.13303
 H    -9.54845     7.07388    -1.97209
 C   -11.27704     7.56731    -0.99470
 C   -11.95946     7.54030     0.21395
 H   -12.84152     7.88519     0.27769
 C   -11.33019     7.00173     1.32625
 H   -11.77488     6.99244     2.16625
Br   -14.85807    10.17195     0.99320
 O   -21.65324    10.17117     0.99259
 H   -22.42658     9.97059     0.99259
 O   -21.35780     8.10919     1.81727
 C   -20.90447     9.17530     1.39193
 C   -19.44106     9.42354     1.30025
 C   -18.95720    10.57229     0.68419
 H   -19.56631    11.20903     0.32842
 C   -17.58899    10.79511     0.58550
 H   -17.25287    11.57660     0.16286
 C   -16.72520     9.84736     1.12037
 C   -17.18467     8.69987     1.75236
 H   -16.57371     8.07614     2.12561
 C   -18.55200     8.47989     1.83065
 H   -18.88402     7.69030     2.24263
Br    -5.54571    -1.01261     8.03641
 O    -9.42156     1.98990     3.33099
 H    -9.77429     2.22135     2.65210
 O    -7.77170     1.32043     1.97155
 C    -8.27812     1.39937     3.09327
 C    -7.61691     0.82250     4.29466
 C    -8.27448     0.79723     5.51849
 H    -9.14960     1.16037     5.59150
 C    -7.66074     0.24404     6.63594
 H    -8.10734     0.22045     7.47499
 C    -6.37788    -0.27340     6.49788
 C    -5.69651    -0.24675     5.28835
 H    -4.81427    -0.59086     5.22521
 C    -6.32560     0.29260     4.17665
 H    -5.88091     0.30189     3.33665
