  120
 
Cl     0.00000     0.00000     0.00000
 C     4.49789     0.00000     0.00000
 C     3.80349     1.21320     0.00000
 C     2.41401     1.22054     0.00799
 C     1.73530     0.00270     0.00265
 C     2.40638    -1.21424     0.00309
 C     3.79801    -1.21069     0.00605
 C     5.97747     0.00754    -0.02439
 O     6.61813     1.05914    -0.16204
 O     6.54674    -1.16211     0.09908
 H     4.29430     2.07009     0.00122
 H     1.93191     2.04686     0.02316
 H     1.92485    -2.08028    -0.00501
 H     4.28685    -2.05956     0.02211
 H     7.43484    -1.08106     0.02364
Cl    11.09384    -5.61186     0.79569
 C     6.59494    -5.61271     0.79619
 C     7.29039    -6.82645     0.79542
 C     8.67983    -6.83239     0.78770
 C     9.35854    -5.61456     0.79304
 C     8.68708    -4.39781     0.79350
 C     7.29482    -4.40202     0.79014
 C     5.11637    -5.61940     0.82008
 O     4.47571    -6.67100     0.95774
 O     4.54710    -4.44975     0.69662
 H     6.79853    -7.68280     0.79497
 H     9.16155    -7.65891     0.77344
 H     9.16836    -3.53224     0.80030
 H     6.80661    -3.55249     0.77449
 H     3.65798    -4.53165     0.77255
Cl    -1.03200    -1.29747     3.39539
 C     3.46589    -1.29747     3.39539
 C     2.77149    -0.08427     3.39539
 C     1.38201    -0.07694     3.40338
 C     0.70330    -1.29477     3.39804
 C     1.37438    -2.51172     3.39849
 C     2.76601    -2.50816     3.40145
 C     4.94547    -1.28993     3.37100
 O     5.58613    -0.23834     3.23335
 O     5.51473    -2.45958     3.49447
 H     3.26230     0.77262     3.39661
 H     0.89991     0.74938     3.41855
 H     0.89285    -3.37776     3.39038
 H     3.25485    -3.35703     3.41750
 H     6.40284    -2.37854     3.41903
Cl    10.06184    -6.90933     4.19109
 C     5.56294    -6.91018     4.19158
 C     6.25839    -8.12392     4.19081
 C     7.64783    -8.12987     4.18310
 C     8.32654    -6.91203     4.18843
 C     7.65508    -5.69528     4.18889
 C     6.26282    -5.69949     4.18553
 C     4.08436    -6.91687     4.21548
 O     3.44371    -7.96847     4.35313
 O     3.51510    -5.74722     4.09201
 H     5.76653    -8.98028     4.19036
 H     8.12955    -8.95638     4.16883
 H     8.13636    -4.82971     4.19569
 H     5.77461    -4.84997     4.16988
 H     2.62598    -5.82912     4.16794
Cl    -3.64825    -4.28085    -2.44278
 C     0.84964    -4.28085    -2.44278
 C     0.15524    -3.06765    -2.44278
 C    -1.23424    -3.06032    -2.43479
 C    -1.91295    -4.27815    -2.44013
 C    -1.24187    -5.49509    -2.43969
 C     0.14976    -5.49154    -2.43673
 C     2.32922    -4.27331    -2.46717
 O     2.96988    -3.22172    -2.60482
 O     2.89849    -5.44296    -2.34370
 H     0.64605    -2.21076    -2.44156
 H    -1.71634    -2.23400    -2.41962
 H    -1.72340    -6.36113    -2.44779
 H     0.63860    -6.34041    -2.42067
 H     3.78659    -5.36192    -2.41914
Cl     7.44559    -9.89271    -1.64709
 C     2.94669    -9.89356    -1.64659
 C     3.64214   -11.10730    -1.64736
 C     5.03158   -11.11325    -1.65508
 C     5.71029    -9.89541    -1.64974
 C     5.03883    -8.67866    -1.64928
 C     3.64657    -8.68287    -1.65264
 C     1.46812    -9.90025    -1.62270
 O     0.82746   -10.95185    -1.48505
 O     0.89885    -8.73060    -1.74616
 H     3.15028   -11.96366    -1.64781
 H     5.51330   -11.93976    -1.66935
 H     5.52011    -7.81309    -1.64248
 H     3.15836    -7.83335    -1.66829
 H     0.00973    -8.81250    -1.67023
Cl    -4.68025    -5.57833     0.95261
 C    -0.18236    -5.57833     0.95261
 C    -0.87676    -4.36512     0.95261
 C    -2.26624    -4.35779     0.96060
 C    -2.94495    -5.57562     0.95526
 C    -2.27387    -6.79257     0.95570
 C    -0.88224    -6.78902     0.95866
 C     1.29722    -5.57078     0.92822
 O     1.93788    -4.51919     0.79057
 O     1.86648    -6.74043     1.05169
 H    -0.38595    -3.50823     0.95383
 H    -2.74834    -3.53147     0.97577
 H    -2.75540    -7.65861     0.94760
 H    -0.39340    -7.63788     0.97472
 H     2.75459    -6.65939     0.97625
Cl     6.41359   -11.19018     1.74830
 C     1.91469   -11.19104     1.74880
 C     2.61014   -12.40477     1.74803
 C     3.99958   -12.41072     1.74031
 C     4.67829   -11.19289     1.74565
 C     4.00683    -9.97613     1.74611
 C     2.61457    -9.98035     1.74275
 C     0.43612   -11.19773     1.77269
 O    -0.20454   -12.24932     1.91034
 O    -0.13315   -10.02807     1.64923
 H     2.11828   -13.26113     1.74758
 H     4.48130   -13.23723     1.72604
 H     4.48811    -9.11056     1.75291
 H     2.12636    -9.13082     1.72710
 H    -1.02227   -10.10997     1.72516
