  256
 
 C     0.00000     0.00000     0.00000
 C     1.48022     0.00000     0.00000
 C     2.19101     1.19017     0.00000
 C     3.57210     1.18840    -0.05538
 C     4.24227    -0.01732    -0.08821
 C     3.55684    -1.21400    -0.06176
 C     2.17428    -1.19897    -0.02783
 O    -0.60502     1.10966     0.07138
 O    -0.59877    -1.11222    -0.08537
 O     5.61860     0.02081    -0.12812
 H     1.71820     2.00502     0.00814
 H     4.09987     2.01919    -0.09579
 H     5.90936    -0.77222    -0.35021
 H     4.07865    -2.07538    -0.06257
 H     1.66741    -2.01213    -0.02178
 C     6.69186    -4.91927     1.29060
 C     5.24842    -4.64622     1.47224
 C     4.77424    -4.07514     2.64288
 C     3.42036    -3.87148     2.83256
 C     2.54040    -4.22297     1.82952
 C     2.99130    -4.76718     0.64500
 C     4.34703    -4.98625     0.47630
 O     7.49530    -4.55612     2.19895
 O     7.05952    -5.51766     0.23709
 O     1.20041    -3.99135     2.04886
 H     5.38662    -3.85407     3.32386
 H     3.05399    -3.50416     3.66996
 H     0.74334    -4.43283     1.44974
 H     2.32346    -4.98972    -0.07523
 H     4.69145    -5.37400    -0.32957
 C     1.41705     1.42896    -3.38711
 C    -0.06317     1.42896    -3.38711
 C    -0.77456     0.23929    -3.38774
 C    -2.15564     0.24106    -3.33236
 C    -2.82582     1.44677    -3.29953
 C    -2.14038     2.64345    -3.32598
 C    -0.75723     2.62792    -3.35929
 O     2.02207     0.31930    -3.45849
 O     2.01523     2.54167    -3.30238
 O    -4.20215     1.40865    -3.25962
 H    -0.30174    -0.57557    -3.39588
 H    -2.68342    -0.58973    -3.29195
 H    -4.49290     2.20168    -3.03753
 H    -2.66219     3.50483    -3.32518
 H    -0.25095     3.44159    -3.36596
 C    -0.09305    -8.66746     7.34725
 C     1.35039    -8.94051     7.16561
 C     1.82397    -9.51109     5.99434
 C     3.17786    -9.71476     5.80466
 C     4.05782    -9.36327     6.80770
 C     3.60691    -8.81906     7.99222
 C     2.25178    -8.60048     8.16155
 O    -0.89649    -9.03061     6.43890
 O    -0.46130    -8.06858     8.40013
 O     5.39781    -9.59488     6.58836
 H     1.21159    -9.73217     5.31336
 H     3.54422   -10.08207     4.96725
 H     5.85487    -9.15340     7.18748
 H     4.27475    -8.59652     8.71245
 H     1.90676    -8.21223     8.96679
 H    -1.47706     1.03995    -0.01241
 H     8.32193    -4.81854     2.06085
 H     2.89351     0.38950    -3.37533
 H    -1.72372    -8.76769     6.57637
 C     5.25104     1.45211    -3.24636
 C     6.73127     1.45211    -3.24636
 C     7.44206     2.64228    -3.24636
 C     8.82314     2.64050    -3.30174
 C     9.49332     1.43479    -3.33458
 C     8.80788     0.23811    -3.30812
 C     7.42533     0.25314    -3.27419
 O     4.64602     2.56176    -3.17498
 O     4.65227     0.33989    -3.33173
 O    10.86965     1.47291    -3.37448
 H     6.96924     3.45713    -3.23823
 H     9.35091     3.47129    -3.34215
 H    11.16040     0.67988    -3.59658
 H     9.32969    -0.62327    -3.30893
 H     6.91845    -0.56003    -3.26814
 C    11.94291    -3.46716    -1.95576
 C    10.49947    -3.19411    -1.77413
 C    10.02529    -2.62303    -0.60348
 C     8.67140    -2.41937    -0.41380
 C     7.79144    -2.77086    -1.41684
 C     8.24234    -3.31507    -2.60136
 C     9.59807    -3.53414    -2.77006
 O    12.74634    -3.10401    -1.04741
 O    12.31056    -4.06555    -3.00927
 O     6.45145    -2.53925    -1.19750
 H    10.63766    -2.40196     0.07750
 H     8.30504    -2.05206     0.42360
 H     5.99439    -2.98073    -1.79662
 H     7.57451    -3.53761    -3.32159
 H     9.94250    -3.92189    -3.57594
 C     6.66810     2.88106    -6.63348
 C     5.18787     2.88106    -6.63348
 C     4.47649     1.69139    -6.63411
 C     3.09540     1.69316    -6.57873
 C     2.42523     2.89888    -6.54589
 C     3.11066     4.09556    -6.57235
 C     4.49381     4.08003    -6.60565
 O     7.27312     1.77140    -6.70486
 O     7.26627     3.99378    -6.54874
 O     1.04890     2.86075    -6.50599
 H     4.94930     0.87654    -6.64224
 H     2.56763     0.86238    -6.53832
 H     0.75814     3.65378    -6.28389
 H     2.58885     4.95694    -6.57154
 H     5.00009     4.89369    -6.61233
 C     5.15799    -7.21536     4.10089
 C     6.60143    -7.48841     3.91925
 C     7.07501    -8.05899     2.74798
 C     8.42890    -8.26265     2.55830
 C     9.30886    -7.91116     3.56133
 C     8.85796    -7.36695     4.74585
 C     7.50282    -7.14838     4.91518
 O     4.35455    -7.57851     3.19254
 O     4.78974    -6.61647     5.15377
 O    10.64885    -8.14278     3.34200
 H     6.46264    -8.28006     2.06700
 H     8.79526    -8.62996     1.72089
 H    11.10592    -7.70129     3.94111
 H     9.52579    -7.14441     5.46608
 H     7.15780    -6.76013     5.72043
 H     3.77399     2.49206    -3.25878
 H    13.57297    -3.36643    -1.18551
 H     8.14456     1.84161    -6.62169
 H     3.52733    -7.31559     3.33001
 C     0.58276     4.32575     2.87755
 C     2.06299     4.32575     2.87755
 C     2.77377     5.51592     2.87755
 C     4.15486     5.51415     2.82217
 C     4.82504     4.30843     2.78933
 C     4.13960     3.11175     2.81579
 C     2.75705     3.12678     2.84972
 O    -0.02226     5.43541     2.94893
 O    -0.01601     3.21353     2.79218
 O     6.20136     4.34656     2.74943
 H     2.30096     6.33077     2.88568
 H     4.68263     6.34493     2.78176
 H     6.49212     3.55353     2.52733
 H     4.66141     2.25037     2.81498
 H     2.25017     2.31362     2.85577
 C     7.27462    -0.59352     4.16815
 C     5.83118    -0.32047     4.34978
 C     5.35701     0.25061     5.52043
 C     4.00312     0.45427     5.71011
 C     3.12316     0.10278     4.70707
 C     3.57406    -0.44143     3.52255
 C     4.92979    -0.66050     3.35385
 O     8.07806    -0.23037     5.07650
 O     7.64228    -1.19191     3.11463
 O     1.78317     0.33440     4.92641
 H     5.96938     0.47168     6.20140
 H     3.63676     0.82159     6.54751
 H     1.32610    -0.10708     4.32729
 H     2.90623    -0.66397     2.80232
 H     5.27422    -1.04825     2.54797
 C     1.99981     5.75470    -0.50957
 C     0.51959     5.75470    -0.50957
 C    -0.19180     4.56503    -0.51020
 C    -1.57288     4.56681    -0.45482
 C    -2.24306     5.77252    -0.42198
 C    -1.55762     6.96920    -0.44844
 C    -0.17447     6.95367    -0.48174
 O     2.60483     4.64505    -0.58095
 O     2.59799     6.86742    -0.42483
 O    -3.61938     5.73440    -0.38208
 H     0.28102     3.75018    -0.51833
 H    -2.10065     3.73602    -0.41441
 H    -3.91014     6.52743    -0.15999
 H    -2.07943     7.83058    -0.44763
 H     0.33181     7.76733    -0.48842
 C     0.48971    -4.34172    10.22479
 C     1.93315    -4.61476    10.04316
 C     2.40673    -5.18534     8.87188
 C     3.76062    -5.38901     8.68220
 C     4.64058    -5.03752     9.68524
 C     4.18968    -4.49331    10.86976
 C     2.83454    -4.27473    11.03909
 O    -0.31373    -4.70486     9.31644
 O     0.12146    -3.74283    11.27768
 O     5.98057    -5.26913     9.46590
 H     1.79436    -5.40642     8.19091
 H     4.12698    -5.75632     7.84480
 H     6.43763    -4.82765    10.06502
 H     4.85751    -4.27077    11.58999
 H     2.48952    -3.88648    11.84434
 H    -0.89429     5.36570     2.86513
 H     8.90469    -0.49279     4.93840
 H     3.47628     4.71525    -0.49779
 H    -1.14095    -4.44194     9.45391
 C     5.83381     5.77786    -0.36882
 C     7.31403     5.77786    -0.36882
 C     8.02482     6.96802    -0.36882
 C     9.40591     6.96625    -0.42420
 C    10.07608     5.76054    -0.45703
 C     9.39065     4.56386    -0.43058
 C     8.00809     4.57889    -0.39665
 O     5.22879     6.88751    -0.29744
 O     5.23504     4.66564    -0.45418
 O    11.45241     5.79866    -0.49694
 H     7.55201     7.78288    -0.36068
 H     9.93368     7.79704    -0.46461
 H    11.74316     5.00563    -0.71903
 H     9.91246     3.70248    -0.43138
 H     7.50122     3.76572    -0.39060
 C    12.52567     0.85859     0.92178
 C    11.08223     1.13164     1.10342
 C    10.60805     1.70271     2.27406
 C     9.25416     1.90638     2.46374
 C     8.37420     1.55489     1.46071
 C     8.82511     1.01068     0.27619
 C    10.18083     0.79160     0.10748
 O    13.32911     1.22174     1.83013
 O    12.89332     0.26020    -0.13173
 O     7.03421     1.78650     1.68004
 H    11.22043     1.92379     2.95504
 H     8.88780     2.27369     3.30115
 H     6.57715     1.34502     1.08092
 H     8.15727     0.78814    -0.44405
 H    10.52526     0.40385    -0.69839
 C     7.25086     7.20681    -3.75593
 C     5.77063     7.20681    -3.75593
 C     5.05925     6.01714    -3.75656
 C     3.67816     6.01891    -3.70118
 C     3.00799     7.22463    -3.66835
 C     3.69342     8.42131    -3.69480
 C     5.07657     8.40578    -3.72810
 O     7.85588     6.09715    -3.82731
 O     7.84903     8.31953    -3.67120
 O     1.63166     7.18650    -3.62844
 H     5.53206     5.20229    -3.76470
 H     3.15039     5.18812    -3.66077
 H     1.34091     7.97953    -3.40635
 H     3.17161     9.28269    -3.69400
 H     5.58285     9.21944    -3.73478
 C     5.74075    -2.88961     6.97843
 C     7.18419    -3.16266     6.79680
 C     7.65777    -3.73324     5.62552
 C     9.01166    -3.93690     5.43584
 C     9.89162    -3.58541     6.43888
 C     9.44072    -3.04120     7.62340
 C     8.08559    -2.82263     7.79273
 O     4.93732    -3.25276     6.07008
 O     5.37250    -2.29072     8.03131
 O    11.23161    -3.81703     6.21954
 H     7.04540    -3.95431     4.94454
 H     9.37803    -4.30422     4.59844
 H    11.68868    -3.37555     6.81866
 H    10.10855    -2.81866     8.34363
 H     7.74056    -2.43438     8.59797
 H     4.35675     6.81781    -0.38123
 H    14.15574     0.95931     1.69203
 H     8.72732     6.16735    -3.74415
 H     4.11009    -2.98984     6.20755
