   96
 
Pd     0.00000     0.00000     0.00000
Pd    -2.17556    -0.00000    -3.07670
Pd    -3.26333    -1.88409     0.00000
Pd    -3.26333     1.88409     0.00000
 F    -4.35111    -0.00000    -2.97824
 F    -2.85432     1.17566     2.01831
 F    -1.76655     0.70842    -1.05839
 F     0.26976    -1.88409    -1.05839
 F    -4.35111    -0.00000    -0.08000
 F    -1.48808    -1.19074     1.05223
 F    -0.40030     3.07483    -2.02447
 F    -2.46273    -1.88409    -2.02447
Pd     2.17556     3.76817     3.07670
Pd     0.00000     3.76817     0.00000
Pd    -1.08778     1.88409     3.07670
Pd    -1.08778     5.65226     3.07670
 F    -2.17556     3.76817     0.09846
 F    -0.67877     4.94384     5.09501
 F     0.40901     4.47659     2.01831
 F     2.44532     1.88409     2.01831
 F    -2.17555     3.76817     2.99670
 F     0.68747     2.57743     4.12893
 F     1.77525     6.84300     1.05223
 F    -0.28717     1.88409     1.05223
Pd     2.17556    -3.76817     3.07670
Pd    -0.00000    -3.76817     0.00000
Pd    -1.08778    -5.65226     3.07670
Pd    -1.08778    -1.88409     3.07670
 F    -2.17556    -3.76817     0.09846
 F    -0.67877    -2.59251     5.09501
 F     0.40901    -3.05975     2.01831
 F     2.44532    -5.65226     2.01831
 F    -2.17555    -3.76817     2.99670
 F     0.68747    -4.95891     4.12893
 F     1.77525    -0.69335     1.05223
 F    -0.28717    -5.65226     1.05223
Pd     4.35111     0.00000     6.15340
Pd     2.17556    -0.00000     3.07670
Pd     1.08778    -1.88409     6.15340
Pd     1.08778     1.88409     6.15340
 F     0.00000    -0.00000     3.17516
 F     1.49679     1.17566     8.17171
 F     2.58456     0.70842     5.09501
 F     4.62087    -1.88409     5.09501
 F     0.00000     0.00000     6.07340
 F     2.86303    -1.19074     7.20563
 F     3.95081     3.07483     4.12893
 F     1.88839    -1.88409     4.12893
Pd     4.35111     0.00000    -3.07670
Pd     2.17555    -0.00000    -6.15340
Pd     1.08778    -1.88409    -3.07670
Pd     1.08778     1.88409    -3.07670
 F    -0.00000     0.00000    -6.05494
 F     1.49679     1.17566    -1.05839
 F     2.58456     0.70842    -4.13509
 F     4.62087    -1.88409    -4.13509
 F    -0.00000     0.00000    -3.15670
 F     2.86303    -1.19074    -2.02447
 F     3.95081     3.07483    -5.10117
 F     1.88838    -1.88409    -5.10117
Pd     6.52667     3.76817    -0.00000
Pd     4.35111     3.76817    -3.07670
Pd     3.26333     1.88409     0.00000
Pd     3.26333     5.65226     0.00000
 F     2.17555     3.76817    -2.97824
 F     3.67234     4.94384     2.01831
 F     4.76012     4.47659    -1.05839
 F     6.79643     1.88409    -1.05839
 F     2.17556     3.76817    -0.08000
 F     5.03858     2.57743     1.05223
 F     6.12636     6.84300    -2.02447
 F     4.06394     1.88409    -2.02447
Pd     6.52666    -3.76817    -0.00000
Pd     4.35111    -3.76817    -3.07670
Pd     3.26333    -5.65226     0.00000
Pd     3.26333    -1.88409     0.00000
 F     2.17555    -3.76817    -2.97824
 F     3.67234    -2.59251     2.01831
 F     4.76012    -3.05975    -1.05839
 F     6.79643    -5.65226    -1.05839
 F     2.17555    -3.76817    -0.08000
 F     5.03858    -4.95891     1.05223
 F     6.12636    -0.69335    -2.02447
 F     4.06394    -5.65226    -2.02447
Pd     8.70222     0.00000     3.07670
Pd     6.52667     0.00000     0.00000
Pd     5.43889    -1.88409     3.07670
Pd     5.43889     1.88409     3.07670
 F     4.35111     0.00000     0.09846
 F     5.84790     1.17566     5.09501
 F     6.93567     0.70842     2.01831
 F     8.97198    -1.88409     2.01831
 F     4.35111     0.00000     2.99670
 F     7.21414    -1.19074     4.12893
 F     8.30192     3.07483     1.05223
 F     6.23950    -1.88409     1.05223
