   96
 
Pd     0.00000     0.00000     0.00000
Pd    -2.00647     0.12743    -2.77157
Pd    -2.96374    -1.66675    -0.09665
Pd    -2.91717     1.81739    -0.06264
 F    -4.28912     0.18926    -3.64525
 F    -2.34589     0.36095     1.40658
 F    -1.94102     0.14025    -0.63283
 F     1.11329    -1.60819    -0.75764
 F    -3.84933     0.28547    -1.63936
 F    -1.29576    -1.28894     0.77601
 F    -0.00896     3.40335    -2.27737
 F    -3.02092    -1.65607    -2.11879
Pd     1.96160     3.36166     2.68845
Pd    -0.00897     3.41653    -0.11451
Pd    -0.98098     1.76284     2.71538
Pd    -1.00417     5.09323     2.50007
 F    -1.79097     3.53339     1.03141
 F    -0.84835     5.07857     4.44636
 F    -0.00536     3.45683     2.02232
 F     3.11087     1.79851     1.97819
 F    -1.63994     3.45925     3.35991
 F     0.29266     3.23341     3.99437
 F     1.70533     6.83217     0.61696
 F    -1.03546     1.65397     0.63863
Pd     2.02947    -3.34218     2.69487
Pd    -0.04993    -3.34970    -0.00812
Pd    -0.82169    -5.04555     2.80365
Pd    -0.97589    -1.61660     2.72296
 F    -1.89801    -3.26977     1.32285
 F    -0.65222    -1.98030     4.66085
 F    -0.03342    -3.30304     2.06785
 F     3.07963    -4.95581     2.03529
 F    -1.58512    -3.34393     3.41926
 F     0.43550    -3.59017     4.02501
 F     1.93144    -0.11409     0.47603
 F    -0.97737    -5.09737     0.78892
Pd     3.94223     0.03836     5.39127
Pd     2.06415     0.00116     2.66005
Pd     1.04802    -1.71873     5.44501
Pd     0.94038     1.63145     5.45234
 F    -0.39873     0.10004     1.97940
 F     1.59186     0.00475     6.82990
 F     1.97703    -0.02989     4.79300
 F     5.03787    -1.58995     4.78800
 F    -0.12214    -0.01935     4.25114
 F     2.78210    -1.44924     6.13933
 F     4.01034     3.33249     3.41823
 F     0.93761    -1.73526     3.44201
Pd     3.87314     0.02906    -2.80142
Pd     1.93301    -0.04734    -5.58968
Pd     1.00337    -1.66614    -2.77673
Pd     0.87722     1.67014    -2.76598
 F    -0.19668     0.02278    -3.90656
 F     1.20901     1.41936    -0.80921
 F     1.87771     0.06087    -3.46761
 F     4.92210    -1.69713    -3.50624
 F     0.37475    -0.03769    -1.94957
 F     2.32472    -0.18733    -1.54320
 F     3.83422     3.32146    -4.96742
 F     0.80207    -1.65168    -4.79573
Pd     5.75450     3.48625    -0.13771
Pd     3.69218     3.50675    -2.57550
Pd     2.95321     1.72537    -0.03784
Pd     2.81778     5.22698     0.04276
 F     1.64658     3.34473    -3.44834
 F     3.55673     3.61451     1.36193
 F     4.89973     4.76053    -1.40906
 F     6.72979     1.75376    -0.66791
 F     1.84577     3.31808    -1.36373
 F     4.74036     1.90704     0.75346
 F     5.84853     6.57651    -2.22755
 F     2.78986     1.74344    -2.09622
Pd     5.97047    -3.48604     0.06096
Pd     3.94864    -3.38459    -2.75256
Pd     3.01737    -5.02866     0.02036
Pd     3.01007    -1.68335    -0.05999
 F     1.66441    -3.29935    -3.65217
 F     3.69073    -3.19756     1.35824
 F     4.11737    -3.27279    -0.71851
 F     7.06423    -5.08142    -0.53309
 F     2.15696    -3.37867    -1.62475
 F     4.75113    -4.92588     0.86988
 F     5.84376    -0.04288    -2.13396
 F     2.99250    -5.11693    -2.05024
Pd     7.89086    -0.14956     2.80222
Pd     5.84857    -0.03399    -0.00593
Pd     4.92891    -1.75003     2.70607
Pd     4.98691     1.66048     2.68344
 F     4.04531     0.05080     1.33021
 F     5.20044     1.50902     4.60063
 F     5.90816    -0.07207     2.19206
 F     8.90473    -1.92136     2.10005
 F     4.30990    -0.08062     3.45867
 F     6.28598    -0.17012     4.15584
 F     7.70249     3.09368     0.71610
 F     4.91668    -1.83847     0.60731
