   52
 
Sr     0.00000     0.00000     0.00000
Sr    -4.74368     0.46999     0.23895
Sr    -2.73613    -4.19934     4.01572
Sr    -7.47462    -4.74501     4.27517
Ga    -3.76516    -2.84779    -2.02274
Si    -3.82703    -2.72586     2.74673
 O    -3.36110    -1.84118     4.10852
 O    -4.48430    -1.49115     1.88003
 O    -2.50247    -3.17043     1.77945
 O    -2.21113    -3.33567    -1.17649
 O    -4.53623    -1.40503    -1.21434
 O    -4.89660    -4.32584    -2.06774
 O    -5.04300    -3.81381     2.98916
Si    -6.35200    -4.18173    -1.22687
Ga    -6.58408    -4.08140     1.97676
 O     1.74311    -2.71304     2.13372
 O    -6.92537    -5.72478    -0.90894
 O    -7.22756    -5.81487     2.05375
 O    -6.00145    -3.74433     0.28439
Si     1.07979    -1.47827     1.27268
Si     0.93028    -6.19235     2.51294
Ga     1.00083    -6.16233    -2.25152
 O     2.20751    -2.88627    -2.30889
Ga     1.45768    -1.43097    -1.50216
Ga    -3.29950     1.87949    -1.30139
Si    -3.68121     1.98096     1.48874
 O    -4.13631     2.82642     0.10039
 O    -3.00254    -6.19906     2.40394
 O    -5.01716     1.54849     2.44792
 O    -4.85408     1.36440    -2.12923
 O    -2.48564    -6.12933    -2.05791
 O    -2.15524     0.41329    -1.21873
 O    -2.45710     0.89719     1.29066
Si    -0.69874     0.58664    -2.05494
Ga    -0.89943     0.68753     2.28905
 O     0.23427     1.99473     1.60146
 O    -0.09193    -0.94463    -2.35673
 O    -0.25248    -1.04591     2.23595
 O    -1.05650     0.99452    -3.57275
 O     0.18727     1.84638    -1.49315
 O     0.61417    -2.36114    -0.08932
 O    -6.89687    -0.01787    -0.95850
 O     2.29188    -0.38369     1.03357
Si    -5.44257    -0.16956    -1.79964
Ga    -5.64055    -0.19095     2.54355
 O    -5.79247    -0.60827    -3.31033
 O    -8.07518    -7.10917     4.40051
 O    -0.14633    -4.69877    -2.31032
 O    -0.29673    -5.11332     2.72954
Si    -1.60592    -4.86703    -1.48242
Ga    -1.85183    -4.90505     1.72256
 O    -1.26616    -5.28258     0.03793
