  120
 
Cl     0.00000     0.00000     0.00000
Cl    -8.84232    -4.86235    -1.46340
Cl    -4.03949    -6.72440     0.47587
Cl    -4.75140     1.89235    -2.03432
Cl    -5.53749    -0.20162     1.74503
Cl    -3.25340    -4.63043    -3.30348
Cl    -8.05623    -2.76838    -5.24275
Cl    -0.78609    -2.09397     3.77935
 O     0.54920    -1.33897    -0.16969
 O    -9.36051    -3.50511    -1.35103
 O    -5.34813    -6.46134    -0.10852
 O    -3.47377     1.61102    -1.39261
 O    -6.08669     1.13735     1.91472
 O    -2.73521    -5.98767    -3.41585
 O    -6.74759    -3.03144    -4.65836
 O    -2.06372    -1.81264     3.13764
 O     0.04751     0.67824    -1.25290
 O    -7.72958    -4.85699    -2.35436
 O    -4.20504    -7.56987     1.61157
 O    -5.74610     2.05423    -1.02616
 O    -5.58500    -0.87986     2.99793
 O    -4.36614    -4.63579    -2.41252
 O    -7.89068    -1.92291    -6.37844
 O     0.20861    -2.25584     2.77119
 O     0.76228     0.70881     0.97963
 O    -9.86933    -5.72713    -1.95388
 O    -3.42979    -5.48950     0.85853
 O    -5.09638     0.81342    -2.90612
 O    -6.29977    -0.91042     0.76540
 O    -2.22639    -3.76565    -2.81299
 O    -8.66593    -4.00328    -5.62541
 O    -0.44111    -1.01504     4.65115
 O    -1.36767    -0.12513     0.41659
 O    -8.40345    -5.28445    -0.16380
 O    -3.23845    -7.40203    -0.50335
 O    -4.62363     3.11721    -2.77128
 O    -4.16982    -0.07649     1.32844
 O    -3.69227    -4.20833    -4.60307
 O    -8.85727    -2.09075    -4.26352
 O    -0.91386    -3.31883     4.51631
 O     2.42492     0.23235     3.69308
 O    -2.71754     5.36980    -2.32433
 O    -3.24825    -2.40035    -0.02376
 O    -3.75235    -1.37689    -4.84270
 O    -7.96241    -0.43396    -1.94805
 O     0.96182    -3.34328    -2.91842
 O    -2.28924     2.19874     1.76878
 O     1.99663     3.40341    -0.40005
 O     3.78217     2.05064     0.66018
 O    -4.48245     3.31132     1.46184
 O    -0.36203    -1.33641    -3.52021
 O    -6.23089    -2.20064    -2.09953
 O    -5.53788    -0.02411    -5.90293
 O    -1.05504    -3.51294     0.28319
 O    -1.39369     3.36294    -1.72254
 O     0.69341     1.99902     3.84456
 O     0.18990     3.39987     1.78325
 O    -2.93688     0.75622     4.12055
 O    -8.34029     1.34179     0.12391
 O    -7.49315     0.75584    -4.47693
 O    -5.72739    -3.60149    -0.03822
 O    -2.60061    -0.95783    -2.37552
 O    -4.70264     5.11355    -0.31815
 O    -5.54978     5.69949     4.28268
 H     3.30559     0.46079     3.94921
 H    -3.37053     5.27550    -3.00113
 H    -3.39833    -1.59376     0.44554
 H    -3.82993    -2.31762    -4.89132
 H    -8.84307    -0.66240    -2.20417
 H     1.61482    -3.24897    -2.24161
 H    -2.13916     1.39215     1.29950
 H     2.07422     4.34415    -0.35142
 H     2.54464    -0.45657     2.99150
 H    -2.41294     6.30872    -2.40679
 H    -4.14578    -2.81337    -0.09450
 H    -3.27913    -1.21387    -3.98793
 H    -8.08213     0.25495    -1.24647
 H     0.65722    -4.28219    -2.83596
 H    -1.39171     2.61175     1.83953
 H     1.52342     3.24040    -1.25482
 H     4.09139     2.62476     1.28345
 H    -5.00344     2.61243     1.22988
 H     0.20100    -0.67480    -3.27739
 H    -6.58214    -2.73747    -2.73365
 H    -5.84710    -0.59823    -6.52619
 H    -0.53404    -2.81404     0.51515
 H    -1.95671     2.70133    -1.96536
 H     1.04466     2.53586     4.47869
 H     0.54126     2.58514     3.04283
 H    -0.53814     3.19125    -2.22054
 H    -0.96192    -4.18268     1.02631
 H    -6.33442     0.23119    -5.34632
 H    -6.07875    -2.78676    -1.29780
 H    -1.21758    -1.16472    -3.02221
 H    -4.57557     3.98106     0.71872
 H     4.57870     1.79533     0.10357
 H     3.11117     2.59321     0.28489
 H    -3.66774     2.85341     1.57159
 H     0.17125    -2.07410    -3.28167
 H    -6.90788    -1.54762    -2.07253
 H    -4.86689    -0.56669    -5.52764
 H    -1.86975    -3.05503     0.17344
 H    -1.92697     4.10062    -1.96108
 H     1.37039     1.34600     3.81756
 H     0.52343     3.22149     1.15067
 H    -2.68347     1.28040     3.66863
 H    -8.94795     1.13180     0.48430
 H    -7.47243     0.62002    -3.75281
 H    -6.06092    -3.42311     0.59437
 H    -2.85402    -1.48202    -1.92360
 H    -4.09498     5.32353    -0.67854
 H    -5.57051     5.83531     3.55856
 H    -5.38529     4.98154    -0.84273
 H    -4.77940     5.88319     4.64515
 H    -5.74122    -4.45621    -0.20521
 H    -2.67451    -0.15480    -2.04642
 H    -7.65764     1.47379     0.64849
 H    -8.26354     0.57215    -4.83939
 H     0.20373     4.25459     1.95024
 H    -2.86298    -0.04681     3.79145
