   96
 
 C     0.00000     0.00000     0.00000
 C     1.37928     0.00209     0.05075
 C     2.07655     1.23004     0.06447
 C     1.38995     2.42821    -0.00531
 C    -0.18970     4.98454    -0.17851
 C    -0.95544     6.13611    -0.16665
 C    -2.36577     6.05994    -0.11016
 C    -2.98446     4.82588    -0.09058
 C    -2.88061     2.34874    -0.07070
 C    -2.16825     1.19644    -0.04283
 C    -0.72159     1.22145    -0.03977
 C    -0.02931     2.45879    -0.06506
 C    -0.79690     3.70031    -0.12151
 C    -2.21373     3.63328    -0.09997
 H    -0.55463    -0.93786    -0.01200
 H     1.93365    -0.93494     0.07712
 H     3.16537     1.22879     0.14117
 H     1.95979     3.35889    -0.00584
 H     0.89656     5.07524    -0.23363
 H    -0.47824     7.11639    -0.19918
 H    -2.95270     6.97799    -0.08298
 H    -4.07214     4.75082    -0.05939
 H    -3.97152     2.33655    -0.06694
 H    -2.66396     0.22497    -0.00731
 C     2.17255     6.76598     2.29316
 C     2.39201     7.55787     1.18390
 C     3.21360     7.08161     0.13815
 C     3.81682     5.84090     0.22805
 C     5.14920     3.16226     0.54449
 C     5.70002     1.90389     0.70314
 C     5.36730     1.11378     1.82665
 C     4.51370     1.61585     2.78862
 C     3.03833     3.41229     3.65393
 C     2.47719     4.64013     3.53454
 C     2.76956     5.48137     2.39364
 C     3.62888     5.01309     1.36756
 C     4.25562     3.70129     1.50948
 C     3.95019     2.91176     2.64747
 H     1.53719     7.11363     3.10751
 H     1.93379     8.54358     1.09664
 H     3.35839     7.69973    -0.74749
 H     4.43358     5.49609    -0.60373
 H     5.39774     3.73585    -0.34938
 H     6.38963     1.50425    -0.04167
 H     5.77901     0.10872     1.91984
 H     4.25686     1.01846     3.66504
 H     2.80771     2.76650     4.50295
 H     1.77663     5.01548     4.28230
 C    -4.70098    -2.32895     3.08142
 C    -3.32062    -2.31642     3.09775
 C    -2.62937    -1.08522     3.12525
 C    -3.32407     0.10888     3.07842
 C    -4.90911     2.65295     2.90618
 C    -5.67509     3.80406     2.92033
 C    -7.08409     3.72580     2.99238
 C    -7.70084     2.49087     3.02287
 C    -7.59247     0.01089     3.03138
 C    -6.87686    -1.13975     3.05471
 C    -5.43011    -1.11128     3.05342
 C    -4.74362     0.12954     3.02621
 C    -5.51461     1.36838     2.97484
 C    -6.93074     1.29832     3.00586
 H    -5.24558    -3.27324     3.09265
 H    -2.75963    -3.24881     3.08208
 H    -1.54062    -1.07901     3.20250
 H    -2.76095     1.04386     3.09393
 H    -3.82334     2.74407     2.84066
 H    -5.19840     4.78414     2.87872
 H    -7.67322     4.64235     3.02319
 H    -8.78804     2.41916     3.07168
 H    -8.68233    -0.00568     3.03299
 H    -7.36974    -2.11251     3.08341
 C    -2.54144     4.42952     5.38446
 C    -2.32484     5.22227     4.27555
 C    -1.47912     4.76231     3.24238
 C    -0.85027     3.53468     3.34195
 C     0.48959     0.85672     3.66219
 C     1.02653    -0.40851     3.81658
 C     0.68258    -1.20411     4.93256
 C    -0.17184    -0.70178     5.89389
 C    -1.58663     1.12532     6.79168
 C    -2.16209     2.34511     6.66365
 C    -1.91909     3.15883     5.49305
 C    -1.05210     2.69631     4.47104
 C    -0.42028     1.38735     4.61630
 C    -0.72215     0.60000     5.75718
 H    -3.18540     4.77055     6.19473
 H    -2.79674     6.20075     4.19376
 H    -1.33308     5.37993     2.35381
 H    -0.19443     3.21547     2.52953
 H     0.77692     1.44844     2.79072
 H     1.72056    -0.80566     3.07539
 H     1.09895    -2.20708     5.02776
 H    -0.43194    -1.29840     6.76956
 H    -1.74678     0.51766     7.68410
 H    -2.81689     2.74849     7.43877
