  576
 
 C     0.00000     0.00000     0.00000
 C     1.37849     0.01583    -0.00156
 C     2.06106     1.24313    -0.00095
 C     1.36000     2.43054    -0.01537
 C    -0.19031     4.94450    -0.13069
 C    -0.94410     6.09858    -0.18918
 C    -2.34865     6.03143    -0.14276
 C    -2.97353     4.80731    -0.04539
 C    -2.87376     2.34235     0.04960
 C    -2.16473     1.18810     0.04354
 C    -0.72870     1.20868     0.00265
 C    -0.04991     2.44319    -0.02423
 C    -0.80797     3.67646    -0.05316
 C    -2.21461     3.61733    -0.00930
 H    -0.54439    -0.94360     0.00319
 H     1.94577    -0.91410    -0.00012
 H     3.15136     1.25646     0.01992
 H     1.90628     3.37612    -0.02078
 H     0.90143     5.01561    -0.14338
 H    -0.45339     7.06922    -0.26208
 H    -2.93256     6.95091    -0.17810
 H    -4.06070     4.73532    -0.00234
 H    -3.96728     2.33222     0.08763
 H    -2.66544     0.21668     0.07484
 C     1.91444     6.39607     2.27498
 C     2.21148     7.24733     1.23203
 C     3.11863     6.84028     0.23866
 C     3.72469     5.60306     0.30392
 C     5.03971     2.96831     0.53818
 C     5.62862     1.72844     0.67260
 C     5.27432     0.88876     1.74391
 C     4.33512     1.30177     2.66257
 C     2.76393     3.00540     3.50616
 C     2.18667     4.22700     3.41764
 C     2.52063     5.12260     2.34638
 C     3.45083     4.71906     1.36725
 C     4.08376     3.42158     1.47363
 C     3.73307     2.57250     2.54066
 H     1.21366     6.69247     3.05659
 H     1.75378     8.23487     1.16836
 H     3.34161     7.50524    -0.59709
 H     4.42629     5.30456    -0.47936
 H     5.31125     3.60374    -0.30902
 H     6.36104     1.38979    -0.05880
 H     5.74108    -0.09101     1.83466
 H     4.04453     0.65893     3.49259
 H     2.51458     2.31929     4.31847
 H     1.44904     4.55814     4.15370
 C    -2.73174     8.38605     2.24483
 C    -1.35362     8.36315     2.21872
 C    -0.63673     9.57124     2.22056
 C    -1.30443    10.77805     2.23134
 C    -2.78864    13.33928     2.19262
 C    -3.51294    14.51329     2.16227
 C    -4.91837    14.48075     2.21383
 C    -5.57384    13.27147     2.29020
 C    -5.53864    10.80591     2.35384
 C    -4.86078     9.63339     2.32956
 C    -3.42562     9.61499     2.27156
 C    -2.71351    10.83095     2.24933
 C    -3.43748    12.08538     2.24954
 C    -4.84477    12.06261     2.30396
 H    -3.30236     7.45801     2.24906
 H    -0.81370     7.41712     2.19593
 H     0.45437     9.55543     2.22338
 H    -0.73091    11.70804     2.22587
 H    -1.69624    13.38537     2.17485
 H    -2.99600    15.47132     2.10620
 H    -5.48081    15.41406     2.20075
 H    -6.66217    13.22391     2.33154
 H    -6.63164    10.82638     2.40396
 H    -5.38680     8.67577     2.35865
 C    -0.72075    14.87392     4.65966
 C    -0.44275    15.75749     3.63916
 C     0.43996    15.38147     2.61242
 C     1.04255    14.14108     2.62615
 C     2.33712    11.48505     2.74034
 C     2.92017    10.23786     2.82292
 C     2.57579     9.36095     3.86738
 C     1.65963     9.75142     4.81905
 C     0.12448    11.43922     5.75857
 C    -0.44340    12.66782     5.72161
 C    -0.12555    13.59427     4.67242
 C     0.77851    13.21850     3.65932
 C     1.40067    11.91220     3.70723
 C     1.06617    11.03058     4.75428
 H    -1.39771    15.14983     5.46835
 H    -0.89658    16.74800     3.62267
 H     0.64569    16.07259     1.79355
 H     1.73363    13.87032     1.82446
 H     2.60269    12.14776     1.91150
 H     3.64474     9.92534     2.07283
 H     3.02962     8.37141     3.91105
 H     1.38038     9.08289     5.63231
 H    -0.11430    10.73291     6.55750
 H    -1.16005    12.98513     6.48356
 C    -4.52245    -2.10137     2.89339
 C    -3.14586    -2.15770     2.83378
 C    -2.40114    -0.96931     2.76307
 C    -3.04096     0.25208     2.74101
 C    -4.45524     2.83863     2.63770
 C    -5.14322     4.03340     2.59267
 C    -6.54721     4.04377     2.67145
 C    -7.23819     2.85739     2.79233
 C    -7.27056     0.39107     2.94675
 C    -6.62079    -0.79836     2.96823
 C    -5.18811    -0.85665     2.87918
 C    -4.44737     0.33787     2.78516
 C    -5.14021     1.60843     2.74568
 C    -6.54679     1.62672     2.82681
 H    -5.11383    -3.01384     2.95259
 H    -2.62656    -3.11530     2.84129
 H    -1.31101    -1.01171     2.73507
 H    -2.44835     1.16837     2.69153
 H    -3.36192     2.84883     2.59346
 H    -4.59954     4.97459     2.50863
 H    -7.07854     4.99590     2.64972
 H    -8.32533     2.85208     2.86652
 H    -8.36096     0.43861     3.01485
 H    -7.16846    -1.74012     3.05753
 C    -2.54146     4.21980     5.09964
 C    -2.22648     5.09248     4.07983
 C    -1.30192     4.70962     3.09538
 C    -0.70331     3.46854     3.14236
 C     0.57842     0.81402     3.31577
 C     1.17145    -0.42571     3.43676
 C     0.81349    -1.28198     4.49301
 C    -0.13583    -0.88367     5.40872
 C    -1.70778     0.80476     6.27928
 C    -2.28223     2.02968     6.20823
 C    -1.94289     2.94268     5.15286
 C    -1.00576     2.55782     4.17342
 C    -0.38287     1.25356     4.25176
 C    -0.74066     0.38683     5.30322
 H    -3.25259     4.50439     5.87456
 H    -2.68523     6.07924     4.02718
 H    -1.06164     5.39474     2.28279
 H     0.01575     3.18797     2.36918
 H     0.86003     1.46165     2.48030
 H     1.91200    -0.74927     2.70580
 H     1.28446    -2.26200     4.57557
 H    -0.43021    -1.53763     6.23079
 H    -1.95381     0.11252     7.08871
 H    -3.01460     2.35195     6.95213
 C    -7.20648     6.28990     5.17144
 C    -5.83168     6.20988     5.09995
 C    -5.06842     7.38647     5.02276
 C    -5.68741     8.61880     5.01348
 C    -7.05976    11.23454     4.97640
 C    -7.72945    12.44025     4.95367
 C    -9.13265    12.47013     5.03962
 C    -9.84133    11.29240     5.13607
 C    -9.91242     8.82627     5.25205
 C    -9.28330     7.62648     5.25537
 C    -7.85146     7.54597     5.16431
 C    -7.09142     8.72950     5.07652
 C    -7.76257    10.01250     5.06262
 C    -9.16822    10.05128     5.14863
 H    -7.81314     5.38786     5.23752
 H    -5.32894     5.24344     5.10095
 H    -3.97993     7.32717     4.98080
 H    -5.07974     9.52477     4.95710
 H    -5.96649    11.23108     4.93393
 H    -7.17054    13.37354     4.88039
 H    -9.64940    13.43041     5.04564
 H   -10.92822    11.29883     5.20564
 H   -11.00221     8.89328     5.32414
 H    -9.84675     6.69241     5.32905
 C    -5.19660    12.73184     7.45031
 C    -4.88602    13.62422     6.44720
 C    -3.97323    13.25996     5.44455
 C    -3.38330    12.01444     5.45634
 C    -2.14092     9.33879     5.54211
 C    -1.56489     8.08780     5.61926
 C    -1.92625     7.20388     6.65167
 C    -2.85447     7.59215     7.59349
 C    -4.37334     9.28819     8.54740
 C    -4.93170    10.52215     8.51492
 C    -4.60478    11.45089     7.46921
 C    -3.68674    11.08017     6.46702
 C    -3.08209     9.76595     6.50413
 C    -3.43573     8.87739     7.53882
 H    -5.89863    13.00154     8.23829
 H    -5.33701    14.61527     6.42397
 H    -3.73841    13.96346     4.64587
 H    -2.67151    11.74752     4.67194
 H    -1.86182    10.00683     4.72172
 H    -0.83378     7.77787     4.87266
 H    -1.47538     6.21203     6.69153
 H    -3.15306     6.91670     8.39584
 H    -4.61209     8.58492     9.35002
 H    -5.63926    10.84160     9.28401
 C    -8.91311    -4.45441     5.83850
 C    -7.53768    -4.50382     5.76740
 C    -6.79870    -3.31149     5.69464
 C    -7.44207    -2.09226     5.67717
 C    -8.87615     0.49011     5.63854
 C    -9.57419     1.67916     5.60564
 C   -10.97836     1.67957     5.68570
 C   -11.65918     0.48722     5.80470
 C   -11.66998    -1.97994     5.95534
 C   -11.01069    -3.16323     5.96226
 C    -9.58019    -3.21071     5.84841
 C    -8.84794    -2.01131     5.75318
 C    -9.55133    -0.74576     5.74063
 C   -10.95762    -0.73769     5.83466
 H    -9.50125    -5.36990     5.88831
 H    -7.01264    -5.45854     5.76392
 H    -5.70908    -3.35322     5.66065
 H    -6.85192    -1.17581     5.60581
 H    -7.78340     0.51032     5.58910
 H    -9.03778     2.62466     5.52882
 H   -11.51577     2.62760     5.66556
 H   -12.74660     0.47237     5.87438
 H   -12.75982    -1.94266     6.03362
 H   -11.54298    -4.11327     6.05917
 C    -6.92788     2.11565     7.97588
 C    -6.63321     2.92503     6.89951
 C    -5.76643     2.46334     5.89607
 C    -5.19616     1.21142     5.98654
 C    -3.94358    -1.44497     6.26829
 C    -3.35427    -2.67955     6.44587
 C    -3.67963    -3.46664     7.56553
 C    -4.59631    -3.00745     8.48673
 C    -6.13788    -1.25929     9.29566
 C    -6.68650    -0.02563     9.18319
 C    -6.36138     0.82619     8.07331
 C    -5.47344     0.36712     7.08024
 C    -4.86800    -0.94119     7.21000
 C    -5.20000    -1.74183     8.32075
 H    -7.60005     2.46046     8.76068
 H    -7.06187     3.92329     6.81509
 H    -5.55006     3.09561     5.03442
 H    -4.51697     0.87147     5.20114
 H    -3.68915    -0.85232     5.38475
 H    -2.63909    -3.05245     5.71346
 H    -3.20644    -4.43969     7.69507
 H    -4.86202    -3.60544     9.35943
 H    -6.38912    -1.91288    10.13601
 H    -7.39078     0.34450     9.93185
 C   -11.59900     3.92521     8.09224
 C   -10.22451     3.86401     8.01940
 C    -9.47651     5.05152     7.95422
 C   -10.10871     6.27709     7.94839
 C   -11.53383     8.87716     7.94486
 C   -12.22964    10.06820     7.92290
 C   -13.63424    10.07075     8.00292
 C   -14.31623     8.87717     8.10016
 C   -14.33762     6.41345     8.22669
 C   -13.68561     5.22704     8.21828
 C   -12.25483     5.17457     8.10994
 C   -11.51373     6.36994     8.02838
 C   -12.21004     7.63979     8.03128
 C   -13.61631     7.65161     8.12099
 H   -12.19692     3.01574     8.13841
 H    -9.71185     2.90272     8.00465
 H    -8.38815     5.00137     7.91917
 H    -9.51140     7.18882     7.88191
 H   -10.44109     8.89744     7.89886
 H   -11.69106    11.01372     7.84910
 H   -14.17023    11.01945     7.99927
 H   -15.40466     8.85670     8.15437
 H   -15.42741     6.45869     8.30721
 H   -14.22319     4.27806     8.29728
 C    -9.54393    10.59047    10.33503
 C    -9.26618    11.42617     9.27518
 C    -8.41748    10.99158     8.24440
 C    -7.85071     9.73621     8.28979
 C    -6.62767     7.06047     8.46144
 C    -6.05212     5.81324     8.58496
 C    -6.36853     4.99083     9.68194
 C    -7.25607     5.43234    10.63902
 C    -8.75015     7.17696    11.54449
 C    -9.28976     8.41727    11.47923
 C    -8.98409     9.29555    10.38410
 C    -8.12048     8.85945     9.35998
 C    -7.52750     7.54225     9.43780
 C    -7.84409     6.71177    10.53090
 H   -10.19486    10.91678    11.14541
 H    -9.69274    12.42699     9.22600
 H    -8.21147    11.64798     7.39906
 H    -7.18014     9.41896     7.48823
 H    -6.38198     7.68172     7.59457
 H    -5.35365     5.45855     7.82782
 H    -5.91346     4.00364     9.76214
 H    -7.51251     4.80795    11.49540
 H    -8.98508     6.50547    12.37572
 H    -9.96908     8.77633    12.25657
 C    -4.16091    -0.37882    -6.80021
 C    -2.78427    -0.31118    -6.78109
 C    -2.14506     0.93949    -6.73118
 C    -2.88652     2.10276    -6.73513
 C    -4.53000     4.55610    -6.91822
 C    -5.33071     5.67742    -6.98802
 C    -6.73184     5.55464    -6.94823
 C    -7.30932     4.30873    -6.84209
 C    -7.11572     1.85469    -6.72424
 C    -6.36448     0.72778    -6.73994
 C    -4.93068     0.80377    -6.77825
 C    -4.29591     2.06209    -6.78095
 C    -5.09921     3.26595    -6.82577
 C    -6.50269     3.15162    -6.78796
 H    -4.67100    -1.34152    -6.82941
 H    -2.18354    -1.21974    -6.79761
 H    -1.05605     0.98845    -6.68046
 H    -2.37434     3.06744    -6.69897
 H    -3.44271     4.67031    -6.93566
 H    -4.88162     6.66661    -7.06594
 H    -7.35405     6.44739    -6.99727
 H    -8.39303     4.19099    -6.80921
 H    -8.20704     1.80650    -6.67581
 H    -6.82735    -0.26169    -6.71556
 C    -2.13972     6.14356    -4.43174
 C    -1.80463     6.96895    -5.48384
 C    -0.91906     6.51064    -6.47381
 C    -0.36443     5.25016    -6.38698
 C     0.92221     2.60096    -6.04793
 C     1.49960     1.36296    -5.85340
 C     1.10216     0.55493    -4.77272
 C     0.13234     1.00123    -3.90308
 C    -1.43093     2.74420    -3.14192
 C    -1.96601     3.98316    -3.25673
 C    -1.58786     4.84785    -4.33873
 C    -0.66746     4.39661    -5.30635
 C    -0.06161     3.08940    -5.15928
 C    -0.45262     2.27321    -4.08017
 H    -2.83087     6.47981    -3.65941
 H    -2.21847     7.97481    -5.55707
 H    -0.67175     7.15478    -7.31940
 H     0.32107     4.91147    -7.16754
 H     1.23066     3.21010    -6.90139
 H     2.26196     1.00006    -6.54118
 H     1.56127    -0.42308    -4.63219
 H    -0.19339     0.39045    -3.06175
 H    -1.71621     2.07682    -2.32519
 H    -2.69788     4.35110    -2.53360
 C    -6.82159     7.95853    -4.54781
 C    -5.44383     8.00182    -4.52998
 C    -4.78475     9.24217    -4.48320
 C    -5.50643    10.41809    -4.47345
 C    -7.11256    12.90568    -4.56936
 C    -7.89478    14.04193    -4.60147
 C    -9.29726    13.94140    -4.55894
 C    -9.89330    12.70158    -4.49402
 C    -9.73912    10.24207    -4.44478
 C    -9.00692     9.10326    -4.48229
 C    -7.57160     9.15402    -4.51678
 C    -6.91682    10.40284    -4.50315
 C    -7.70035    11.62156    -4.51394
 C    -9.10550    11.53033    -4.47599
 H    -7.34512     7.00288    -4.58346
 H    -4.85809     7.08276    -4.54801
 H    -3.69435     9.27338    -4.44738
 H    -4.97588    11.37343    -4.43889
 H    -6.02424    13.00627    -4.58452
 H    -7.42822    15.02472    -4.65285
 H    -9.90431    14.84574    -4.57077
 H   -10.97910    12.60009    -4.46845
 H   -10.83125    10.21120    -4.40154
 H    -9.48862     8.12261    -4.47926
 C    -4.82313    14.61246    -2.05036
 C    -4.51813    15.47207    -3.08404
 C    -3.64152    15.05647    -4.10036
 C    -3.07294    13.80005    -4.06065
 C    -1.79962    11.13146    -3.85921
 C    -1.21351     9.88989    -3.72324
 C    -1.57707     9.04530    -2.65856
 C    -2.51862     9.46267    -1.74366
 C    -4.06105    11.18203    -0.87687
 C    -4.60743    12.41957    -0.94410
 C    -4.26166    13.31840    -2.00941
 C    -3.35995    12.90364    -3.00996
 C    -2.75403    11.59059    -2.92395
 C    -3.11094    10.73928    -1.85901
 H    -5.49678    14.92146    -1.25190
 H    -4.94890    16.47250    -3.11976
 H    -3.41389    15.73031    -4.92810
 H    -2.38967    13.49692    -4.85682
 H    -1.51915    11.76706    -4.70367
 H    -0.46933     9.55493    -4.44451
 H    -1.11586     8.06214    -2.56813
 H    -2.81407     8.82145    -0.91448
 H    -4.31853    10.49499    -0.06607
 H    -5.32246    12.76660    -0.19361
 C    -8.64243    -2.49401    -3.92888
 C    -7.26481    -2.48801    -3.98364
 C    -6.57015    -1.26676    -4.00656
 C    -7.25920    -0.07236    -4.00366
 C    -8.78765     2.44574    -4.15332
 C    -9.53319     3.60419    -4.22096
 C   -10.93680     3.54851    -4.14532
 C   -11.57188     2.33476    -4.00056
 C   -11.49252    -0.12512    -3.82271
 C   -10.79232    -1.28486    -3.81763
 C    -9.35880    -1.27809    -3.91110
 C    -8.66909    -0.05112    -3.97936
 C    -9.41688     1.18700    -4.02457
 C   -10.82268     1.13988    -3.94517
 H    -9.19398    -3.43295    -3.89918
 H    -6.70555    -3.42222    -4.00711
 H    -5.47932    -1.26340    -4.01897
 H    -6.70483     0.86935    -4.01944
 H    -7.69639     2.50659    -4.20132
 H    -9.03811     4.56912    -4.32482
 H   -11.51538     4.47081    -4.19306
 H   -12.65770     2.27730    -3.93007
 H   -12.58297    -0.12389    -3.74654
 H   -11.29771    -2.25063    -3.73936
 C    -6.62559     3.98088    -1.59920
 C    -6.29521     4.82582    -2.63715
 C    -5.40838     4.39180    -3.63576
 C    -4.84935     3.13285    -3.57309
 C    -3.59352     0.46808    -3.32304
 C    -3.01527    -0.77468    -3.16438
 C    -3.39736    -1.60306    -2.09384
 C    -4.35598    -1.17380    -1.20244
 C    -5.90502     0.55521    -0.37866
 C    -6.43958     1.79776    -0.46321
 C    -6.07299     2.68405    -1.53249
 C    -5.15860     2.25470    -2.51487
 C    -4.56004     0.94093    -2.40792
 C    -4.94079     0.10254    -1.34168
 H    -7.31398     4.30260    -0.81886
 H    -6.71192     5.83102    -2.69285
 H    -5.16695     5.05224    -4.46919
 H    -4.15611     2.81183    -4.35391
 H    -3.29575     1.09325    -4.16960
 H    -2.26597    -1.12462    -3.87406
 H    -2.93615    -2.58420    -1.97994
 H    -4.67437    -1.80345    -0.37086
 H    -6.18145    -0.12500     0.43147
 H    -7.16016     2.15134     0.27817
 C   -11.30078     5.82803    -1.65478
 C    -9.92282     5.80787    -1.69839
 C    -9.20657     7.01669    -1.71511
 C    -9.87315     8.22406    -1.71104
 C   -11.35654    10.77583    -1.81047
 C   -12.07974    11.95021    -1.84345
 C   -13.48298    11.92030    -1.75651
 C   -14.14082    10.71529    -1.64368
 C   -14.10650     8.25078    -1.52306
 C   -13.42799     7.07798    -1.53957
 C   -11.99447     7.05742    -1.63154
 C   -11.28247     8.27270    -1.68508
 C   -12.00755     9.52616    -1.70602
 C   -13.41381     9.50538    -1.62157
 H   -11.86840     4.89796    -1.63821
 H    -9.38023     4.86284    -1.71918
 H    -8.11585     7.00028    -1.72375
 H    -9.30008     9.15467    -1.72444
 H   -10.26506    10.81956    -1.86511
 H   -11.56413    12.90597    -1.92936
 H   -14.04270    12.85550    -1.76983
 H   -15.22730    10.67736    -1.57435
 H   -15.19635     8.27128    -1.44484
 H   -13.95271     6.12183    -1.47578
 C    -9.29714    12.43478     0.77098
 C    -8.99260    13.30808    -0.25119
 C    -8.11037    12.91285    -1.26932
 C    -7.53709    11.65899    -1.24632
 C    -6.27194     8.99566    -1.09815
 C    -5.67488     7.75707    -0.98404
 C    -6.02644     6.89598     0.07089
 C    -6.96884     7.29214     0.99526
 C    -8.51597     8.98924     1.89929
 C    -9.06286    10.22898     1.85447
 C    -8.72896    11.14340     0.79789
 C    -7.82922    10.74752    -0.21123
 C    -7.22260     9.43427    -0.15044
 C    -7.57133     8.56556     0.90293
 H    -9.97618    12.72930     1.56954
 H    -9.42560    14.30730    -0.27768
 H    -7.88484    13.59892    -2.08611
 H    -6.84655    11.36858    -2.04127
 H    -5.99991     9.64668    -1.93404
 H    -4.93145     7.44000    -1.71528
 H    -5.55425     5.91610     0.14589
 H    -7.25626     6.63644     1.81768
 H    -8.76865     8.29092     2.70192
 H    -9.76778    10.56263     2.61988
 C   -13.01969    -4.82103    -0.94748
 C   -11.64429    -4.80585    -1.03269
 C   -10.95758    -3.58001    -1.06882
 C   -11.65285    -2.38917    -1.04248
 C   -13.21368     0.12250    -1.12783
 C   -13.97821     1.26912    -1.18773
 C   -15.37994     1.19782    -1.08622
 C   -15.99445    -0.02464    -0.92756
 C   -15.88451    -2.48200    -0.78906
 C   -15.17216    -3.63366    -0.80299
 C   -13.74096    -3.60910    -0.91048
 C   -13.06209    -2.37614    -0.98010
 C   -13.82390    -1.14520    -0.99708
 C   -15.22841    -1.20913    -0.89784
 H   -13.56460    -5.76418    -0.90819
 H   -11.07867    -5.73593    -1.07201
 H    -9.86786    -3.57526    -1.10910
 H   -11.10247    -1.44531    -1.06888
 H   -12.12401     0.20099    -1.18357
 H   -13.49930     2.23950    -1.30495
 H   -15.96988     2.11251    -1.12540
 H   -17.07723    -0.09930    -0.82875
 H   -16.97414    -2.49664    -0.71290
 H   -15.66408    -4.60647    -0.73232
 C   -10.94451     1.86333     1.24584
 C   -10.59228     2.64578     0.16652
 C    -9.74425     2.12652    -0.82520
 C    -9.24737     0.84443    -0.71587
 C    -8.04446    -1.82700    -0.32252
 C    -7.47801    -3.06278    -0.08689
 C    -7.86569    -3.82022     1.03351
 C    -8.81212    -3.32411     1.90338
 C   -10.32841    -1.52140     2.62803
 C   -10.82736    -0.26979     2.48487
 C   -10.44578     0.54858     1.36733
 C    -9.56644     0.03468     0.39308
 C    -8.99808    -1.28551     0.56804
 C    -9.38154    -2.05078     1.68707
 H   -11.60669     2.25198     2.01872
 H   -10.96302     3.66629     0.07104
 H    -9.47790     2.74053    -1.68725
 H    -8.59103     0.45442    -1.49745
 H    -7.74541    -1.25911    -1.20733
 H    -6.72750    -3.46037    -0.76900
 H    -7.41544    -4.79733     1.20595
 H    -9.12841    -3.89444     2.77750
 H   -10.62189    -2.15463     3.47059
 H   -11.53127     0.14125     3.21218
 C   -15.65610     3.51350     1.30990
 C   -14.28035     3.52003     1.23417
 C   -13.58799     4.74296     1.20233
 C   -14.27423     5.93929     1.23507
 C   -15.82501     8.46398     1.20458
 C   -16.58292     9.61648     1.17194
 C   -17.98479     9.55072     1.27328
 C   -18.60539     8.32706     1.39747
 C   -18.50770     5.86756     1.48574
 C   -17.80105     4.71288     1.44950
 C   -16.36895     4.73059     1.35087
 C   -15.68334     5.96105     1.30031
 C   -16.44004     7.19613     1.30744
 C   -17.84500     7.13863     1.40336
 H   -16.20750     2.57353     1.33847
 H   -13.72267     2.58419     1.19623
 H   -12.49883     4.74255     1.15950
 H   -13.71626     6.87902     1.21214
 H   -14.73523     8.53895     1.14913
 H   -16.09635    10.58565     1.07279
 H   -18.56972    10.46922     1.26120
 H   -19.68979     8.25449     1.48420
 H   -19.59713     5.85759     1.56270
 H   -18.29880     3.74186     1.49708
 C   -13.55686    10.27423     3.60397
 C   -13.22165    11.08349     2.53912
 C   -12.38457    10.59191     1.52427
 C   -11.88203     9.30952     1.59618
 C   -10.68479     6.62745     1.89485
 C   -10.11645     5.38480     2.08449
 C   -10.49087     4.59450     3.18670
 C   -11.42160     5.06678     4.08641
 C   -12.92273     6.85364     4.88873
 C   -13.42417     8.10823     4.78427
 C   -13.05778     8.95637     3.68371
 C   -12.19128     8.46896     2.68495
 C   -11.62390     7.14341     2.81555
 C   -11.99153     6.34759     3.91876
 H   -14.20576    10.64209     4.39740
 H   -13.59687    12.10392     2.47323
 H   -12.13168    11.22746     0.67453
 H   -11.22960     8.94267     0.80043
 H   -10.39887     7.22150     1.02224
 H    -9.37464     5.00859     1.38024
 H   -10.04444     3.60889     3.32023
 H   -11.72477     4.46763     4.94554
 H   -13.20285     6.20124     5.72126
 H   -14.11670     8.50306     5.53170
