  304
 
 O     0.00000     0.00000     0.00000
 O     2.22927     0.10467    -0.03122
 O    -4.37673     4.35575    -0.03601
 O    -3.25828    -5.36844     0.57686
 C    -1.13087    -0.15330     0.99712
 C    -2.02595     1.02641     0.73456
 C    -1.73647    -1.51764     0.76470
 C    -0.39750    -0.12346     2.33546
 C    -2.95381     0.97882    -0.32038
 C    -1.10773    -2.45576    -0.06738
 C     0.99785    -0.02963     2.10720
 C    -3.77306     2.07251    -0.59512
 C    -1.60326    -3.75473    -0.17394
 C     1.22165     0.03936     0.65000
 C    -3.63600     3.22413     0.19409
 C    -2.74467    -4.09747     0.56641
 C    -0.90956    -0.17448     3.61837
 C    -2.71619     3.30289     1.25268
 C    -3.42393    -3.15873     1.36456
 C     0.00254    -0.15879     4.69217
 C    -1.91326     2.19443     1.51157
 C    -2.91264    -1.86824     1.45170
 C     1.37773    -0.08422     4.47058
 C     1.89650    -0.00533     3.16579
 H    -3.03488     0.07507    -0.93434
 H    -0.22302    -2.16256    -0.64658
 H    -4.50298     2.03042    -1.40219
 H    -1.11217    -4.48815    -0.81872
 H    -5.06427     4.22913    -0.80258
 H    -2.76600    -5.97668    -0.07454
 H    -1.98715    -0.20348     3.80301
 H    -2.62213     4.22041     1.83230
 H    -4.32086    -3.46125     1.90327
 H    -0.37757    -0.19216     5.71837
 H    -1.18381     2.24784     2.32584
 H    -3.42686    -1.11617     2.06125
 H     2.06901    -0.07728     5.32231
 H     2.97549     0.08216     3.00515
 O    -9.49129     2.88245     5.50396
 O   -11.49406     1.90695     5.44709
 O    -7.53986     8.60640     6.76655
 O    -4.22544    -0.16063     3.88190
 C    -8.48095     3.49382     4.55503
 C    -8.19512     4.85204     5.13306
 C    -7.31793     2.53146     4.48866
 C    -9.23782     3.50599     3.22990
 C    -7.28864     4.98332     6.19943
 C    -7.41136     1.24982     5.05282
 C   -10.49985     2.88408     3.40212
 C    -7.03278     6.23279     6.76232
 C    -6.38308     0.32340     4.88577
 C   -10.62911     2.49064     4.81863
 C    -7.71197     7.34754     6.24878
 C    -5.25321     0.70635     4.14746
 C    -8.85645     4.02395     2.00631
 C    -8.62835     7.24681     5.18958
 C    -5.11520     2.00087     3.61403
 C    -9.75069     3.88708     0.92576
 C    -8.86232     5.98888     4.64048
 C    -6.15425     2.90813     3.79473
 C   -10.98057     3.24910     1.08531
 C   -11.38171     2.74983     2.33824
 H    -6.77831     4.09731     6.59287
 H    -8.29780     0.97510     5.63861
 H    -6.31871     6.33955     7.57810
 H    -6.45629    -0.67695     5.32022
 H    -6.81689     8.62836     7.51098
 H    -4.36632    -1.06116     4.33811
 H    -7.90351     4.54566     1.87828
 H    -9.15554     8.13031     4.83240
 H    -4.21184     2.26197     3.06400
 H    -9.48005     4.30144    -0.05121
 H    -9.58289     5.89654     3.82144
 H    -6.06912     3.92417     3.39309
 H   -11.65491     3.13966     0.22842
 H   -12.36477     2.28290     2.45800
 O    -6.73607     4.88207    -4.13697
 O    -6.17052     4.29623    -2.06063
 O    -9.29333     9.92069    -6.61410
 O    -5.53916     1.20159    -9.10487
 C    -6.08958     5.42647    -5.39586
 C    -6.92970     6.61954    -5.75941
 C    -6.06821     4.29110    -6.39307
 C    -4.67120     5.74106    -4.92725
 C    -8.12738     6.43786    -6.47370
 C    -6.39542     2.98284    -6.00622
 C    -4.51659     5.32958    -3.57978
 C    -8.93666     7.52691    -6.79281
 C    -6.25316     1.92057    -6.89831
 C    -5.80945     4.79098    -3.11435
 C    -8.53479     8.80282    -6.37161
 C    -5.77750     2.19311    -8.18982
 C    -3.62359     6.31898    -5.61870
 C    -7.34581     9.01587    -5.65405
 C    -5.49794     3.50326    -8.61870
 C    -2.38798     6.45718    -4.95571
 C    -6.55268     7.91159    -5.34987
 C    -5.65158     4.54622    -7.71198
 C    -2.22637     6.02888    -3.63850
 C    -3.30138     5.47043    -2.92310
 H    -8.43020     5.43117    -6.78249
 H    -6.77634     2.79386    -4.99547
 H    -9.85762     7.38842    -7.35807
 H    -6.51238     0.90172    -6.60031
 H   -10.13117     9.71384    -7.18845
 H    -5.83653     0.29066    -8.75668
 H    -3.74547     6.67697    -6.64564
 H    -7.07348    10.01788    -5.32510
 H    -5.15740     3.67236    -9.63890
 H    -1.54613     6.91831    -5.48340
 H    -5.63103     8.06219    -4.77794
 H    -5.44426     5.57709    -8.02345
 H    -1.25282     6.13060    -3.14416
 H    -3.16936     5.16877    -1.87922
 O    -2.77815    -1.97853     9.64664
 O    -3.12376    -2.25229     7.46454
 O    -2.54711     2.94342    13.34665
 O    -1.85271    -6.80638    13.55131
 C    -3.53681    -2.07818    10.95644
 C    -3.27774    -0.76084    11.63167
 C    -3.00561    -3.30821    11.65538
 C    -4.97231    -2.29998    10.48849
 C    -2.08767    -0.56636    12.35370
 C    -2.13414    -4.18738    10.99403
 C    -4.99365    -2.42604     9.07650
 C    -1.81589     0.65969    12.95942
 C    -1.70919    -5.36526    11.60637
 C    -3.61849    -2.22767     8.57871
 C    -2.75016     1.69512    12.81480
 C    -2.17518    -5.64702    12.89870
 C    -6.13793    -2.37340    11.22753
 C    -3.94424     1.53351    12.09272
 C    -3.01856    -4.76389    13.59740
 C    -7.34380    -2.61817    10.54002
 C    -4.19638     0.29723    11.50396
 C    -3.42506    -3.59249    12.96700
 C    -7.36092    -2.78442     9.15566
 C    -6.17996    -2.67330     8.39876
 H    -1.36392    -1.38430    12.44099
 H    -1.77196    -3.94048     9.98873
 H    -0.90060     0.80323    13.53201
 H    -1.02311    -6.04612    11.09699
 H    -1.68365     2.99881    13.91798
 H    -1.17557    -7.36393    13.02863
 H    -6.13699    -2.22223    12.31080
 H    -4.63701     2.36676    11.98222
 H    -3.34139    -5.01444    14.60680
 H    -8.28248    -2.66566    11.10307
 H    -5.11998     0.16155    10.93204
 H    -4.07387    -2.88394    13.49309
 H    -8.30493    -2.99537     8.63970
 H    -6.21420    -2.77055     7.30906
 O    -0.93613     6.56417    -0.73074
 O    -1.86913     8.47511    -1.38267
 O     0.61866     4.55583     5.00620
 O     0.75379     1.76044    -4.19115
 C     0.43317     5.97951    -0.45898
 C     0.45613     5.56906     0.99452
 C     0.54812     4.85042    -1.44280
 C     1.35347     7.17190    -0.69268
 C     1.43923     4.66224     1.42864
 C     1.28748     4.97843    -2.63128
 C     0.57938     8.30066    -1.05704
 C     1.51503     4.29794     2.76892
 C     1.34375     3.92770    -3.54045
 C    -0.83991     7.89845    -1.10524
 C     0.59620     4.86280     3.66690
 C     0.64378     2.74294    -3.24993
 C     2.72762     7.26164    -0.56691
 C    -0.40910     5.75142     3.25740
 C    -0.09794     2.58570    -2.06862
 C     3.33204     8.51157    -0.80908
 C    -0.46836     6.09722     1.90819
 C    -0.14238     3.65359    -1.17851
 C     2.57048     9.62429    -1.16891
 C     1.17293     9.53090    -1.30049
 H     2.14415     4.23547     0.70971
 H     1.82673     5.90660    -2.85150
 H     2.26785     3.58616     3.12029
 H     1.91367     3.99063    -4.46400
 H     1.44911     4.01894     5.25778
 H     0.14725     0.97140    -3.99009
 H     3.33008     6.39668    -0.28618
 H    -1.11383     6.15389     3.98212
 H    -0.60636     1.64948    -1.83387
 H     4.41637     8.60904    -0.70162
 H    -1.24660     6.78025     1.55567
 H    -0.72179     3.56361    -0.25535
 H     3.06343    10.58297    -1.34995
 H     0.57126    10.39792    -1.57896
 O    -8.93664    -2.23332     6.39933
 O    -8.91978    -0.30330     7.50211
 O    -9.77949    -3.38302     0.28634
 O    -8.07647    -7.94687     8.54472
 C    -9.91182    -3.29161     5.93502
 C    -9.83796    -3.32575     4.42651
 C    -9.44363    -4.54440     6.61933
 C   -11.25322    -2.73069     6.39585
 C   -10.34045    -4.45177     3.75106
 C   -10.06916    -5.02739     7.78153
 C   -11.04491    -1.49234     7.05206
 C   -10.32506    -4.50017     2.36156
 C    -9.59357    -6.17082     8.41326
 C    -9.59709    -1.20784     7.06509
 C    -9.80860    -3.39970     1.65968
 C    -8.47543    -6.82927     7.86983
 C   -12.52914    -3.23723     6.22744
 C    -9.27660    -2.27518     2.30807
 C    -7.83511    -6.37360     6.70680
 C   -13.61115    -2.48172     6.72404
 C    -9.29610    -2.25318     3.70239
 C    -8.32554    -5.22225     6.09930
 C   -13.40504    -1.26655     7.37867
 C   -12.10622    -0.75425     7.55489
 H   -10.73930    -5.29736     4.31846
 H   -10.93909    -4.50651     8.19771
 H   -10.69650    -5.37549     1.82109
 H   -10.06011    -6.57380     9.30866
 H   -10.31005    -4.15881    -0.11179
 H    -7.20424    -8.31862     8.18370
 H   -12.70089    -4.18836     5.72282
 H    -8.86721    -1.44957     1.72973
 H    -6.99301    -6.91275     6.26927
 H   -14.63021    -2.85363     6.58059
 H    -8.87807    -1.39609     4.23893
 H    -7.83682    -4.83726     5.19981
 H   -14.25974    -0.69994     7.75750
 H   -11.93671     0.19580     8.06568
 O    -6.94458    -0.40986    -3.91911
 O    -8.35129     1.30775    -3.99485
 O    -0.68021    -0.60629    -4.21240
 O    -8.37592    -6.36594    -3.46190
 C    -6.14721    -1.20927    -2.91155
 C    -4.69232    -1.06082    -3.28743
 C    -6.70680    -2.59894    -3.03190
 C    -6.44135    -0.48008    -1.60502
 C    -3.76821    -2.00302    -2.80223
 C    -7.60417    -3.11661    -2.08125
 C    -7.32551     0.59775    -1.85471
 C    -2.41497    -1.87599    -3.09811
 C    -8.14846    -4.38538    -2.24216
 C    -7.64987     0.61008    -3.29455
 C    -2.00194    -0.78735    -3.88138
 C    -7.79203    -5.13475    -3.37823
 C    -5.95845    -0.72370    -0.33218
 C    -2.90271     0.16165    -4.38742
 C    -6.88974    -4.64864    -4.33771
 C    -6.37330     0.13471     0.70565
 C    -4.25447     0.01115    -4.08074
 C    -6.36045    -3.37488    -4.15292
 C    -7.24740     1.19495     0.46119
 C    -7.73967     1.44019    -0.83359
 H    -4.11356    -2.84317    -2.19330
 H    -7.88479    -2.52500    -1.20438
 H    -1.68569    -2.60269    -2.73037
 H    -8.83417    -4.81540    -1.51429
 H    -0.08081    -1.28027    -3.73859
 H    -8.17028    -6.82872    -4.34238
 H    -5.27405    -1.54921    -0.13232
 H    -2.54121     0.98841    -4.99653
 H    -6.58762    -5.25220    -5.19381
 H    -5.99275    -0.03152     1.71811
 H    -4.98287     0.72954    -4.46761
 H    -5.66295    -2.96787    -4.89027
 H    -7.55325     1.84617     1.28434
 H    -8.42103     2.26965    -1.03244
 O    -2.87189     4.70463     9.58842
 O    -2.39639     6.80661    10.13247
 O    -8.37007     1.66675     9.45503
 O     1.06008     0.33558     7.80084
 C    -3.28567     3.88692     8.38484
 C    -4.62227     3.26384     8.71033
 C    -2.15182     2.91884     8.19848
 C    -3.44741     4.95030     7.30352
 C    -5.05557     2.15919     7.95636
 C    -1.16608     3.12299     7.21701
 C    -3.14506     6.22377     7.84491
 C    -6.30626     1.59708     8.18989
 C    -0.10102     2.23801     7.09456
 C    -2.75691     6.04963     9.25740
 C    -7.11838     2.16430     9.18421
 C    -0.02274     1.14873     7.98045
 C    -3.85486     4.81567     5.98886
 C    -6.70199     3.25120     9.96763
 C    -0.99986     0.91126     8.96011
 C    -3.96352     5.98438     5.20858
 C    -5.44273     3.79434     9.71801
 C    -2.05566     1.81144     9.06124
 C    -3.66380     7.23932     5.74060
 C    -3.24533     7.37502     7.07716
 H    -4.40704     1.73669     7.18395
 H    -1.22455     3.98075     6.53836
 H    -6.65540     0.73646     7.61380
 H     0.66610     2.35894     6.33209
 H    -8.63333     0.94119     8.78982
 H     1.13225    -0.36604     8.53138
 H    -4.09248     3.83900     5.56509
 H    -7.35785     3.65162    10.73869
 H    -0.95075     0.04034     9.61454
 H    -4.30089     5.90253     4.17057
 H    -5.08690     4.63854    10.31508
 H    -2.82515     1.65708     9.82376
 H    -3.75715     8.13059     5.11482
 H    -3.01479     8.35347     7.50155
