   96
 
 C     0.00000     0.00000     0.00000
 C    -0.63652     1.08607    -6.38292
 C    -1.23142     0.10642    -5.56817
 C    -0.94191     0.05319    -4.22158
 C    -0.29102    -0.01173    -1.34813
 C     0.83904     0.99419     0.53365
 C     1.37706     1.95590    -0.29525
 C     1.66095     2.95332    -2.53909
 C     1.39086     2.95978    -3.86766
 C     0.51690     1.97732    -4.44809
 C    -0.06229     0.98629    -3.63044
 C     0.24328     0.96483    -2.21698
 C     1.09116     1.95314    -1.67781
 H     0.68916     2.77626    -6.44905
 H    -0.86332     1.10497    -7.44855
 H    -1.93051    -0.61131    -6.00127
 H    -1.40307    -0.72284    -3.60640
 H    -0.94340    -0.79204    -1.74811
 H    -0.41997    -0.76184     0.65503
 H     1.05264     0.99600     1.60127
 H     2.02714     2.73146     0.10598
 H     2.31468     3.70777    -2.09368
 H     1.82136     3.71603    -4.52590
 C     0.22617     2.00922    -5.82950
 C     5.31539    -0.73845     0.13586
 C     6.04997    -1.78083     0.66003
 C     6.51730    -2.80421    -0.18285
 C     6.22798    -2.78110    -1.53081
 C     5.52204    -2.71267    -4.39267
 C     5.20605    -2.63736    -5.73283
 C     4.48933    -1.53536    -6.23161
 C     4.09037    -0.53113    -5.37609
 C     3.96837     0.44383    -3.11170
 C     4.25756     0.39419    -1.78887
 C     5.01368    -0.70001    -1.24277
 C     5.46061    -1.73492    -2.08874
 C     5.13269    -1.69269    -3.49632
 C     4.40072    -0.59920    -4.00070
 H     4.96534     0.07009     0.77572
 H     6.28085    -1.82051     1.72450
 H     7.11968    -3.61455     0.22973
 H     6.59791    -3.58338    -2.17278
 H     6.07730    -3.57715    -4.02180
 H     5.50840    -3.43353    -6.41153
 H     4.25626    -1.48438    -7.29362
 H     3.53429     0.32937    -5.74513
 H     3.39672     1.27503    -3.53394
 H     3.93192     1.18430    -1.10938
 C     0.50134     5.50533     0.08843
 C    -0.39153     6.24557    -6.31853
 C    -0.96503     5.32234    -5.42684
 C    -0.64014     5.35179    -4.08710
 C     0.13589     5.42954    -1.23957
 C     1.38002     6.51238     0.52773
 C     1.88625     7.42127    -0.37635
 C     2.07952     8.28536    -2.68012
 C     1.75532     8.22521    -3.99534
 C     0.83725     7.23265    -4.48124
 C     0.27247     6.30410    -3.58379
 C     0.63726     6.35207    -2.18427
 C     1.52917     7.34846    -1.74023
 H     0.94030     7.91857    -6.52830
 H    -0.65593     6.20488    -7.37424
 H    -1.67315     4.58106    -5.79749
 H    -1.09182     4.62494    -3.40868
 H    -0.54486     4.63950    -1.56630
 H     0.11067     4.78491     0.80487
 H     1.65394     6.56754     1.58055
 H     2.56642     8.21013    -0.05557
 H     2.76861     9.04721    -2.30546
 H     2.17700     8.93378    -4.71040
 C     0.49543     7.19150    -5.85024
 C     5.61262     4.33234     0.13086
 C     6.45101     3.34726     0.60881
 C     6.95980     2.37784    -0.27200
 C     6.61721     2.39922    -1.60783
 C     5.83430     2.48236    -4.45483
 C     5.48572     2.57271    -5.78655
 C     4.67759     3.63143    -6.23740
 C     4.21996     4.57509    -5.34285
 C     4.08677     5.47975    -3.04847
 C     4.41262     5.41915    -1.73522
 C     5.26407     4.37419    -1.23698
 C     5.76168     3.39736    -2.12276
 C     5.39484     3.44772    -3.52141
 C     4.56843     4.49418    -3.97697
 H     5.21281     5.09171     0.80147
 H     6.72620     3.30987     1.66295
 H     7.63183     1.60547     0.10511
 H     7.01289     1.62959    -2.27380
 H     6.45639     1.64854    -4.11589
 H     5.83404     1.82045    -6.49364
 H     4.42142     3.69828    -7.29403
 H     3.58732     5.39836    -5.67372
 H     3.45230     6.28091    -3.43455
 H     4.04983     6.16882    -1.03014
