   76
 
 P     0.00000     0.00000     0.00000
 P     4.42824     4.48635     4.96272
 P    -0.67704     7.02833     4.82199
 P    -1.12694    -2.16009    -5.17164
 O    -0.03164     1.45050    -0.33169
 O     4.02266     3.05104     5.01775
 O    -0.71622     5.57586     5.14814
 O    -0.73033    -0.72193    -5.18138
 O    -1.40934    -0.55355     0.44804
 O     4.69980     4.99290     3.49655
 O     0.72520     7.47162     4.25586
 O    -1.40268    -2.68703    -3.71101
 O     0.47699    -0.94384    -1.15486
 O     3.39124     5.51012     5.55248
 O    -0.95165     8.01336     6.01656
 O    -0.07754    -3.16210    -5.77126
 O     0.87769    -0.39427     1.23963
 O     5.76615     4.82882     5.70425
 O    -1.77623     7.44230     3.76758
 O    -2.45987    -2.47881    -5.93112
 H    -2.01789    -0.71212    -0.39962
 H     3.78156     5.20988     3.02621
 H     1.38917     7.56606     5.07639
 H    -0.49181    -2.96705    -3.25819
 H     1.14585    -0.37228    -1.77628
 H     2.84644     5.00813     6.31996
 H    -1.69210     7.55002     6.63346
 H     0.45106    -2.64492    -6.54725
 H    -1.53887     6.95887     2.86322
 H    -3.05994    -1.60662    -5.95227
 H     1.02667     0.45405     1.85097
 H     6.37234     3.96189     5.72912
 P     2.39505    -2.31870    -8.28350
 P     0.80854     2.42723     3.85360
 P    -4.79971     0.50074    -5.29245
 P     2.46655    -0.10919    -3.99811
 O     1.31374    -1.66805    -7.50519
 O     1.39891     1.86308     2.61566
 O    -3.72208    -0.10676    -6.10941
 O     2.01569     0.56007    -2.75987
 O     2.38228    -1.83344    -9.77493
 O    -0.66561     1.92486     4.03014
 O    -4.78482    -0.07166    -3.83166
 O     3.98274     0.20065    -4.27591
 O     2.12139    -3.86091    -8.18674
 O     0.87948     3.98858     3.69191
 O    -4.53510     2.04706    -5.31896
 O     2.24595    -1.65205    -3.81543
 O     3.86065    -2.06566    -7.76454
 O     1.53302     2.05648     5.20084
 O    -6.26964     0.26146    -5.80440
 O     1.74468     0.31182    -5.33737
 H     3.36724    -1.77642   -10.16015
 H    -0.91769     1.85408     5.05745
 H    -5.77186    -0.13730    -3.44795
 H     4.17846     0.22077    -5.31307
 H     2.58153    -4.42177    -8.95720
 H     0.21790     4.52176     4.30795
 H    -4.95602     2.57479    -4.50569
 H     2.85558    -2.23085    -4.45900
 H     0.76567    -0.07379    -5.34385
 H    -6.38450     0.72664    -6.74305
 H     2.51754     2.44090     5.18544
 H     3.93871    -2.46576    -6.78830
 O     0.82878    -3.55471    -2.50966
 O    -7.20475    -0.26724    -2.70107
 O     2.41350    -2.95618     1.59368
 O    -2.99590    -1.07340    -1.64147
 H    -2.68448    -1.88549    -2.07437
 H     2.00873    -2.20383     2.05880
 H    -7.46094     0.56047    -2.25413
 H     1.26951    -4.21560    -3.06486
 H    -3.01500    -0.40053    -2.34381
 H     1.70073    -3.62218     1.58801
 H    -7.19898    -0.93361    -1.98826
 H     1.44590    -2.82075    -2.37951
