   40
 
Br     0.00000     0.00000     0.00000
Br    -0.89252    -0.94040    -5.09052
Br    -4.00220    -4.94546     2.51800
Br     0.76973    -2.96413     1.83321
Br    -2.06891    -4.38711    -0.36956
Br    -1.15384    -3.42357     4.75206
Br     1.95172     0.55238    -2.88815
Br    -2.85053    -1.41674    -2.19382
 P     1.42258    -0.90798    -1.36309
 P    -1.83883     0.06886    -3.41524
 P    -3.48335    -3.47690     1.00655
 P    -0.23694    -4.44386     3.06772
 O     2.65333    -1.24258    -0.60078
 O    -0.77782     0.69988    -2.58915
 O    -4.72154    -3.13541     0.25848
 O    -1.32213    -5.06665     2.26611
Br    -3.23776     1.52753    -4.13765
Br     0.56515    -2.64988    -2.27539
Br     1.16321    -5.91459     3.75809
Br    -2.62668    -1.73041     1.90937
Br    -0.95733     5.74230     0.34864
Br    -1.90043     4.81745    -4.77441
Br    -4.97469     0.83790     2.85908
Br    -0.16775     2.77743     2.17658
Br    -3.02316     1.40736    -0.02182
Br    -2.12269     2.30201     5.06980
Br     0.94630     6.30206    -2.55757
Br    -3.80852     4.35974    -1.84920
 P     0.44581     4.83215    -1.03895
 P    -2.81620     5.84476    -3.09053
 P    -4.44706     2.30933     1.34606
 P    -1.17859     1.28710     3.39452
 O     1.68937     4.48818    -0.30460
 O    -1.73751     6.47798    -2.29304
 O    -5.67460     2.65234     0.58543
 O    -2.23648     0.65802     2.56645
Br    -4.22460     7.29608    -3.80430
Br    -0.42735     3.09814    -1.95218
Br     0.22397    -0.15945     4.13171
Br    -3.58058     4.03538     2.27941
