  216
 
 P     0.00000     0.00000     0.00000
 P    -3.29786    -1.11301     2.78150
 F     1.09494     1.13883     0.00000
 F    -2.20292     0.02582     2.78150
 F    -4.39279    -2.25185     2.78150
 F    -1.09494    -1.13883     0.00000
 F     0.54849    -0.52735     1.31787
 F    -2.20088    -2.16770     2.78151
 F     0.54848    -0.52734    -1.31788
 F    -3.84634    -0.58567     1.46363
 F    -1.09697     1.05469    -0.00001
 F    -3.84634    -0.58567     4.09938
 P     4.28045     4.45205     0.00000
 P     0.98259     3.33904     2.78150
 F     5.37538     5.59089     0.00000
 F     2.07753     4.47787     2.78150
 F    -0.11235     2.20020     2.78150
 F     3.18551     3.31322     0.00000
 F     4.82893     3.92471     1.31787
 F     2.07956     2.28435     2.78151
 F     4.82893     3.92471    -1.31788
 F     0.43410     3.86638     1.46363
 F     3.18347     5.50674    -0.00001
 F     0.43411     3.86638     4.09938
 P    -3.47290     3.33904    -2.78150
 P    -6.77076     2.22603    -0.00000
 F    -2.37797     4.47787    -2.78150
 F    -5.67582     3.36486    -0.00000
 F    -7.86570     1.08719    -0.00000
 F    -4.56784     2.20020    -2.78150
 F    -2.92442     2.81169    -1.46363
 F    -5.67379     1.17134     0.00001
 F    -2.92442     2.81170    -4.09938
 F    -7.31925     2.75337    -1.31787
 F    -4.56988     4.39373    -2.78151
 F    -7.31924     2.75337     1.31788
 P     0.80754     7.79109    -2.78150
 P    -2.49031     6.67808    -0.00000
 F     1.90248     8.92992    -2.78150
 F    -1.39538     7.81691    -0.00000
 F    -3.58525     5.53924    -0.00000
 F    -0.28739     6.65226    -2.78150
 F     1.35603     7.26374    -1.46363
 F    -1.39334     5.62339     0.00001
 F     1.35603     7.26375    -4.09938
 F    -3.03880     7.20542    -1.31787
 F    -0.28943     8.84578    -2.78151
 F    -3.03880     7.20542     1.31788
 P    -6.94581     6.67808    -5.56300
 P   -10.24366     5.56506    -2.78150
 F    -5.85087     7.81691    -5.56300
 F    -9.14872     6.70390    -2.78150
 F   -11.33860     4.42623    -2.78150
 F    -8.04074     5.53924    -5.56300
 F    -6.39732     6.15073    -4.24513
 F    -9.14669     4.51037    -2.78149
 F    -6.39732     6.15074    -6.88088
 F   -10.79215     6.09241    -4.09937
 F    -8.04278     7.73277    -5.56301
 F   -10.79214     6.09241    -1.46362
 P    -2.66536    11.13013    -5.56300
 P    -5.96322    10.01712    -2.78150
 F    -1.57042    12.26896    -5.56300
 F    -4.86828    11.15595    -2.78150
 F    -7.05815     8.87828    -2.78150
 F    -3.76030     9.99129    -5.56300
 F    -2.11687    10.60278    -4.24513
 F    -4.86624     8.96243    -2.78149
 F    -2.11688    10.60279    -6.88088
 F    -6.51170    10.54446    -4.09937
 F    -3.76233    12.18482    -5.56301
 F    -6.51170    10.54446    -1.46362
 P     3.47290    -3.33904    -2.78150
 P     0.17505    -4.45205     0.00000
 F     4.56784    -2.20020    -2.78150
 F     1.26998    -3.31322     0.00000
 F    -0.91989    -5.59089     0.00000
 F     2.37796    -4.47787    -2.78150
 F     4.02139    -3.86638    -1.46363
 F     1.27202    -5.50674     0.00001
 F     4.02138    -3.86638    -4.09938
 F    -0.37344    -3.92471    -1.31787
 F     2.37593    -2.28435    -2.78151
 F    -0.37344    -3.92471     1.31788
 P     7.75335     1.11301    -2.78150
 P     4.45549     0.00000     0.00000
 F     8.84829     2.25185    -2.78150
 F     5.55043     1.13883     0.00000
 F     3.36055    -1.13883     0.00000
 F     6.65841    -0.02582    -2.78150
 F     8.30183     0.58567    -1.46363
 F     5.55246    -1.05469     0.00001
 F     8.30183     0.58567    -4.09938
 F     3.90700     0.52735    -1.31787
 F     6.65637     2.16770    -2.78151
 F     3.90701     0.52734     1.31788
 P    -0.00000     0.00000    -5.56300
 P    -3.29786    -1.11301    -2.78150
 F     1.09494     1.13883    -5.56300
 F    -2.20292     0.02582    -2.78150
 F    -4.39279    -2.25185    -2.78150
 F    -1.09494    -1.13883    -5.56300
 F     0.54849    -0.52734    -4.24513
 F    -2.20088    -2.16770    -2.78149
 F     0.54848    -0.52734    -6.88088
 F    -3.84634    -0.58567    -4.09937
 F    -1.09697     1.05469    -5.56301
 F    -3.84634    -0.58567    -1.46362
 P     4.28044     4.45205    -5.56300
 P     0.98259     3.33904    -2.78150
 F     5.37538     5.59089    -5.56300
 F     2.07753     4.47787    -2.78150
 F    -0.11235     2.20020    -2.78150
 F     3.18551     3.31322    -5.56300
 F     4.82893     3.92471    -4.24513
 F     2.07956     2.28435    -2.78149
 F     4.82893     3.92471    -6.88088
 F     0.43410     3.86638    -4.09937
 F     3.18347     5.50674    -5.56301
 F     0.43411     3.86638    -1.46362
 P    -3.47290     3.33904    -8.34450
 P    -6.77076     2.22603    -5.56300
 F    -2.37797     4.47787    -8.34450
 F    -5.67582     3.36486    -5.56300
 F    -7.86570     1.08719    -5.56300
 F    -4.56784     2.20021    -8.34450
 F    -2.92442     2.81169    -7.02663
 F    -5.67379     1.17134    -5.56299
 F    -2.92442     2.81170    -9.66238
 F    -7.31925     2.75337    -6.88087
 F    -4.56988     4.39373    -8.34451
 F    -7.31924     2.75337    -4.24512
 P     0.80754     7.79109    -8.34450
 P    -2.49031     6.67808    -5.56300
 F     1.90248     8.92992    -8.34450
 F    -1.39538     7.81691    -5.56300
 F    -3.58525     5.53924    -5.56300
 F    -0.28740     6.65226    -8.34450
 F     1.35603     7.26375    -7.02663
 F    -1.39334     5.62339    -5.56299
 F     1.35602     7.26375    -9.66238
 F    -3.03880     7.20542    -6.88087
 F    -0.28943     8.84578    -8.34451
 F    -3.03880     7.20542    -4.24512
 P     6.94580    -6.67808    -5.56300
 P     3.64795    -7.79109    -2.78150
 F     8.04074    -5.53924    -5.56300
 F     4.74288    -6.65225    -2.78150
 F     2.55301    -8.92992    -2.78150
 F     5.85087    -7.81691    -5.56300
 F     7.49429    -7.20542    -4.24513
 F     4.74492    -8.84578    -2.78149
 F     7.49429    -7.20542    -6.88088
 F     3.09946    -7.26374    -4.09937
 F     5.84883    -5.62339    -5.56301
 F     3.09947    -7.26375    -1.46362
 P    11.22625    -2.22602    -5.56300
 P     7.92839    -3.33904    -2.78150
 F    12.32119    -1.08719    -5.56300
 F     9.02333    -2.20020    -2.78150
 F     6.83346    -4.47787    -2.78150
 F    10.13131    -3.36486    -5.56300
 F    11.77474    -2.75337    -4.24513
 F     9.02537    -4.39373    -2.78149
 F    11.77473    -2.75337    -6.88088
 F     7.37991    -2.81169    -4.09937
 F    10.12928    -1.17134    -5.56301
 F     7.37991    -2.81170    -1.46362
 P     3.47290    -3.33904    -8.34450
 P     0.17504    -4.45205    -5.56300
 F     4.56784    -2.20020    -8.34450
 F     1.26998    -3.31322    -5.56300
 F    -0.91989    -5.59088    -5.56300
 F     2.37796    -4.47787    -8.34450
 F     4.02139    -3.86638    -7.02663
 F     1.27202    -5.50674    -5.56299
 F     4.02138    -3.86638    -9.66238
 F    -0.37344    -3.92471    -6.88087
 F     2.37593    -2.28435    -8.34451
 F    -0.37344    -3.92471    -4.24512
 P     7.75335     1.11301    -8.34450
 P     4.45549     0.00000    -5.56300
 F     8.84828     2.25185    -8.34450
 F     5.55043     1.13884    -5.56300
 F     3.36055    -1.13883    -5.56300
 F     6.65841    -0.02582    -8.34450
 F     8.30183     0.58567    -7.02663
 F     5.55246    -1.05469    -5.56299
 F     8.30183     0.58567    -9.66238
 F     3.90700     0.52735    -6.88087
 F     6.65637     2.16770    -8.34451
 F     3.90701     0.52734    -4.24512
 P    -0.00000     0.00000   -11.12600
 P    -3.29786    -1.11301    -8.34450
 F     1.09494     1.13884   -11.12600
 F    -2.20292     0.02582    -8.34450
 F    -4.39280    -2.25185    -8.34450
 F    -1.09494    -1.13883   -11.12600
 F     0.54849    -0.52734    -9.80813
 F    -2.20089    -2.16770    -8.34449
 F     0.54848    -0.52734   -12.44388
 F    -3.84635    -0.58567    -9.66237
 F    -1.09697     1.05469   -11.12601
 F    -3.84634    -0.58567    -7.02662
 P     4.28044     4.45205   -11.12600
 P     0.98259     3.33904    -8.34450
 F     5.37538     5.59089   -11.12600
 F     2.07752     4.47787    -8.34450
 F    -0.11235     2.20021    -8.34450
 F     3.18551     3.31322   -11.12600
 F     4.82893     3.92471    -9.80813
 F     2.07956     2.28435    -8.34449
 F     4.82893     3.92471   -12.44388
 F     0.43410     3.86638    -9.66237
 F     3.18347     5.50674   -11.12601
 F     0.43410     3.86638    -7.02662
