  144
 
 P     0.00000     0.00000     0.00000
 H     1.03299    -0.93038     0.00000
 H     0.55329     1.27536     0.00000
 H    -1.19529     1.67663     3.02100
 H     0.15114     3.12449     1.89235
 H    -0.79314    -0.17249    -1.12865
 H    -0.79314    -0.17249     1.12865
 H     0.15114     3.12449     4.14965
Br    -2.61257    -0.56818     3.02100
Br    -2.30743     2.58980     0.00000
 P    -0.64200     2.95200     3.02100
 H    -1.67499     3.88237     3.02100
 P     4.27800     0.93038     0.00000
 H     5.31099     0.00000     0.00000
 H     4.83129     2.20574     0.00000
 H     3.08271     2.60701     3.02100
 H     4.42914     4.05487     1.89235
 H     3.48486     0.75789    -1.12865
 H     3.48486     0.75789     1.12865
 H     4.42914     4.05487     4.14965
Br     1.66543     0.36220     3.02100
Br     1.97057     3.52018     0.00000
 P     3.63600     3.88237     3.02100
 H     2.60301     4.81275     3.02100
 P     8.55600     1.86076     0.00000
 H     9.58899     0.93038     0.00000
 H     9.10929     3.13612     0.00000
 H     7.36071     3.53739     3.02100
 H     8.70714     4.98524     1.89235
 H     7.76286     1.68826    -1.12865
 H     7.76286     1.68826     1.12865
 H     8.70714     4.98524     4.14965
Br     5.94343     1.29258     3.02100
Br     6.24857     4.45055     0.00000
 P     7.91400     4.81275     3.02100
 H     6.88101     5.74313     3.02100
 P     1.28400    -5.90399    -0.00000
 H     2.31699    -6.83437    -0.00000
 H     1.83729    -4.62863    -0.00000
 H     0.08871    -4.22736     3.02100
 H     1.43514    -2.77950     1.89235
 H     0.49086    -6.07648    -1.12865
 H     0.49086    -6.07648     1.12865
 H     1.43514    -2.77950     4.14965
Br    -1.32857    -6.47217     3.02100
Br    -1.02343    -3.31419     0.00000
 P     0.64200    -2.95200     3.02100
 H    -0.39099    -2.02162     3.02100
 P     5.56200    -4.97361    -0.00000
 H     6.59499    -5.90399    -0.00000
 H     6.11529    -3.69825    -0.00000
 H     4.36671    -3.29698     3.02100
 H     5.71314    -1.84913     1.89235
 H     4.76886    -5.14611    -1.12865
 H     4.76886    -5.14611     1.12865
 H     5.71314    -1.84913     4.14965
Br     2.94943    -5.54179     3.02100
Br     3.25457    -2.38381     0.00000
 P     4.92000    -2.02162     3.02100
 H     3.88701    -1.09124     3.02100
 P     9.84000    -4.04324    -0.00000
 H    10.87299    -4.97361    -0.00000
 H    10.39328    -2.76787    -0.00000
 H     8.64471    -2.36660     3.02100
 H     9.99114    -0.91875     1.89235
 H     9.04686    -4.21573    -1.12865
 H     9.04686    -4.21573     1.12865
 H     9.99114    -0.91875     4.14965
Br     7.22743    -4.61142     3.02100
Br     7.53257    -1.45344     0.00000
 P     9.19800    -1.09124     3.02100
 H     8.16501    -0.16086     3.02100
 P    -0.00000     0.00000    -6.04200
 H     1.03299    -0.93038    -6.04200
 H     0.55329     1.27536    -6.04200
 H    -1.19529     1.67663    -3.02100
 H     0.15114     3.12449    -4.14965
 H    -0.79314    -0.17249    -7.17065
 H    -0.79314    -0.17249    -4.91335
 H     0.15114     3.12449    -1.89235
Br    -2.61257    -0.56818    -3.02100
Br    -2.30743     2.58980    -6.04200
 P    -0.64200     2.95200    -3.02100
 H    -1.67499     3.88237    -3.02100
 P     4.27800     0.93038    -6.04200
 H     5.31099     0.00000    -6.04200
 H     4.83129     2.20574    -6.04200
 H     3.08271     2.60701    -3.02100
 H     4.42914     4.05487    -4.14965
 H     3.48486     0.75789    -7.17065
 H     3.48486     0.75789    -4.91335
 H     4.42914     4.05487    -1.89235
Br     1.66543     0.36220    -3.02100
Br     1.97057     3.52018    -6.04200
 P     3.63600     3.88237    -3.02100
 H     2.60301     4.81275    -3.02100
 P     8.55600     1.86076    -6.04200
 H     9.58899     0.93038    -6.04200
 H     9.10929     3.13612    -6.04200
 H     7.36071     3.53739    -3.02100
 H     8.70714     4.98524    -4.14965
 H     7.76286     1.68826    -7.17065
 H     7.76286     1.68826    -4.91335
 H     8.70714     4.98524    -1.89235
Br     5.94343     1.29258    -3.02100
Br     6.24857     4.45055    -6.04200
 P     7.91400     4.81275    -3.02100
 H     6.88101     5.74313    -3.02100
 P     1.28400    -5.90399    -6.04200
 H     2.31699    -6.83437    -6.04200
 H     1.83729    -4.62863    -6.04200
 H     0.08871    -4.22736    -3.02100
 H     1.43514    -2.77950    -4.14965
 H     0.49086    -6.07648    -7.17065
 H     0.49086    -6.07648    -4.91335
 H     1.43514    -2.77950    -1.89235
Br    -1.32857    -6.47217    -3.02100
Br    -1.02343    -3.31419    -6.04200
 P     0.64200    -2.95200    -3.02100
 H    -0.39099    -2.02162    -3.02100
 P     5.56200    -4.97361    -6.04200
 H     6.59499    -5.90399    -6.04200
 H     6.11528    -3.69825    -6.04200
 H     4.36671    -3.29698    -3.02100
 H     5.71314    -1.84913    -4.14965
 H     4.76886    -5.14611    -7.17065
 H     4.76886    -5.14611    -4.91335
 H     5.71314    -1.84913    -1.89235
Br     2.94943    -5.54179    -3.02100
Br     3.25457    -2.38381    -6.04200
 P     4.92000    -2.02162    -3.02100
 H     3.88701    -1.09124    -3.02100
 P     9.84000    -4.04323    -6.04200
 H    10.87299    -4.97361    -6.04200
 H    10.39328    -2.76787    -6.04200
 H     8.64471    -2.36660    -3.02100
 H     9.99114    -0.91875    -4.14965
 H     9.04686    -4.21573    -7.17065
 H     9.04686    -4.21573    -4.91335
 H     9.99114    -0.91875    -1.89235
Br     7.22743    -4.61142    -3.02100
Br     7.53257    -1.45344    -6.04200
 P     9.19800    -1.09124    -3.02100
 H     8.16501    -0.16086    -3.02100
