  144
 
 P     0.00000     0.00000     0.00000
 H    -0.47399    -1.38887     0.00012
 H    -1.15452     0.90540     0.00313
 H     0.24412     2.16782     3.21229
 H    -1.72406     2.84119     2.01834
 H     0.81168     0.24181    -1.19826
 H     0.81728     0.24060     1.19547
 H    -1.71870     2.84172     4.41255
 P    -0.90605     3.07948     3.21329
 I    -1.85654    -0.55482     3.22519
 I    -3.46752     2.35064    -0.00952
 H    -0.42551     4.46614     3.20994
 P     4.41413     1.29824    -0.00230
 H     3.93759    -0.08961    -0.00262
 H     3.26183     2.20648     0.00042
 H     4.65981     3.46718     3.20930
 H     2.69101     4.13832     2.01478
 H     5.22703     1.53847    -1.20009
 H     5.23139     1.53701     1.19365
 H     2.69605     4.13821     4.40955
 P     3.50830     4.37736     3.21037
 I     2.55897     0.74031     3.22569
 I     0.94541     3.64489    -0.01006
 H     3.98723     5.76452     3.20750
 P     8.82508     2.59389    -0.00418
 H     8.34774     1.20634    -0.00418
 H     7.67363     3.50308    -0.00308
 H     9.07247     4.76764     3.21062
 H     7.10432     5.43408     2.01269
 H     9.63909     2.83276    -1.20159
 H     9.64107     2.83258     1.19230
 H     7.10541     5.43200     4.40780
 P     7.91848     5.67435     3.21015
 I     6.97060     2.04078     3.22072
 I     5.35615     4.94134    -0.01164
 H     8.39321     7.06315     3.20933
 P     1.81367    -6.16694     0.00009
 H     1.33692    -7.55455     0.00222
 H     0.66041    -5.25965     0.00132
 H     2.06018    -4.00094     3.20793
 H     0.08965    -3.33202     2.01499
 H     2.62523    -5.92704    -1.19897
 H     2.63102    -5.92609     1.19544
 H     0.09575    -3.32964     4.40835
 P     0.90772    -3.09234     3.20939
 I    -0.04194    -6.72731     3.22540
 I    -1.65715    -3.83141    -0.01410
 H     1.38590    -1.70479     3.20544
 P     6.22814    -4.86947    -0.00266
 H     5.75031    -6.25610    -0.00224
 H     5.07620    -3.95966    -0.00210
 H     6.47536    -2.70159     3.20638
 H     4.50510    -2.03538     2.01141
 H     7.04206    -4.62871    -1.20032
 H     7.04401    -4.62956     1.19358
 H     4.50920    -2.03221     4.40600
 P     5.32179    -1.79431     3.20681
 I     4.37390    -5.43215     3.22606
 I     2.75628    -2.53761    -0.01479
 H     5.79879    -0.40642     3.20268
 P    10.63901    -3.57361    -0.00432
 H    10.15842    -4.95986    -0.00410
 H     9.48920    -2.66151    -0.00520
 H    10.88838    -1.40107     3.20807
 H     8.91861    -0.74040     2.00943
 H    11.45410    -3.33523    -1.20152
 H    11.45404    -3.33548     1.19301
 H     8.91863    -0.73858     4.40359
 P     9.73188    -0.49754     3.20656
 I     8.78549    -4.13126     3.22100
 I     7.16620    -1.24019    -0.01633
 H    10.20415     0.89229     3.20453
 P    -0.00508     0.00152    -6.42866
 H    -0.47833    -1.38789    -6.42848
 H    -1.16019     0.90649    -6.42881
 H     0.24200     2.17024    -3.21510
 H    -1.72184     2.84272    -4.41574
 H     0.80982     0.24355    -7.62512
 H     0.80926     0.24243    -5.23166
 H    -1.72530     2.84339    -2.02302
 P    -0.90768     3.08199    -3.21845
 I    -1.84514    -0.54948    -3.21609
 I    -3.47341     2.35121    -6.44246
 H    -0.42729     4.46825    -3.21827
 P     4.40927     1.29965    -6.43052
 H     3.93267    -0.08847    -6.42959
 H     3.25698     2.20824    -6.42865
 H     4.65931     3.47072    -3.21900
 H     2.69127     4.13742    -4.41646
 H     5.22273     1.53978    -7.62820
 H     5.22626     1.53853    -5.23481
 H     2.69277     4.14019    -2.02334
 P     3.50717     4.37954    -3.22080
 I     2.56925     0.74569    -3.21425
 I     0.94170     3.64545    -6.44134
 H     3.98393     5.76706    -3.22281
 P     8.81924     2.59513    -6.43265
 H     8.34232     1.20710    -6.43072
 H     7.66772     3.50461    -6.43017
 H     9.07081     4.76928    -3.22109
 H     7.10062     5.43352    -4.41696
 H     9.63185     2.83393    -7.63150
 H     9.63751     2.83371    -5.23805
 H     7.10474     5.43681    -2.02322
 P     7.91717     5.67652    -3.22179
 I     6.98177     2.04668    -3.21905
 I     5.35134     4.94219    -6.44343
 H     8.39264     7.06554    -3.22454
 P     1.80850    -6.16596    -6.42898
 H     1.33244    -7.55402    -6.42947
 H     0.65490    -5.25869    -6.42855
 H     2.05794    -3.99807    -3.22126
 H     0.08975    -3.32901    -4.41725
 H     2.62263    -5.92366    -7.62591
 H     2.62383    -5.92753    -5.23202
 H     0.09084    -3.32805    -2.02520
 P     0.90606    -3.08961    -3.22191
 I    -0.03061    -6.72167    -3.21511
 I    -1.66380    -3.83006    -6.44684
 H     1.38426    -1.70245    -3.22218
 P     6.22294    -4.86794    -6.43074
 H     5.74512    -6.25533    -6.42934
 H     5.07096    -3.95856    -6.42934
 H     6.47389    -2.69872    -3.22456
 H     4.50358    -2.03274    -4.41869
 H     7.03557    -4.62762    -7.62911
 H     7.04040    -4.62929    -5.23522
 H     4.50745    -2.03048    -2.02617
 P     5.32064    -1.79183    -3.22411
 I     4.38456    -5.42649    -3.21421
 I     2.75157    -2.53700    -6.44581
 H     5.79713    -0.40403    -3.22576
 P    10.63341    -3.57250    -6.43275
 H    10.15262    -4.95901    -6.43001
 H     9.48395    -2.66011    -6.42893
 H    10.88620    -1.39875    -3.22711
 H     8.91293    -0.73741    -4.41879
 H    11.44387    -3.33447    -7.63322
 H    11.45408    -3.33564    -5.23921
 H     8.91979    -0.73610    -2.02599
 P     9.73048    -0.49481    -3.22504
 I     8.79742    -4.12531    -3.21898
 I     7.16112    -1.24022    -6.44755
 H    10.20324     0.89462    -3.22649
