  208
 
Ni     0.00000     0.00000     0.00000
Cl     3.44591     0.00000     0.00000
Cl     7.87131     5.12013     0.00000
Cl     2.04333     5.97795     0.06526
Cl     2.86416     2.02940     5.49988
Cl    -1.93407    -3.24381    -6.48194
Cl    -2.75490     0.70474   -11.91656
Cl    -2.55184     4.70863    -7.59994
Cl    -6.97725    -0.41150    -7.59994
 C     0.01885     0.27965    -2.04482
 C     0.27873    -1.03797    -1.64173
 C    -0.54059    -1.75476    -0.88194
 C    -0.49968     2.92164     1.53896
 C     0.71199    -0.17480     3.19162
 N     1.75907     0.61876     2.87339
 N     0.45800    -0.38213     4.49000
 N    -0.23418     4.22175     1.79427
 N    -1.29483     2.25217     2.38757
 S    -0.24247    -0.94463     1.99334
 S     0.25826     2.18867     0.19171
 C     9.60951     6.55326     3.30591
 C     9.50839     5.15503     3.33504
 C     8.87025     4.47870     4.28251
 C     5.52623     8.39918     3.19694
 C     4.63502     4.83313     2.67120
Ni     7.67171     5.84508     3.36287
 N     4.83928     5.43848     1.47990
 N     3.39683     4.40602     2.95005
 N     5.01893     9.52672     2.65170
 N     4.79285     7.74351     4.10953
 S     5.91109     4.56143     3.78355
 S     7.03912     7.83481     2.63175
 C     4.16633     1.20753    -6.24856
 C     5.18908     1.80919    -6.99564
 C     5.15456     3.06689    -7.41912
 C     3.49677     3.46956    -2.43708
 C     6.59754     5.12585    -3.63261
Ni     4.94003     2.92185    -5.39868
 N     6.91079     4.07320    -2.84446
 N     6.91279     6.35067    -3.19249
 N     3.10590     3.11832    -1.19216
 N     3.48450     4.76971    -2.76881
 S     5.86897     4.92434    -5.17147
 S     4.05786     2.24135    -3.48754
 C    10.15241    -1.58753     4.53679
 C    10.81416    -1.06649     3.41574
 C    10.96083     0.23168     3.17996
 C     5.91811    -0.12157     4.65552
 C     6.91599     1.06511     1.28159
Ni     9.00717    -0.30174     3.39881
 N     6.38644    -0.17575     1.19667
 N     6.24705     2.07015     0.70219
 N     4.75444    -0.64539     5.09989
 N     5.96761     1.19237     4.38777
 S     8.41796     1.36172     2.05336
 S     7.23415    -1.18119     4.38711
 C    -4.13193     1.33826    -0.05525
 C    -4.39182     2.65588    -0.45834
 C    -3.57250     3.37266    -1.21812
 C    -3.61340    -1.30373    -3.63903
 C    -4.82508     1.79271    -5.29169
Ni    -4.11309     1.61790    -2.10007
 N    -5.87215     0.99915    -4.97345
 N    -4.57109     2.00004    -6.59006
 N    -3.87891    -2.60385    -3.89433
 N    -2.81826    -0.63426    -4.48764
 S    -3.87061     2.56253    -4.09340
 S    -4.37135    -0.57077    -2.29178
 C   -10.11802     4.13332   -10.84060
 C   -10.01690     5.53155   -10.86972
 C    -9.37876     6.20788   -11.81719
 C    -6.03474     2.28740   -10.73162
 C    -5.14353     5.85345   -10.20588
Ni    -8.18022     4.84150   -10.89755
 N    -5.34780     5.24810    -9.01458
 N    -3.90535     6.28056   -10.48473
 N    -5.52744     1.15986   -10.18638
 N    -5.30136     2.94307   -11.64422
 S    -6.41960     6.12515   -11.31823
 S    -7.54763     2.85177   -10.16643
 C     0.95009     4.61734    -5.66800
 C    -0.07266     4.01568    -4.92092
 C    -0.03815     2.75798    -4.49744
 C     1.61964     2.35531    -9.47948
 C    -1.48113     0.69901    -8.28395
Ni     0.17638     2.90301    -6.51788
 N    -1.79438     1.75166    -9.07210
 N    -1.79638    -0.52581    -8.72407
 N     2.01051     2.70655   -10.72440
 N     1.63191     1.05516    -9.14775
 S    -0.75255     0.90052    -6.74509
 S     1.05855     3.58351    -8.42902
 C    -8.64057    -1.65628   -11.01873
 C    -9.30232    -2.17732    -9.89768
 C    -9.44899    -3.47548    -9.66190
 C    -4.40627    -3.12224   -11.13745
 C    -5.40415    -4.30892    -7.76352
Ni    -7.49532    -2.94207    -9.88075
 N    -4.87459    -3.06806    -7.67861
 N    -4.73521    -5.31396    -7.18412
 N    -3.24260    -2.59842   -11.58183
 N    -4.45576    -4.43618   -10.86971
 S    -6.90612    -4.60553    -8.53530
 S    -5.72231    -2.06262   -10.86905
 H    -0.91778     0.50073    -2.55664
 H     0.82342     0.86428    -2.49087
 H     1.14533    -1.54063    -2.07119
 H    -0.17512    -2.68884    -0.45531
 H    -1.57443    -1.88194    -1.20304
 H     2.70099     0.36377     3.17031
 H     1.60721     1.47253     2.33635
 H     0.48147    -1.32863     4.86946
 H     0.24106     0.40644     5.09949
 H     0.03255     4.51266     2.73482
 H    -0.30049     4.91222     1.04643
 H    -1.00187     1.34646     2.75399
 H    -2.19220     2.64899     2.66622
 H    10.00822     7.07255     4.17738
 H     9.96842     7.03837     2.39819
 H    10.08345     4.58726     2.60357
 H     8.67159     3.41864     4.12475
 H     9.15048     4.64497     5.32267
 H     5.09803     4.88401     0.66380
 H     4.73467     6.44972     1.39710
 H     3.26146     3.53982     3.47137
 H     2.58910     4.94688     2.64112
 H     4.02964     9.74768     2.76513
 H     5.62531    10.15686     2.12669
 H     5.08867     6.82365     4.43625
 H     3.93956     8.16497     4.47652
 H     4.35692     0.24747    -5.76892
 H     3.14821     1.22359    -6.63751
 H     6.00372     1.17581    -7.34677
 H     4.30186     3.39541    -8.01331
 H     6.06734     3.50974    -7.81765
 H     6.23634     3.32046    -2.70703
 H     7.82160     4.03168    -2.38719
 H     7.17990     6.48931    -2.21789
 H     6.88581     7.14496    -3.83184
 H     3.19081     2.14927    -0.88533
 H     2.72595     3.82223    -0.55928
 H     3.40668     5.48084    -2.04174
 H     3.55299     5.04686    -3.74804
 H     9.89735    -2.64711     4.55477
 H    10.46964    -1.27326     5.53113
 H    11.33726    -1.76497     2.76261
 H    11.42220     0.85366     3.94702
 H    11.30946     0.54855     2.19703
 H     6.57198    -0.86066     1.92939
 H     5.80132    -0.42713     0.39990
 H     5.22747     2.08538     0.72706
 H     6.75710     2.82043     0.23599
 H     4.75612    -1.52116     5.62279
 H     3.87438    -0.16502     4.91241
 H     6.03889     1.86593     5.15042
 H     5.93395     1.51759     3.42159
 H    -4.93651     0.75362     0.39081
 H    -3.19531     1.11717     0.45657
 H    -5.25842     3.15854    -0.02888
 H    -2.53866     3.49985    -0.89702
 H    -3.93797     4.30675    -1.64475
 H    -5.54013     0.19602    -4.43946
 H    -6.32546     0.67543    -5.82792
 H    -4.37573     1.10822    -7.04493
 H    -3.76221     2.61422    -6.68442
 H    -3.81259    -3.29432    -3.14650
 H    -4.14564    -2.89476    -4.83488
 H    -1.92088    -1.03109    -4.76629
 H    -3.11122     0.27145    -4.85405
 H   -10.47693     3.64821    -9.93288
 H   -10.51673     3.61403   -11.71207
 H   -10.59196     6.09932   -10.13825
 H    -9.65899     6.04161   -12.85735
 H    -9.18010     7.26794   -11.65943
 H    -5.20139     4.24358    -9.11410
 H    -4.69282     5.62069    -8.32714
 H    -3.22500     5.62310   -10.10360
 H    -3.78726     6.34408   -11.49588
 H    -6.13382     0.52971    -9.66137
 H    -4.53815     0.93890   -10.29981
 H    -4.44808     2.52161   -12.01120
 H    -5.59718     3.86293   -11.97094
 H     1.96820     4.60127    -5.27905
 H     0.75949     5.57740    -6.14764
 H    -0.88731     4.64905    -4.56979
 H    -0.95092     2.31512    -4.09891
 H     0.81455     2.42945    -3.90325
 H    -2.73607     1.62928    -9.44443
 H    -1.12883     1.80922    -9.84290
 H    -1.71634    -1.19367    -7.95730
 H    -1.15900    -0.79188    -9.47464
 H     2.39047     2.00263   -11.35728
 H     1.92560     3.67559   -11.03123
 H     1.56342     0.77800    -8.16852
 H     1.70973     0.34402    -9.87482
 H    -8.95780    -1.97055   -12.01306
 H    -8.38551    -0.59669   -11.03671
 H    -9.82542    -1.47884    -9.24455
 H    -9.79762    -3.79235    -8.67897
 H    -9.91036    -4.09746   -10.42896
 H    -4.28948    -2.81669    -6.88183
 H    -5.06013    -2.38314    -8.41131
 H    -5.24528    -6.06423    -6.71794
 H    -3.71563    -5.32921    -7.20899
 H    -2.36254    -3.07879   -11.39435
 H    -3.24428    -1.72265   -12.10473
 H    -4.42211    -4.76141    -9.90353
 H    -4.52705    -5.10974   -11.63236
