   40
 
Pt     0.00000     0.00000     0.00000
Pt    -5.46904     0.41058     7.39180
Pt    -0.53924    -7.31527    -3.16547
Pt    -4.70452     5.31448    -4.66353
Pt    -5.46954    -1.04994    -0.19260
Pt     0.05682    -1.50931    -7.62116
Pt    -4.94600     6.34012     3.00747
Pt    -0.74314    -6.37572     4.35556
Cl     1.68620     1.41212     0.44251
Cl    -6.11048     0.28806     5.19957
Cl    -1.69745    -6.71515    -1.28734
Cl    -5.46490     3.29674    -5.41974
Cl    -7.15450    -2.47412    -0.60536
Cl     0.71154    -1.38232    -5.43308
Cl    -3.78957     5.73662     1.12953
Cl     0.03182    -4.36612     5.11898
Cl    -0.09466    -2.12264    -0.32950
Cl    -6.64474     2.37164     7.29246
Cl    -2.57776    -6.99497    -4.14157
Cl    -2.53003     5.00013    -4.35278
Cl    -0.97726     1.31358     1.53067
Cl    -4.43389    -1.56972     6.94506
Cl     1.20730    -7.49616    -1.70493
Cl    -3.94469     5.55603    -6.79635
Cl    -0.58779     1.73308    -1.29340
Cl    -3.35380     1.07216     7.32217
Cl    -0.34071    -9.52076    -3.04481
Cl    -5.67461     4.59089    -2.72077
Cl    -5.38320     1.07269     0.13886
Cl     1.24150    -3.46497    -7.52523
Cl    -2.90629     6.02666     3.98389
Cl    -2.91019    -6.03215     4.03159
Cl    -4.50801    -2.36828    -1.72976
Cl    -0.98914     0.46326    -7.16902
Cl    -6.69394     6.51913     1.54669
Cl    -1.51862    -6.60989     6.48323
Cl    -4.85468    -2.77046     1.10198
Cl    -2.05214    -2.18572    -7.53386
Cl    -5.14659     8.54593     2.88821
Cl     0.23599    -5.65317     2.41525
