  108
 
Pt     0.00000     0.00000     0.00000
Br    -4.27241    -3.17968    -5.27964
Br    -3.46218     0.17969    -4.85678
Br     1.79917    -2.36933    10.30041
Br     1.31349    -0.12719     7.69332
Br     0.50205    -3.47919     7.27591
Br     5.95527    -2.66297     4.65501
Br     6.44057    -4.90118     7.26126
Br     7.24623    -1.54693     7.68011
Br    -3.54746    -1.51629     4.04178
Br    -4.04947     0.74139     1.44333
Br    -4.84835    -2.62191     1.01856
Br     0.58621    -1.78236    -1.62120
Br     1.09377    -4.03811     0.97428
Br     1.89074    -0.68030     1.40624
Br    -8.90276    -0.64300    -2.23275
Br    -9.39660     1.60407    -4.83936
Br   -10.20488    -1.75590    -5.25679
Pt    -4.86327    -1.46005    -3.63372
Pt    -5.34938     0.85763    -6.26780
Pt    -6.18819    -2.56706    -6.73027
Pt     1.90648    -1.84674     6.04789
Pt     2.38873    -4.15710     8.68833
Pt     3.22342    -0.73809     9.15148
Pt     5.84682    -3.18332     8.90816
Pt     5.36032    -0.87427     6.26389
Pt     4.52969    -4.29437     5.80164
Pt    -3.45583    -0.97587    -0.20452
Pt    -2.95719    -3.30090     2.42494
Pt    -2.13087     0.12057     2.89077
Pt     0.49706    -2.32714     2.62698
Pt    -0.82707    -3.42086    -0.46907
Pt    -8.80593    -0.11716    -6.48351
Pt    -8.31909    -2.43416    -3.84414
Pt    -7.48342     0.99046    -3.38556
Br    -0.22770    -0.60952     4.19221
Br    -1.97116     0.59076    -1.30049
Br    -2.29156    -4.92776     0.76201
Br    -2.73523    -2.69695    -1.76754
Br    -0.98627    -3.89510     3.72355
Br    -0.66254     1.62702     1.66477
Br    -5.58322     0.26701    -2.07549
Br    -7.31548     1.44161    -7.57973
Br    -7.66094    -4.06857    -5.50240
Br    -8.08682    -1.84111    -8.04435
Br    -6.35113    -3.02520    -2.53873
Br    -6.01262     2.49400    -4.61247
Br     5.12196    -1.46101    10.46846
Br     3.39595    -0.28617     4.95286
Br     3.05310    -5.79147     7.02837
Br     2.62978    -3.57406     4.48959
Br     4.35461    -4.74355     9.99935
Br     4.69259     0.76204     7.91849
Br    -4.75979    -0.93703    -7.87324
Pt     8.28874    -1.67520    -3.02694
Br     4.03733    -4.84507    -8.27303
Br     4.84301    -1.47858    -7.86702
Br    10.09512    -4.04364     7.29149
Br     9.59682    -1.80477     4.67897
Br     8.79040    -5.15870     4.26879
Br    14.23842    -4.33965     1.63142
Br    14.73554    -6.56991     4.23571
Br    15.53199    -3.21749     4.64561
Br     4.74121    -3.17970     1.01518
Br     4.23715    -0.94134    -1.59397
Br     3.44846    -4.30482    -1.99936
Br     8.88209    -3.46415    -4.63305
Br     9.39303    -5.70327    -2.02755
Br    10.17746    -2.34259    -1.61357
Br    -0.59977    -2.30028    -5.24170
Br    -1.10102    -0.07111    -7.85566
Br    -1.89846    -3.43033    -8.25093
Pt     3.44469    -3.11498    -6.63763
Pt     2.95177    -0.81420    -9.27952
Pt     2.12222    -4.24489    -9.72570
Pt    10.18706    -3.52566     3.03506
Pt    10.68121    -5.83167     5.67831
Pt    11.51089    -2.41323     6.13124
Pt    14.13863    -4.85306     5.87994
Pt    13.64300    -2.54872     3.23553
Pt    12.81636    -5.96679     2.78786
Pt     4.83745    -2.66449    -3.23089
Pt     5.33822    -4.97210    -0.58735
Pt     6.15334    -1.54328    -0.13973
Pt     8.78856    -3.98559    -0.38547
Pt     7.47251    -5.10331    -3.47764
Pt    -0.50505    -1.79855    -9.48944
Pt    -0.00767    -4.09560    -6.84070
Pt     0.81393    -0.66700    -6.39822
Br     8.06073    -2.25810     1.16555
Br     6.32076    -1.10289    -4.33751
Br     6.01609    -6.60882    -2.23797
Br     5.56248    -4.39492    -4.78095
Br     7.30704    -5.54882     0.72082
Br     7.61417    -0.03792    -1.37500
Br     2.71745    -1.38213    -5.08921
Br     0.98513    -0.24472   -10.59377
Br     0.65431    -5.74225    -8.48871
Br     0.21739    -3.53232   -11.03820
Br     1.96185    -4.67403    -5.53232
Br     2.28044     0.83236    -7.63517
Br    13.41510    -3.12965     7.43966
Br    11.67208    -1.96796     1.92961
Br    11.34526    -7.46364     4.02095
Br    10.91004    -5.25323     1.47945
Br    12.65336    -6.41585     6.97972
Br    12.97517    -0.91419     4.89105
Br     3.54307    -2.61363   -10.87452
