   40
 
Pt     0.00000     0.00000     0.00000
Pt    -1.11036     0.91507    -8.81710
Pt    -7.64812    -8.00484    -6.71806
Pt    -1.46117    -6.36381    -3.60763
Pt    -9.36505    -4.99705    -4.64203
Pt     0.25017    -9.36821    -5.68574
Pt     2.54583     1.27354    -2.86812
Pt    -3.65770    -0.35689    -5.95580
 I     0.21910    -0.35245    -2.63436
 I    -3.67673     1.35572    -8.23317
 I    -7.80794    -7.33002    -4.14282
 I     1.04541    -7.12134    -4.13239
 I    -5.32420    -6.37595    -6.95603
 I    -1.44239    -8.07301    -1.32163
 I    -1.55457     2.33946    -0.49491
 I    -1.90264    -1.33255   -10.38192
 I    -0.15603     0.67707     2.57991
 I     1.39227     0.15487    -9.34438
 I    -7.43121    -8.35728    -9.35613
 I    -4.02566    -5.92554    -3.01945
 I    -9.21159    -5.67384    -7.22060
 I    -2.25336    -8.60981    -5.15838
 I     2.33074     1.62204    -0.22976
 I    -1.09276    -0.79504    -6.54441
 I     4.73963     2.69454    -2.94273
 I    -3.50030    -1.86658    -3.82681
 I   -10.88224    -2.94256    -5.20813
 I    -0.58989   -11.34154    -7.18130
 I    -9.84060    -9.42935    -6.64055
 I    -1.62189    -4.85759    -5.74001
 I     1.51544    -2.05642     0.56323
 I    -0.27229     2.88577    -7.31719
 I     1.02578     3.32451    -3.42969
 I    -4.50718    -2.31429    -7.46498
 I    -7.17100    -3.58057    -4.71364
 I     0.42944   -10.86921    -3.55353
 I    -6.12716   -10.05124    -6.14426
 I    -0.60978    -4.40290    -2.10576
 I    -2.19794    -1.41153     0.07144
 I    -1.28267     2.41849   -10.94964
