  104
 
Ba     0.00000     0.00000     0.00000
Ca    -2.28090     3.35757     0.01709
 C    -0.35570     5.24842    -0.31174
 O    -1.40739     5.56007    -0.94688
 O    -0.43062     4.27376     0.55450
 F    -1.73208    -1.34863    -1.31010
 O     0.79585     5.69330    -0.62748
 F     2.22565    -1.14185    -0.53092
Ca    -2.54878     1.10094     2.76719
 C    -0.82525     1.22257     5.06128
 O    -1.83981     0.76405     5.58397
 O    -0.69368     1.61622     3.87755
 O     0.35666     1.08948     5.84978
Ba    -1.14551    -1.76195     6.93616
Ca    -2.43811    -2.84617     3.48183
Ca     1.57488     3.56854     0.59344
Ca     1.43087    -2.63267     4.20849
Ca     1.38940     1.24805     3.32373
Ca     1.18529    -4.82380     7.09421
Ca    -2.64827    -5.09740     6.32359
 C    -3.84018     3.43099    -2.22687
 C    -4.51789    -0.72330     3.19146
 O    -1.51009    -0.68424     2.48982
 O    -5.03397    -2.48250     0.50228
 O    -1.17891     2.31271    -1.46444
 O    -2.71019     3.91494    -2.52619
 O    -2.84344    -2.34614     0.88279
 O    -4.69544     0.56161    -3.39115
 O    -3.50969    -0.96360     3.92261
 O    -2.49428     0.70773    -3.08128
 O    -4.01685     2.85085    -1.06961
 O    -4.38091     0.17014     2.24320
 F     1.58595     1.59450     1.33243
 F    -2.14631     1.34256     0.74874
Ba    -3.85420    -0.06513    -0.67859
Ba    -5.02345    -1.87016     6.29450
 C    -0.48454    -1.00893     3.16079
 O    -0.59999    -1.89611     4.09698
 F    -2.84980    -3.03377     5.54603
 O     0.68425    -0.62337     2.83752
 F     1.10317    -2.79611     6.32430
 C    -0.03379     2.75921    -1.77120
 O     0.13724     3.38124    -2.90513
 O     1.01262     2.46459    -1.11081
 C    -4.00681    -2.73226     1.20346
 C    -3.55748     1.02380    -3.70379
 O    -4.90184     3.67747    -2.89335
 O    -5.70687    -1.07515     3.47782
 O    -4.19314    -3.23623     2.39481
 O    -3.47750     2.01992    -4.54417
 F     1.44667    -4.60999     4.95867
 F    -2.30291    -4.83632     4.24415
Ba     0.99274    -4.31189    -3.35816
Ca    -1.33937    -1.07058    -3.37716
 C     0.63037     0.75937    -3.68311
 O    -0.43340     1.09089    -4.29581
 O     0.54348    -0.23859    -2.84605
 F    -0.74586    -5.79853    -4.56582
 O     1.77196     1.20811    -4.00258
 F     3.20502    -5.63740    -3.61726
Ca    -1.64318    -3.34943    -0.56084
 C    -0.10060    -3.46276     1.71766
 O    -1.27245    -3.85389     2.00463
 O     0.11041    -2.95705     0.53138
 O     0.90536    -3.70963     2.44809
Ba    -0.18323    -6.12045     3.61324
Ca    -1.53108    -7.30558     0.15125
Ca     2.53671    -0.92569    -2.66151
Ca     2.24076    -7.00536     1.10489
Ca     2.19292    -3.12054     0.21311
Ca     2.15330    -9.31920     3.82864
Ca    -1.70229    -9.52911     2.93631
 C    -2.89308    -0.97382    -5.61702
 C    -3.61850    -5.18808    -0.24332
 O    -0.59983    -5.25074    -0.99231
 O    -4.47831    -7.27690    -2.91373
 O    -0.21179    -2.12051    -4.84764
 O    -1.74553    -0.52019    -5.90707
 O    -2.27569    -6.97980    -2.69796
 O    -3.71781    -3.92648    -6.77152
 O    -2.61247    -5.55333     0.43142
 O    -1.51934    -3.76687    -6.43180
 O    -3.07444    -1.59211    -4.48196
 O    -3.47669    -4.29732    -1.17249
 F     2.57577    -2.95479    -1.89386
 F    -1.17950    -3.14890    -2.61222
Ba    -2.88380    -4.41839    -4.00157
Ba    -4.03550    -6.18315     2.93252
 C     0.42329    -5.47571    -0.27453
 O     0.30975    -6.38488     0.66238
 F    -1.88258    -7.52721     2.18413
 O     1.59831    -5.09140    -0.56647
 F     2.08843    -7.34015     3.09979
 C     0.91916    -1.64520    -5.15584
 O     1.08796    -1.06431    -6.31410
 O     1.98399    -1.90545    -4.49976
 C    -3.28114    -7.42430    -2.14870
 C    -2.56915    -3.46844    -7.07854
 O    -3.93027    -0.69320    -6.29525
 O    -4.80397    -5.53932     0.06725
 O    -3.39437    -7.81333    -0.96174
 O    -2.49744    -2.49484    -7.94568
 F     2.36449    -9.01501     1.29662
 F    -1.38162    -9.29057     0.72529
