   64
 
 N     0.00000     0.00000     0.00000
 N    -3.71910    -3.02603     1.64738
 N    -0.23337    -4.61625    -1.05853
 N    -4.06820    -6.55315     1.63118
 O     0.79617     0.93423     0.13403
 O    -3.01376    -2.96110     0.63675
 O    -1.02406    -5.55334    -1.20339
 O    -4.78160    -6.60517     2.63723
 O    -3.12638    -2.90120     2.73204
 O    -0.55002    -0.08958    -1.10910
 O    -4.65620    -6.66551     0.54251
 O     0.29363    -4.51888     0.06166
 K    -6.84245    -2.92197     1.69287
 K    -0.40501    -2.38452     1.96756
 K    -0.93819    -6.64365     1.56422
 K     0.15309    -2.21080    -3.02366
 N    -2.41756     6.17740     2.82193
 N    -6.14090     3.18265     4.46917
 N    -2.64767     1.54708     1.76295
 N    -6.47131    -0.37688     4.44609
 O    -1.62630     7.11504     2.96119
 O    -5.42803     3.23259     3.46192
 O    -3.44994     0.61960     1.62077
 O    -7.18053    -0.43204     5.45463
 O    -5.55254     3.30164     5.55623
 O    -2.95956     6.08563     1.70871
 O    -7.06200    -0.49162     3.35966
 O    -2.10875     1.63228     2.87876
 K    -9.27761     3.27779     4.52406
 K    -2.81555     3.77684     4.78483
 K    -3.35993    -0.46852     4.39335
 K    -2.25056     3.95327    -0.20793
 N     3.01775    -1.89503     3.09665
 N    -0.69854    -4.92072     4.73901
 N     2.78977    -6.51112     2.03451
 N    -1.03889    -8.44943     4.71958
 O     3.81817    -0.96647     3.24275
 O    -0.00065    -4.86188     3.72293
 O     2.00077    -7.44993     1.89538
 O    -1.75304    -8.50301     5.72558
 O    -0.09702    -4.79803     5.81905
 O     2.48472    -1.98182     1.97839
 O    -1.62518    -8.57146     3.63194
 O     3.32616    -6.41352     3.15061
 K    -3.80908    -4.82583     4.78703
 K     2.61695    -4.29337     5.06328
 K     2.10563    -8.54520     4.65911
 K     3.18120    -4.12233     0.06978
 N     0.60177     4.27492     5.92004
 N    -3.11787     1.28973     7.55798
 N     0.37440    -0.34920     4.85863
 N    -3.44524    -2.26664     7.53515
 O     1.39520     5.20878     6.07191
 O    -2.41330     1.33459     6.54554
 O    -0.42602    -1.27797     4.71719
 O    -4.15429    -2.32533     8.54384
 O    -2.52017     1.40554     8.64071
 O     0.07924     4.18379     4.79749
 O    -4.03414    -2.39429     6.44892
 O     0.91839    -0.26634     5.97241
 K    -6.24196     1.36684     7.61887
 K     0.20770     1.86713     7.88299
 K    -0.32175    -2.36942     7.49069
 K     0.77634     2.03704     2.88615
