  216
 
 K     0.00000     0.00000     0.00000
 K     0.22716     2.85284     2.49822
 N    -1.77460    -2.37862     0.17911
 N    -1.54744     0.47422     2.67732
 C    -2.44428    -3.29324     0.26612
 C    -2.21712    -0.44041     2.76434
 K     0.20999     2.60742    -2.67732
 K     0.43715     5.46026    -0.17911
 N    -1.56462     0.22881    -2.49822
 N    -1.33745     3.08164     0.00000
 C    -2.23429    -0.68582    -2.41120
 C    -2.00713     2.16702     0.08702
 K     0.41998     5.21485    -5.35465
 K     0.64714     8.06768    -2.85643
 N    -1.35463     2.83623    -5.17554
 N    -1.12746     5.68907    -2.67732
 C    -2.02430     1.92161    -5.08852
 C    -1.79714     4.77444    -2.59031
 K     0.62997     7.82227    -8.03197
 K     0.85713    10.67511    -5.53375
 N    -1.14464     5.44366    -7.85286
 N    -0.91748     8.29649    -5.35465
 C    -1.81432     4.52903    -7.76585
 C    -1.58715     7.38187    -5.26763
 K     3.57170    -2.85284    -2.49822
 K     3.79886     0.00000     0.00000
 N     1.79710    -5.23145    -2.31911
 N     2.02426    -2.37862     0.17911
 C     1.12742    -6.14608    -2.23209
 C     1.35458    -3.29324     0.26612
 K     3.78169    -0.24541    -5.17554
 K     4.00885     2.60742    -2.67732
 N     2.00708    -2.62403    -4.99643
 N     2.23425     0.22881    -2.49822
 C     1.33741    -3.53865    -4.90942
 C     1.56457    -0.68582    -2.41120
 K     3.99168     2.36201    -7.85286
 K     4.21884     5.21485    -5.35465
 N     2.21707    -0.01660    -7.67376
 N     2.44424     2.83623    -5.17554
 C     1.54740    -0.93123    -7.58674
 C     1.77456     1.92161    -5.08852
 K     4.20167     4.96944   -10.53019
 K     4.42883     7.82227    -8.03197
 N     2.42706     2.59082   -10.35108
 N     2.65422     5.44366    -7.85286
 C     1.75739     1.67620   -10.26406
 C     1.98455     4.52903    -7.76585
 K     7.14340    -5.70567    -4.99643
 K     7.37056    -2.85284    -2.49822
 N     5.36880    -8.08429    -4.81733
 N     5.59596    -5.23145    -2.31911
 C     4.69912    -8.99891    -4.73031
 C     4.92628    -6.14608    -2.23209
 K     7.35339    -3.09825    -7.67376
 K     7.58055    -0.24541    -5.17554
 N     5.57879    -5.47686    -7.49465
 N     5.80595    -2.62403    -4.99643
 C     4.90911    -6.39149    -7.40764
 C     5.13627    -3.53865    -4.90942
 K     7.56338    -0.49082   -10.35108
 K     7.79054     2.36201    -7.85286
 N     5.78877    -2.86944   -10.17198
 N     6.01594    -0.01660    -7.67376
 C     5.11910    -3.78406   -10.08496
 C     5.34626    -0.93123    -7.58674
 K     7.77337     2.11660   -13.02841
 K     8.00053     4.96944   -10.53019
 N     5.99876    -0.26202   -12.84930
 N     6.22593     2.59082   -10.35108
 C     5.32909    -1.17664   -12.76228
 C     5.55625     1.67620   -10.26406
 K     4.02603     2.85284     2.49822
 K     4.25319     5.70567     4.99643
 N     2.25142     0.47422     2.67732
 N     2.47858     3.32705     5.17554
 C     1.58174    -0.44041     2.76434
 C     1.80891     2.41243     5.26256
 K     4.23601     5.46026    -0.17911
 K     4.46318     8.31310     2.31911
 N     2.46141     3.08164     0.00000
 N     2.68857     5.93448     2.49822
 C     1.79173     2.16702     0.08702
 C     2.01890     5.01985     2.58523
 K     4.44600     8.06768    -2.85643
 K     4.67317    10.92052    -0.35821
 N     2.67140     5.68907    -2.67732
 N     2.89856     8.54190    -0.17911
 C     2.00172     4.77444    -2.59031
 C     2.22888     7.62728    -0.09209
 K     4.65599    10.67511    -5.53375
 K     4.88315    13.52794    -3.03554
 N     2.88139     8.29649    -5.35465
 N     3.10855    11.14933    -2.85643
 C     2.21171     7.38187    -5.26763
 C     2.43887    10.23470    -2.76941
 K     7.59773    -0.00000    -0.00000
 K     7.82489     2.85284     2.49822
 N     5.82312    -2.37862     0.17911
 N     6.05028     0.47422     2.67732
 C     5.15344    -3.29324     0.26612
 C     5.38061    -0.44041     2.76434
 K     7.80771     2.60742    -2.67732
 K     8.03488     5.46026    -0.17911
 N     6.03311     0.22881    -2.49822
 N     6.26027     3.08164    -0.00000
 C     5.36343    -0.68582    -2.41120
 C     5.59060     2.16702     0.08702
 K     8.01770     5.21485    -5.35465
 K     8.24487     8.06768    -2.85643
 N     6.24310     2.83623    -5.17554
 N     6.47026     5.68907    -2.67732
 C     5.57342     1.92161    -5.08852
 C     5.80058     4.77444    -2.59031
 K     8.22769     7.82227    -8.03197
 K     8.45485    10.67511    -5.53375
 N     6.45309     5.44366    -7.85286
 N     6.68025     8.29649    -5.35465
 C     5.78341     4.52903    -7.76585
 C     6.01057     7.38187    -5.26763
 K    11.16943    -2.85284    -2.49822
 K    11.39659    -0.00000    -0.00000
 N     9.39482    -5.23145    -2.31911
 N     9.62198    -2.37862     0.17911
 C     8.72514    -6.14608    -2.23209
 C     8.95231    -3.29324     0.26612
 K    11.37941    -0.24541    -5.17554
 K    11.60658     2.60742    -2.67732
 N     9.60481    -2.62403    -4.99643
 N     9.83197     0.22881    -2.49822
 C     8.93513    -3.53865    -4.90942
 C     9.16230    -0.68582    -2.41120
 K    11.58940     2.36201    -7.85286
 K    11.81657     5.21485    -5.35465
 N     9.81480    -0.01660    -7.67376
 N    10.04196     2.83623    -5.17554
 C     9.14512    -0.93123    -7.58674
 C     9.37229     1.92161    -5.08852
 K    11.79939     4.96944   -10.53019
 K    12.02656     7.82227    -8.03197
 N    10.02479     2.59082   -10.35108
 N    10.25195     5.44366    -7.85286
 C     9.35511     1.67620   -10.26406
 C     9.58227     4.52903    -7.76585
 K     8.05205     5.70567     4.99643
 K     8.27921     8.55851     7.49465
 N     6.27745     3.32705     5.17554
 N     6.50461     6.17989     7.67376
 C     5.60777     2.41243     5.26256
 C     5.83493     5.26527     7.76077
 K     8.26204     8.31310     2.31911
 K     8.48920    11.16593     4.81733
 N     6.48744     5.93448     2.49822
 N     6.71460     8.78731     4.99643
 C     5.81776     5.01985     2.58523
 C     6.04492     7.87269     5.08345
 K     8.47203    10.92052    -0.35821
 K     8.69919    13.77336     2.14001
 N     6.69742     8.54190    -0.17911
 N     6.92459    11.39474     2.31911
 C     6.02775     7.62728    -0.09209
 C     6.25491    10.48011     2.40613
 K     8.68202    13.52794    -3.03554
 K     8.90918    16.38078    -0.53732
 N     6.90741    11.14933    -2.85643
 N     7.13458    14.00216    -0.35821
 C     6.23774    10.23470    -2.76941
 C     6.46490    13.08754    -0.27120
 K    11.62375     2.85284     2.49822
 K    11.85091     5.70567     4.99643
 N     9.84915     0.47422     2.67732
 N    10.07631     3.32705     5.17554
 C     9.17947    -0.44041     2.76434
 C     9.40663     2.41243     5.26256
 K    11.83374     5.46026    -0.17911
 K    12.06090     8.31310     2.31911
 N    10.05914     3.08164    -0.00000
 N    10.28630     5.93448     2.49822
 C     9.38946     2.16702     0.08702
 C     9.61662     5.01985     2.58523
 K    12.04373     8.06768    -2.85643
 K    12.27089    10.92052    -0.35821
 N    10.26912     5.68907    -2.67732
 N    10.49629     8.54190    -0.17911
 C     9.59945     4.77444    -2.59031
 C     9.82661     7.62728    -0.09209
 K    12.25372    10.67511    -5.53375
 K    12.48088    13.52794    -3.03554
 N    10.47911     8.29649    -5.35465
 N    10.70628    11.14933    -2.85643
 C     9.80944     7.38187    -5.26763
 C    10.03660    10.23470    -2.76941
 K    15.19545    -0.00000    -0.00000
 K    15.42261     2.85284     2.49822
 N    13.42085    -2.37862     0.17911
 N    13.64801     0.47422     2.67732
 C    12.75117    -3.29324     0.26612
 C    12.97833    -0.44041     2.76434
 K    15.40544     2.60742    -2.67732
 K    15.63260     5.46026    -0.17911
 N    13.63084     0.22881    -2.49822
 N    13.85800     3.08164    -0.00000
 C    12.96116    -0.68582    -2.41120
 C    13.18832     2.16702     0.08702
 K    15.61543     5.21485    -5.35465
 K    15.84259     8.06768    -2.85643
 N    13.84082     2.83623    -5.17554
 N    14.06799     5.68907    -2.67732
 C    13.17115     1.92161    -5.08852
 C    13.39831     4.77444    -2.59031
 K    15.82542     7.82227    -8.03197
 K    16.05258    10.67511    -5.53375
 N    14.05081     5.44366    -7.85286
 N    14.27798     8.29649    -5.35465
 C    13.38114     4.52903    -7.76585
 C    13.60830     7.38187    -5.26763
