   96
 
 K     0.00000     0.00000     0.00000
 K    -3.36672    -1.04060    -1.13380
 K    -2.17838    -6.14865     0.75299
 K     1.19763    -5.11211     1.89383
Cl    -0.62266    -3.71381    -1.27035
Cl    -4.08476    -4.73934    -2.24675
Cl    -1.56159    -2.43808     2.03688
Cl     1.89732    -1.40898     3.00768
 O    -0.98791    -2.49142    -0.55406
 O    -3.32304    -5.63119    -3.11377
 O    -1.20131    -3.66657     1.32799
 O     1.12930    -0.51264     3.86330
 O     1.44597    -2.76774     3.28102
 O    -2.46872    -1.55848     1.31187
 O    -4.12290    -5.11833    -0.84672
 O    -0.10150    -3.35850    -2.58057
 O    -3.64515    -3.37933    -2.52980
 O     0.26523    -4.61045    -0.54220
 O     1.94823    -1.03070     1.60799
 O    -2.06507    -2.78393     3.35652
 O    -5.47222    -4.79866    -2.77777
 O    -1.89250    -4.42921    -1.50029
 O     3.27795    -1.36068     3.55453
 O    -0.29429    -1.71194     2.24346
 K    -2.38700     4.57284     3.41140
 K    -5.76125     3.53529     2.27670
 K    -4.56389    -1.57550     4.16425
 K    -1.19814    -0.53645     5.30352
Cl    -3.00169     0.85980     2.13386
Cl    -6.46355    -0.16902     1.16291
Cl    -3.94159     2.13659     5.44178
Cl    -0.48157     3.16153     6.41611
 O    -3.36498     2.08792     2.84189
 O    -5.69724    -1.06561     0.30562
 O    -3.57959     0.91430     4.72420
 O    -1.24553     4.05304     7.28179
 O    -0.93033     1.80277     6.69228
 O    -4.84220     3.02481     4.71838
 O    -6.50852    -0.54545     2.56306
 O    -2.48513     1.20639     0.81905
 O    -6.02145     1.19110     0.88279
 O    -2.10736    -0.02907     2.86256
 O    -0.43727     3.54220     5.01689
 O    -4.44977     1.78153     6.75702
 O    -7.84758    -0.22548     0.62373
 O    -4.27149     0.14204     1.91272
 O     0.90232     3.21315     6.95537
 O    -2.67392     2.86006     5.65723
 K     0.20604     4.01366    -5.05548
 K    -3.15968     2.97471    -6.19453
 K    -1.97082    -2.13473    -4.30262
 K     1.40363    -1.09701    -3.16778
Cl    -0.41618     0.30135    -6.33247
Cl    -3.87606    -0.72318    -7.30697
Cl    -1.35593     1.57786    -3.02498
Cl     2.10600     2.60732    -2.05401
 O    -0.77770     1.52369    -5.61456
 O    -3.11254    -1.61459    -8.17325
 O    -0.99239     0.34973    -3.73235
 O     1.33925     3.50408    -1.19716
 O     1.66316     1.24721    -1.77432
 O    -2.25081     2.46588    -3.75414
 O    -3.92016    -1.10396    -5.90810
 O     0.09177     0.65654    -7.64792
 O    -3.42783     0.63562    -7.58405
 O     0.48408    -0.58786    -5.60976
 O     2.15108     2.98380    -3.45415
 O    -1.87282     1.23151    -1.71016
 O    -5.26041    -0.77516    -7.84590
 O    -1.68415    -0.42102    -6.54803
 O     3.48954     2.66346    -1.51410
 O    -0.08663     2.29675    -2.80370
 K    -2.17935     8.58668    -1.64409
 K    -5.55546     7.55039    -2.78478
 K    -4.35748     2.43803    -0.89121
 K    -0.99106     3.47869     0.24276
Cl    -2.79628     4.87604    -2.92797
Cl    -6.25511     3.84754    -3.89857
Cl    -3.73515     6.15198     0.37949
Cl    -0.27289     7.17802     1.35579
 O    -3.15604     6.10415    -2.21835
 O    -5.48744     2.95102    -4.75473
 O    -3.36938     4.92918    -0.33603
 O    -1.03497     8.06954     2.22254
 O    -0.71313     5.81775     1.63826
 O    -4.62341     7.04735    -0.34925
 O    -6.30579     3.46889    -2.49913
 O    -2.29303     5.22184    -4.24769
 O    -5.80425     5.20609    -4.17246
 O    -1.88945     3.99520    -2.20360
 O    -0.23448     7.55635    -0.04445
 O    -4.25640     5.79663     1.68958
 O    -7.63607     3.79848    -4.44504
 O    -4.06379     4.15055    -3.13447
 O     1.11423     7.23630     1.88725
 O    -2.46549     6.86816     0.60943
