   36
 
 V     0.00000     0.00000     0.00000
Cl    -0.71553    -1.61255     1.73018
Cl    -0.34318     1.72225     1.58894
Cl     0.39576    -1.80478    -1.23108
Cl    -2.17758     0.12609    -0.49697
Cl     2.10142    -0.16291     1.02372
Cl     1.94644    -4.67552     6.94981
Cl    -1.22966    -2.94335     4.14179
Cl    -1.15943    -4.49559     7.02937
Cl     2.17390    -2.87290     4.45257
Cl     0.34822    -1.65264     6.64374
Cl     0.43208    -5.64373     4.27804
Cl    -4.68969    -6.65363    -2.35711
Cl    -8.41895    -9.05243    -3.38471
Cl    -6.15190    -9.33976    -1.05727
Cl    -6.85404    -6.68436    -4.76379
Cl    -7.71527    -6.43079    -1.60509
Cl    -5.25191    -9.31368    -4.14298
Cl    -9.40617     3.03105    11.17737
Cl   -11.11166     2.21876     7.03107
Cl    -9.80299     4.81594     8.52656
Cl   -10.68502     0.48984     9.66154
Cl    -8.09159     2.03630     8.34743
Cl   -12.29947     3.29651     9.81152
 K     4.15508    12.01590   -27.62873
 K     0.79657    -0.01567     3.83354
 K     3.55182    -5.69540     4.52509
 K     6.63165    16.82215   -24.84654
 K    -6.24089    -4.11117    -3.21381
 K    15.24524    18.16062    -1.98071
 K    -8.76893    29.40525     7.55304
 K    18.41396     7.90638   -26.84047
 V     0.23742    -3.70256     5.41593
 V    -6.49141    -8.03667    -2.71899
 V   -10.05481     2.60789     9.02206
Cl     0.64339     1.38170    -1.52627
