   56
 
Nb     0.00000     0.00000     0.00000
Nb    -2.50107    -0.51545    -3.36753
Nb     5.09771    -7.57006     3.08542
Nb     2.59615    -8.07492    -0.28443
Nb     0.02466     0.98715    -2.81008
Nb    -2.39177     1.41191    -1.10422
Nb    -2.52181    -1.50168    -0.55646
Nb    -0.10847    -1.92425    -2.26318
Nb     5.12438    -6.57703     0.27735
Nb     2.70870    -6.15410     1.98393
Nb     2.57183    -9.06385     2.52317
Nb     4.98619    -9.49205     0.81919
Br    -4.28981     0.30410     0.54269
Br     1.79206    -0.81411    -3.90648
Br     0.80256    -7.26065     3.62233
Br     6.88235    -8.38375    -0.83347
Br     3.82581    -9.10080     4.91183
Br     3.69911   -10.26812    -1.41926
Br     3.86365    -6.53291    -2.10571
Br     4.00233    -5.37193     4.21797
Br    -1.26368    -1.53840     1.82829
Br    -1.40221    -2.71391    -4.49373
Br    -1.23199     1.01891    -5.19341
Br    -1.10723     2.19335     1.13156
Br     6.85327    -9.62349     2.81262
Br     0.68963    -9.75266     0.66344
Br     0.84429    -6.02008    -0.01341
Br     7.01371    -5.90524     2.13216
Br     1.75995    -2.05169    -0.26659
Br    -4.40672    -2.18761    -2.41442
Br    -4.26359     1.53092    -3.09755
Br     1.90259     1.68208    -0.95138
Br    -1.09950     3.42844    -2.38997
Br    -1.40754    -3.94729    -1.00070
Br     4.00657    -4.13451     0.71719
Br     3.68775   -11.50890     2.09678
Br    -3.98015    -0.83291    -5.67854
Br     1.47615     0.34109     2.31273
Br     1.12819    -8.41866    -2.59822
Br     6.58677    -7.23568     5.39124
Br    -3.87394     3.64454    -0.29324
Br    -6.77696     4.25823     1.90515
Br    -7.10141    -2.50477     3.15824
Br    -4.22042    -3.13489     0.95417
Br     1.21975    -3.92533     2.80321
Br    -1.67161    -3.28906     5.01637
Br    -1.31101     5.08250     3.47700
Br     1.58671     4.46648     1.27848
 K     0.98157    -8.83239     6.88598
 K    -1.97370    -9.42249     2.91456
 K    -1.78473    -5.14800     2.16714
 K     1.18925    -4.58759     6.13281
 K    -4.10101    -1.26833     3.80018
 K     3.78196    -1.80025     3.26799
 K     3.98346     2.44210     2.51249
 K    -3.91719     2.99079     3.03807
