   40
 
Mo     0.00000     0.00000     0.00000
Mo    -5.70733     4.70493     0.00001
Mo    -2.62137    -2.79570    -6.03897
 K    -1.38217    -6.94187    -4.26593
 K    -1.14639     3.87513    -1.38896
 K    -2.40110    -2.91122    -1.77304
 K    -0.31310     0.38656    -4.65000
 K    -6.23443     4.33437     5.18204
 K    -6.15064    -2.54103    -4.38973
 K    -3.72076     0.81380     0.85693
 K    -9.04728     2.09780    -1.64924
 K    -6.46315     7.96594     3.12216
 K    -2.13195     3.66088     3.73692
 K    -4.95152     1.44391    -3.12215
 K    -7.82324     1.48729     2.30206
Cl    -8.41121    -3.51026     1.49464
Cl    -3.56316     4.10436     0.99703
Cl    -5.32724    -1.19466    -1.49464
Cl    -7.85149     5.30549    -0.99702
Cl     1.69184    -0.67236     1.65347
Cl    -3.52538    -4.42380    -4.43260
Cl    -1.69184     0.67236    -1.65347
Cl    -1.71736    -1.16761    -7.64534
Cl     1.57979     1.53684    -1.01636
Cl    -4.73504    -2.77361    -7.23167
Cl    -1.57980    -1.53684     1.01636
Cl    -0.50770    -2.81779    -4.84628
Cl    -7.77316    -3.57952    -1.93609
Cl    -5.20358     7.10053     0.28021
Cl    -5.96529    -1.12541     1.93609
Cl    -6.21108     2.30932    -0.28021
Cl    -8.61635    -0.68189    -0.27115
Cl    -4.54166     4.73220    -2.13477
Cl    -5.12210    -4.02304     0.27115
Cl    -6.87300     4.67765     2.13478
Cl    -1.93894    -4.65148    -7.45149
Cl    -0.66317     1.79953     1.49223
Cl    -3.30380    -0.93992    -4.62645
Cl     0.66316    -1.79953    -1.49223
Mo    -6.86922    -2.35246    -0.00000
