  192
 
Al     0.00000     0.00000     0.00000
 O    -5.28956    -9.63144    -6.82813
 O    -6.13131    -7.30844    -6.67565
 K    -7.22391    -5.85159    -4.07724
 O    -5.29206    -8.39359    -4.67153
 O    -7.41891    -9.14853    -5.68446
 O    -5.57197     3.64366    -4.08036
 H    -6.05469     3.98084    -3.29744
 H    -4.66749     3.44050    -3.78525
 O    -7.97987    -4.48961     5.81793
 H    -8.62171    -3.76064     5.84506
 H    -8.39157    -5.33733     6.09371
 O    -4.80967    -4.59460    -5.32112
 H    -4.53011    -3.72474    -4.93185
 H    -4.70230    -4.43314    -6.27900
 S    -9.04513    -3.22309    -2.03621
 O    -8.22045    -4.46946    -2.07535
 O    -8.19452    -2.00366    -2.35296
 O    -9.59779    -3.07759    -0.65055
 O   -10.14084    -3.29054    -3.07230
 O    -7.94280    -3.69722    -6.11319
 H    -7.55573    -3.70377    -7.01244
 H    -8.91814    -3.77286    -6.21442
 O    -5.11527    -5.10993    -1.94499
 H    -4.35581    -5.72567    -1.79004
 H    -4.71651    -4.21568    -1.95473
 O     1.81452    -9.07715    -4.19834
 H     1.69515    -9.80962    -4.83415
 H     2.00248    -9.46086    -3.34428
 S    -6.03125    -8.64730    -5.96027
 S    -3.55867    -7.96479    -0.34254
 O    -4.75826    -8.61052    -0.98385
 O    -3.16707    -6.69929    -1.09141
 K    -1.09909    -5.74622     1.13783
 O    -3.85904    -7.54858     1.07783
 O    -2.38420    -8.90293    -0.35994
 O     0.06445     3.90993     1.17104
 H     0.72587     3.91503     1.90064
 H    -0.79721     3.98813     1.63200
 O     0.62572    -6.94681    -1.04037
 H     1.34187    -6.29389    -1.22704
 H     1.05682    -7.77694    -0.82864
 O    -3.25968    -3.76075     0.42450
 H    -3.16578    -2.86586     0.83400
 H    -3.51225    -3.54885    -0.49645
 S     1.78287    -3.83316     2.75854
 O     0.73171    -4.89291     2.89886
 O     1.16908    -2.45194     2.61890
 O     2.63789    -3.83902     3.98757
 O     2.59297    -4.08645     1.50763
 O    -0.20988    -3.84023    -1.00538
 H    -0.77006    -3.72550    -1.80257
 H     0.67093    -4.14652    -1.33350
 O    -2.44420    -4.45318     3.69613
 H    -3.31795    -4.80096     4.01416
 H    -2.52380    -3.48163     3.75029
 O     1.18049    -7.94667     1.83315
 H     0.92703    -8.75000     1.32596
 H     0.86233    -8.07177     2.72368
 S    -7.94783     3.02488    -1.52368
 K    -5.63161     0.83657     0.77313
 O    -7.09016     2.20823    -0.66027
 O    -8.38791     2.22294    -2.73667
 O    -9.16031     3.45627    -0.73581
 O    -7.16954     4.23116    -2.00753
 O    -4.33471     0.89749    -2.13705
 H    -3.63393     0.22235    -2.29406
 H    -3.94438     1.72543    -2.46770
 O     3.10661    -2.50454    -0.59182
 H     2.91718    -3.20945     0.06278
 H     3.19980    -2.93991    -1.43804
 O    -6.05617     3.69644     2.04369
 H    -5.46455     3.94009     2.79221
 H    -6.95152     3.87048     2.33966
 S    -3.75379    -1.10413     2.95803
 O    -2.81203    -1.83018     3.87605
 O    -3.39187    -1.33631     1.51330
 O    -5.18146    -1.53459     3.16293
 O    -3.67788     0.38964     3.23191
 O    -7.60878     1.06181     3.10753
 H    -8.16628     1.87817     3.07628
 H    -8.22818     0.33302     3.06506
 O    -3.05263     2.40144     0.76554
 H    -2.91434     3.08606     0.06192
 H    -2.74844     2.85632     1.57614
 O    -6.08230    -1.78252    -0.72019
 H    -6.78087    -1.75575    -1.40856
 H    -5.27118    -2.09996    -1.15632
 S    -2.97012    -2.33250    -3.07141
 O    -3.90308    -2.73262    -1.95935
 O    -1.74854    -3.21082    -3.10621
 K    -1.03108    -0.87857    -5.72375
 O    -2.49787    -0.89761    -2.87521
 O    -3.67534    -2.38982    -4.40097
 O    -3.06661     1.33310    -5.15644
 H    -3.13106     2.05292    -5.83946
 H    -3.08770     1.84290    -4.31921
 O    -1.84824    -3.44156    -7.00611
 H    -1.34329    -3.67012    -7.82303
 H    -2.79043    -3.51850    -7.25041
 O     1.33567    -1.40101    -3.76150
 H     2.08258    -0.78248    -3.93974
 H     1.71585    -2.27306    -3.89083
 S     1.34943     0.59849    -8.43610
 O     1.11982    -0.09497    -7.12706
 O     2.74302     1.13383    -8.47417
 O     0.35362     1.73428    -8.59783
 O     1.10584    -0.34695    -9.59103
 O     0.99988    -3.33303    -6.31709
 H     1.07016    -4.07938    -5.67536
 H     0.74929    -3.73376    -7.15216
 O     0.41156     1.51094    -4.55710
 H     0.06598     1.84695    -3.70162
 H     1.32856     1.26094    -4.42570
 O    -1.29040     1.56304     3.48766
 H    -2.17429     1.11859     3.52123
 H    -1.50730     2.47547     3.20203
 O     0.33536     0.38258     1.87512
 H    -0.32853     0.88490     2.45017
 H     1.27269     0.83131     1.91567
 O    -1.90574     0.23904     0.09084
 H    -2.27493     1.15025     0.39765
 H    -2.39073    -0.49215     0.62859
 O     0.35674     1.86693    -0.37346
 H     0.17469     2.61193     0.27958
 H     0.01305     2.16530    -1.31023
 O    -0.23393    -0.38888    -1.85806
 H     0.38956    -0.82165    -2.47792
 H    -1.22849    -0.53103    -2.19163
 O     1.92313    -0.18817    -0.17938
 H     2.33461    -1.06167    -0.44405
 H     2.16927     0.57064    -0.86004
 O    -0.24543    -1.82331     0.54800
 H    -0.14532    -2.58349    -0.12754
 H     0.34360    -2.00890     1.39350
Al    -6.84049    -0.02082    -5.19064
 O    -6.55210     0.39917    -3.33572
 H    -5.67222     0.62156    -2.87543
 H    -7.30036     1.07117    -3.08932
 O    -4.95277    -0.32577    -5.50647
 H    -4.25264     0.40779    -5.30708
 H    -4.60998    -1.19461    -5.09417
 O    -6.86299     1.88470    -5.57153
 H    -6.33380     2.49049    -4.96053
 H    -6.57820     2.11727    -6.54783
 O    -7.07936    -0.38577    -7.04893
 H    -7.91403    -0.61137    -7.52117
 H    -6.25706    -0.79469    -7.54930
 O    -8.73820     0.11469    -4.82282
 H    -9.38002    -0.66583    -4.93439
 H    -9.28031     0.90880    -5.17575
 O    -6.93696    -1.87229    -4.64464
 H    -7.41875    -2.53766    -5.25769
 H    -7.41089    -1.86151    -3.70895
Al    -1.63859    -6.83336    -4.67765
 O     0.22283    -7.15287    -5.05263
 H     0.74525    -7.88004    -4.62453
 H     0.72437    -6.22690    -4.82574
 O    -2.07002    -8.69095    -4.40389
 H    -1.64875    -9.19587    -3.64843
 H    -1.79170    -9.17310    -5.32221
 O    -1.27383    -6.55078    -2.80874
 H    -0.49910    -6.78813    -2.24548
 H    -2.12945    -6.57403    -2.20189
 O    -3.49492    -6.46513    -4.21395
 H    -3.94000    -5.70435    -4.74881
 H    -4.07264    -7.29861    -4.36008
 O    -1.27999    -4.96354    -4.98805
 H    -1.50607    -4.43030    -5.81507
 H    -1.40801    -4.36781    -4.16287
 O    -2.10463    -7.15565    -6.52333
 H    -2.95894    -6.84000    -7.00261
 H    -1.41042    -7.17196    -7.26298
Al    -6.75299    -4.94471     1.80673
 O    -6.56581    -3.04510     1.52272
 H    -6.42421    -2.61159     0.63006
 H    -6.09178    -2.52074     2.25831
 O    -6.80141    -5.29704    -0.08813
 H    -6.02634    -5.22969    -0.76699
 H    -7.61320    -5.08083    -0.65255
 O    -4.82117    -5.21037     1.85972
 H    -4.28490    -4.60810     1.23049
 H    -4.56369    -6.17968     1.62278
 O    -6.95242    -6.86161     1.97458
 H    -7.29735    -7.25938     2.84989
 H    -7.63780    -7.07848     1.21438
 O    -6.61863    -4.62111     3.68334
 H    -7.27220    -4.57527     4.45341
 H    -5.70210    -4.88817     4.10549
 O    -8.66863    -4.64802     1.81974
 H    -9.22610    -5.21430     2.40775
 H    -8.78907    -3.62853     2.15352
