   96
 
 O     0.00000     0.00000     0.00000
 O    -3.62063    -1.04109    -2.14162
 O     0.78259     2.05881     0.26430
 O    -4.47247    -0.14538    -0.29169
 O    -1.39839     1.66203     0.49045
 O    -5.52631    -1.82281    -1.31405
 K    -2.55907     1.54545    -2.12236
 K    -2.22361    -1.27477     1.14267
 C    -0.20748     1.24190     0.24917
 C    -4.53916    -1.00291    -1.24673
 K    -0.93701    -1.52484    -2.06122
 K     1.60355    -2.14007     0.04744
 O     4.67369    -0.48629     3.69195
 O     1.56567    -2.36417     2.91322
 O     5.74273     1.17239     4.72851
 O     0.19252    -0.71067     3.49235
 O     3.80114     0.43872     5.51700
 O    -0.62415    -2.73636     3.09870
 K     2.38220     0.56692     2.26330
 K     2.76508    -2.16775     5.51811
 C     4.73853     0.37569     4.64351
 C     0.38025    -1.93824     3.17006
 K     4.15257    -2.65338     2.16516
 K     6.25806    -2.62440     4.77320
 O    -3.03967     3.55451     3.29950
 O    -6.65045     2.51156     1.16697
 O    -2.24840     5.60912     3.57481
 O    -7.50502     3.41049     3.01415
 O    -4.43069     5.21951     3.79829
 O    -8.55742     1.73145     1.99298
 K    -5.59368     5.09649     1.18686
 K    -5.25747     2.27753     4.44691
 C    -3.24149     4.79611     3.55501
 C    -7.57076     2.55149     2.06028
 K    -3.97147     2.02484     1.24579
 K    -1.43263     1.41282     3.35860
 O     1.63207     3.07058     6.99578
 O    -1.46933     1.18859     6.21908
 O     2.70792     4.72335     8.03595
 O    -2.83846     2.84308     6.80115
 O     0.76988     3.98705     8.82967
 O    -3.65978     0.81886     6.41136
 K    -0.65355     4.12133     5.57104
 K    -0.27219     1.38414     8.82386
 C     1.70251     3.92777     7.95101
 C    -2.65388     1.61522     6.47930
 K     1.11730     0.89814     5.47589
 K     3.22437     0.92672     8.08405
 O     4.51576     1.98338    -2.94980
 O     0.89286     0.95032    -5.09578
 O     5.29513     4.04533    -2.69393
 O     0.04150     1.83411    -3.23937
 O     3.11606     3.64541    -2.46007
 O    -1.01360     0.16582    -4.27247
 K     1.95647     3.53475    -5.07516
 K     2.28867     0.71611    -1.80490
 C     4.30655     3.22588    -2.70440
 C    -0.02526     0.98390    -4.20049
 K     3.57470     0.45334    -5.00962
 K     6.12691    -0.15376    -2.90805
 O     9.18619     1.49501     0.74019
 O     6.07720    -0.38545    -0.04239
 O    10.25369     3.15964     1.77130
 O     4.71479     1.27426     0.54248
 O     8.31225     2.42850     2.56023
 O     3.88591    -0.74660     0.14825
 K     6.89437     2.55880    -0.68640
 K     7.27726    -0.17852     2.56343
 C     9.24999     2.36113     1.68780
 C     4.89414     0.04638     0.21723
 K     8.66637    -0.67053    -0.78766
 K    10.77956    -0.63869     1.82072
 O     1.47448     5.53764     0.34663
 O    -2.13817     4.49926    -1.78571
 O     2.26352     7.59452     0.61613
 O    -2.99093     5.38574     0.06859
 O     0.08244     7.20234     0.84609
 O    -4.04923     3.72068    -0.96693
 K    -1.07839     7.08440    -1.76523
 K    -0.74507     4.26714     1.49955
 C     1.27139     6.77955     0.59979
 C    -3.05878     4.53572    -0.89284
 K     0.54211     4.00303    -1.70352
 K     3.08980     3.39910     0.40536
 O     6.14551     5.05013     4.04736
 O     3.04401     3.16521     3.26493
 O     7.22092     6.70978     5.07927
 O     1.68351     4.82569     3.84884
 O     5.28207     5.97787     5.87437
 O     0.85208     2.80566     3.45767
 K     3.85894     6.11223     2.62173
 K     4.24073     3.37420     5.87048
 C     6.21550     5.91321     4.99718
 C     1.86135     3.59739     3.52528
 K     5.63089     2.88190     2.52464
 K     7.74726     2.91232     5.13008
