   72
 
 B     0.00000     0.00000     0.00000
 B     2.45542     0.00000     0.00000
 B     1.22772    -2.12645    -0.00000
 B     2.45543    -1.41764     3.67000
 B     0.00001    -1.41763     3.67000
 B     1.22771     0.70882     3.67000
 B    -3.68349    -6.38000     4.89333
 B    -1.22807    -6.38000     4.89333
 B    -2.45577    -8.50645     4.89333
 B    -1.22806    -7.79764     1.22333
 B    -3.68348    -7.79763     1.22333
 B    -2.45578    -5.67118     1.22333
 B    -7.36699    -0.00000     2.44667
 B    -4.91156    -0.00000     2.44667
 B    -6.13927    -2.12646     2.44667
 B    -4.91156    -1.41764    -1.22333
 B    -7.36698    -1.41764    -1.22333
 B    -6.13928     0.70882    -1.22333
 O    -1.15588     0.66734     0.00000
 O     3.61130     0.66735     0.00000
 O     1.22772    -3.46115    -0.00000
 O     3.61130    -2.08498     3.67000
 O    -1.15587    -2.08498     3.67000
 O     1.22771     2.04352     3.67000
 O    -4.83937    -5.71266     4.89333
 O    -0.07219    -5.71266     4.89333
 O    -2.45577    -9.84115     4.89333
 O    -0.07219    -8.46499     1.22333
 O    -4.83936    -8.46498     1.22333
 O    -2.45578    -4.33649     1.22333
 O    -8.52286     0.66734     2.44667
 O    -3.75568     0.66735     2.44667
 O    -6.13927    -3.46115     2.44667
 O    -3.75569    -2.08498    -1.22333
 O    -8.52287    -2.08499    -1.22333
 O    -6.13928     2.04351    -1.22333
 K     7.43035    -4.28991     0.00000
 K    -4.97491    -4.28991    -0.00000
 K     1.22772    -6.30663     0.00000
 K     6.07556    -3.50772     3.67000
 K    -3.62013    -3.50772     3.67000
 K     1.22772    -7.87100     3.67000
 K    -7.30362    -4.28992     4.89333
 K     2.39207    -4.28991     4.89333
 K    -2.45578     0.07337     4.89333
 K    -8.65842    -3.50773     1.22333
 K     3.74686    -3.50772     1.22333
 K    -2.45578    -1.49101     1.22333
 K     0.06337    -4.28991     2.44667
 K    -1.29143     2.09008     2.44667
 K     4.91121     0.07337     2.44667
 K    -1.29143    -3.50772    -1.22333
 K     0.06335     2.87228    -1.22333
 K     4.91120    -1.49100    -1.22333
 O     2.42558    -1.40041     0.00000
 O     0.02984    -1.40041     0.00000
 O     1.22771     0.67436     0.00000
 O     0.02984    -0.01723     3.67000
 O     2.42558    -0.01723     3.67000
 O     1.22771    -2.09200     3.67000
 O    -1.25791    -7.78041     4.89333
 O    -3.65365    -7.78041     4.89333
 O    -2.45577    -5.70563     4.89333
 O    -3.65365    -6.39723     1.22333
 O    -1.25790    -6.39722     1.22333
 O    -2.45578    -8.47200     1.22333
 O    -4.94140    -1.40041     2.44667
 O    -7.33714    -1.40041     2.44667
 O    -6.13927     0.67436     2.44667
 O    -7.33714    -0.01723    -1.22333
 O    -4.94140    -0.01723    -1.22333
 O    -6.13927    -2.09200    -1.22333
