   24
 
 K     0.00000     0.00000     0.00000
 K    -3.91288     1.85694     1.70363
 K    -3.72893    -3.06005     1.21026
 K     0.18395    -4.91700    -0.49337
Br    -1.92941    -2.32869    -2.13642
Br    -5.93696    -0.70889    -0.65036
Br    -1.79953    -0.73136     3.34668
Br     2.20802    -2.35116     1.86062
 O    -1.04621    -3.30635    -3.03337
 O    -4.47604    -0.23933    -0.21957
 O    -2.68272     0.24630     4.24362
 O     0.74711    -2.82073     1.42982
 O    -3.49507    -2.60875    -2.39336
 O    -7.04747     0.15124     0.13876
 O    -0.23386    -0.45130     3.60362
 O     3.31853    -3.21130     1.07150
 O    -1.57329    -2.58079    -0.58146
 O    -6.10615    -0.49730    -2.24250
 O    -2.15565    -2.25890     3.73152
 O     2.37722    -0.78311     1.51296
 O    -2.15565    -0.47926     1.79172
 O     2.37722    -2.56275     3.45276
 O    -1.57329    -0.80115    -2.52126
 O    -6.10615    -2.27695    -0.30270
