   88
 
Cr     0.00000     0.00000     0.00000
Cl     2.23963     0.51778     0.32966
Cl    -0.62613     2.22048     0.14352
Cl    -2.23186    -0.53652    -0.32567
Cl     0.57341    -2.23600    -0.10698
Cr     8.45031     5.92124     0.93397
Cl    10.68688     6.39914     1.32494
Cl     7.98500     5.73138     3.27344
Cl     6.26615     5.36079     0.48035
Cl     8.83065     6.10007    -1.40892
Cr     9.08763     1.11080     0.44991
Cl     6.76437     1.03853     0.46502
Cl     9.06428     3.47326     0.65109
Cl    11.40523     1.22296     0.43316
Cl     9.03770    -1.24601     0.26914
Cr    -0.65949     4.79059     0.51852
Cl    -2.96667     4.63342     0.62899
Cl    -0.46103     4.66134     2.81562
Cl     1.65834     4.97386     0.41203
Cl    -0.79311     4.84441    -1.79650
 C    -6.08895     1.23175     1.97615
 C    -4.92487     1.91755     2.68633
 N    -7.37804     1.71784     2.59852
 C    -3.59600     1.51104     2.04933
 N    -2.50460     2.27478     2.76391
 C     3.08717     2.57898    -2.34176
 C     4.13616     3.19171    -1.39824
 N     1.72189     2.89167    -1.78406
 C     5.43667     3.07080    -1.95528
 N     6.76628     3.41569    -1.69017
 C     5.25839     3.48671     3.37410
 C     4.09700     2.79499     2.65829
 N     6.55664     2.99980     2.76481
 C     2.76502     3.18584     3.30227
 N     1.65835     2.42510     2.60325
 C    -3.52301     2.42865    -1.85892
 C    -4.68197     1.68924    -2.52215
 N    -2.23951     1.97275    -2.52049
 C    -6.02255     2.15237    -1.95217
 N    -7.10749     1.40827    -2.69468
 H    -6.03525     0.11855     2.06774
 H    -6.10609     1.46615     0.88289
 H    -4.92425     1.65867     3.77071
 H    -5.04476     3.02584     2.63991
 H    -8.21100     1.33424     2.11111
 H    -7.43416     1.44754     3.59428
 H    -7.43392     2.75128     2.55488
 H    -3.39755     0.41475     2.14224
 H    -3.55730     1.75178     0.95879
 H    -1.57403     2.10348     2.34131
 H    -2.68859     3.29327     2.72114
 H    -2.46838     2.00497     3.76173
 H     3.20480     1.46979    -2.42406
 H     3.15875     2.99239    -3.37759
 H     4.09005     2.67659    -0.39565
 H     3.89600     4.27283    -1.18716
 H     0.98292     2.32454    -2.23839
 H     1.68919     2.69285    -0.76695
 H     1.49495     3.89338    -1.91692
 H     5.27019     1.46455    -3.50209
 H     5.24048     2.07262    -3.96648
 H     7.42534     2.81055    -2.25043
 H     6.96451     4.41976    -1.91939
 H     7.01091     3.28276    -0.67264
 H     5.26831     3.25453     4.47042
 H     5.20440     4.59972     3.27602
 H     4.23088     1.68885     2.69357
 H     4.09684     3.06803     1.57856
 H     6.62522     1.97010     2.81752
 H     7.37701     3.39985     3.25985
 H     6.62252     3.26794     1.76979
 H     2.73673     2.93667     4.39116
 H     2.56317     4.28147     3.21788
 H     1.84409     1.40586     2.62940
 H     1.59140     2.70359     1.61002
 H     0.73994     2.59111     3.05205
 H    -3.46410     2.21907    -0.76241
 H    -3.61476     3.53816    -1.96958
 H    -4.56644     0.58922    -2.37943
 H    -4.66089     1.85754    -3.62505
 H    -2.08001     0.96402    -2.36137
 H    -1.42214     2.49456    -2.15863
 H    -2.28597     2.12406    -3.54489
 H    -6.11405     1.93897    -0.85948
 H    -6.18155     3.25157    -2.07810
 H    -7.02297     0.38979    -2.53303
 H    -7.02519     1.56889    -3.71496
 H    -8.05954     1.70484    -2.40552
