   88
 
Pb     0.00000     0.00000     0.00000
 P     4.21171     1.45538    -0.11238
 O     2.62249     1.72253    -0.25121
 O     3.65752     0.03436    -1.87535
 O     3.94101     0.02120     0.64185
 O     5.16962     2.16597     1.02330
Pb     3.11682     1.99587     2.17126
 H     4.28962    -0.19122     4.25207
 O     4.79566     0.46725     3.66288
 P    -0.42942     3.28985     1.25115
 O     0.66214     2.18419     0.95410
 O     1.74284     4.43868     1.12055
 O    -0.64454     4.07656    -0.10122
 O    -1.58846     2.37256     1.92721
Pb    -1.61031     2.22877    -1.69299
 P    -0.38157     1.92669    -3.68900
 O     0.19439     2.94621    -2.56723
 O    -1.81990     2.38250    -4.27459
 O     3.19128     1.69939     4.69158
 O     4.61178     3.50145     3.18670
Pb     1.59968     0.81303    -2.68818
Pb     1.80116     3.58485    -0.78490
Pb     5.14886     1.45879    -1.65872
Pb     3.70581    -2.38503    -0.98136
 O    -0.90691    -0.59826     2.26802
 O    -1.73532    -1.68843     0.27550
 O     0.55655    -1.97684     1.05002
 O     3.77107     3.82927     0.20979
 O    -2.51401     0.73600     0.26220
 O     3.41135     1.91764    -3.27038
 O     1.43298    -0.08759     2.19870
 O    -0.04751     5.22541    -2.10460
 O    -0.22425    -2.03520    -1.51411
Pb    -2.76000    -2.97711    -1.68104
Pb     2.75830    -2.01243     2.25584
Pb    -3.41679    -0.41084     2.25551
 P     0.40316    -0.90265     3.16458
 O    -0.05371    -0.58520     4.65775
 O    -5.22597     1.76619     0.71441
 H    -4.97162     2.63813     1.17473
 P    -2.82975    -0.67429    -0.43407
 O    -2.41504    -0.54863    -1.95163
 P     0.24767    -2.86452    -0.26755
 O    -1.92628     0.66533     4.01846
Pb     3.45195     6.24472    -2.92336
 P     7.17885     5.76380    -3.25851
 O     5.67596     6.29784    -3.39740
 O     7.67060     6.20532    -4.84827
 O     6.94093     5.19745    -1.64092
 O     8.01970     7.05654    -2.70566
Pb     6.14542     7.89800    -1.26650
 H     7.69782     6.31503     0.86982
 O     7.95178     7.10442     0.25405
 P     4.29355     9.30924    -2.45255
 O     4.67060     8.37069    -3.69189
 O     5.54718    10.25081    -2.12457
 O     3.29360    10.29251    -3.21035
 O     3.32649     8.37576    -1.58930
Pb     2.00031     8.42927    -4.74333
 P     3.40762     7.66150    -6.76375
 O     4.01485     8.91220    -6.01622
 O     1.79118     7.83337    -7.15028
 O     6.97490     7.68681     2.14856
 O     7.73617     9.30544    -0.28020
Pb     5.59494     6.82127    -5.89816
Pb     7.05248     9.26402    -4.04109
Pb     9.85259     7.41069    -4.61420
Pb     7.08818     3.96200    -3.69732
 O     2.14077     6.13383    -0.73865
 O     0.93985     6.00405    -4.68497
 O     3.76278     4.02862    -2.11124
 O     9.15062     9.90406    -2.91345
 O     0.72091     7.27048    -2.69426
 O     7.85232     8.25625    -6.13192
 O     4.43643     5.95074    -0.55215
 O     4.26148    11.09130    -6.23515
 O     4.51853     4.46504    -4.47301
Pb     1.42620     4.05642    -3.92703
Pb     5.71559     4.23955    -0.27584
Pb     0.08247     6.71758    -0.63500
 P     3.02937     5.37050     0.42480
 O     3.87488     5.86721     1.70127
 O    -1.40579     8.08976    -2.15281
 H    -1.60455     9.05386    -1.87270
 P    -0.22647     6.09766    -3.51120
 O    -0.58143     4.32824    -4.16555
 P     3.28509     3.61797    -3.64265
 O     1.83068     6.85727     1.44457
