  208
 
 O     0.00000     0.00000     0.00000
 H     1.05765     0.01978    -0.06347
 O     0.63992     4.68670    -0.11708
 H     0.20816     5.60997     0.05471
 C     0.34632     2.37346    -0.12386
 H     1.41017     2.25853    -0.31716
 C    -0.50228     1.26841     0.01794
 C    -0.22946     3.64752    -0.00501
 C    -2.42232     2.68621     0.29609
 H    -3.50453     2.80972     0.44051
 C    -1.60892     3.82227     0.20636
 H    -2.03481     4.81601     0.27773
 C    -1.88906     1.40099     0.21274
 H    -2.51319     0.51024     0.27944
 O     1.30150     3.45992    -7.52880
 H     0.26000     3.48487    -7.39452
 O     0.62952    -1.23615    -7.39463
 H     1.05879    -2.15779    -7.60061
 C     0.92707     1.08294    -7.40669
 H    -0.13874     1.20228    -7.22792
 C     1.78277     2.18212    -7.54345
 C     1.49828    -0.19534    -7.50956
 C     3.69970     0.75031    -7.79449
 H     4.78213     0.61840    -7.92805
 C     2.87962    -0.37981    -7.69931
 H     3.29833    -1.37744    -7.77305
 C     3.17124     2.03852    -7.72552
 H     3.80012     2.92634    -7.79876
 O    -0.61104    -1.05084     5.00872
 H    -1.80352     1.02917     5.26247
 N    -1.09027     1.05949     4.49823
 C    -0.32432    -0.05465     4.29829
 C     0.78283    -0.11043     3.28282
 H     0.36168     0.09526     2.26158
 H     1.19971    -1.15130     3.29229
 C     1.91353     0.88155     3.59492
 H     2.81675     0.56498     3.01226
 H     2.15830     0.82637     4.68191
 C     1.59705     2.33554     3.21975
 H     2.52740     2.94008     3.36665
 H     1.32338     2.38349     2.13647
 C     0.47947     2.97162     4.05543
 H     0.73119     2.88817     5.14022
 H     0.42447     4.05904     3.79747
 C    -0.90061     2.34988     3.79022
 H    -1.70075     3.04480     4.16287
 H    -1.03908     2.17985     2.68557
 O     8.28678     6.15683   -12.85282
 H     9.31074     3.99980   -13.04363
 N     8.58368     4.03321   -12.29194
 C     7.89726     5.20071   -12.13143
 C     6.77446     5.36992   -11.14278
 H     7.16673     5.18278   -10.10692
 H     6.42198     6.43230   -11.21442
 C     5.58385     4.43874   -11.41866
 H     4.69733     4.83287   -10.86006
 H     5.34727     4.45747   -12.50894
 C     5.81473     2.98723   -10.97863
 H     4.84819     2.43314   -11.07811
 H     6.10686     2.96910    -9.90013
 C     6.87379     2.25205   -11.80906
 H     6.61663     2.33419   -12.89448
 H     6.85225     1.16823   -11.53114
 C     8.29590     2.77548   -11.55866
 H     9.04342     2.01331   -11.90898
 H     8.44626     2.96076   -10.45836
 O     3.07388     8.31715    -4.69691
 H     2.39386     5.99026    -3.35497
 H     4.87053     3.20840    -3.88324
 H     6.36312     4.61180    -2.80359
 O     4.43950    -3.17959    -2.80942
 N     2.52050    -2.29402    -3.56196
 H     2.00900    -3.09887    -3.16557
 C     3.87577    -2.21983    -3.38429
 C     4.66074    -1.04843    -3.91666
 H     4.44247    -0.91685    -5.00777
 H     5.74362    -1.29789    -3.77970
 C     4.36181     0.26396    -3.17853
 H     4.32771     0.07600    -2.07921
 H     5.20512     0.97126    -3.37382
 C     3.05257     0.93888    -3.60528
 H     3.08872     1.17940    -4.69606
 H     2.95709     1.89422    -3.02854
 C     1.80807     0.09691    -3.30298
 H     0.90342     0.71675    -3.51600
 H     1.80273    -0.16649    -2.21506
 C     1.74054    -1.17827    -4.15551
 H     2.13677    -0.97077    -5.18820
 H     0.68070    -1.51094    -4.25498
 N     5.01581     7.24877    -4.48383
 H     5.47374     8.17839    -4.54533
 C     3.65285     7.21121    -4.53685
 C     2.80020     5.97652    -4.40310
 H     1.95763     6.11346    -5.13485
 C     3.44269     4.61519    -4.66734
 H     4.00051     4.64666    -5.64133
 H     2.63217     3.85124    -4.78203
 C     4.38056     4.15346    -3.54744
 H     3.78808     3.94058    -2.62063
 C     5.46583     5.16938    -3.17781
 H     5.09302     5.82009    -2.34622
 C     5.90519     6.07073    -4.33096
 H     6.92476     6.45934    -4.08905
 H     5.93029     5.50438    -5.30100
 O    -6.24156    -1.64285     0.08193
 H    -5.20518    -1.61549    -0.13646
 O    -5.58648     3.03473     0.26977
 H    -6.02250     3.95558     0.46823
 C    -5.88795     0.72657     0.13845
 H    -4.83740     0.62365    -0.12766
 C    -6.73719    -0.38130     0.23907
 C    -6.44919     1.99070     0.37399
 C    -8.63154     1.01922     0.71588
 H    -9.70558     1.14142     0.91194
 C    -7.81630     2.15572     0.66297
 H    -8.23636     3.14421     0.80482
 C    -8.10890    -0.25904     0.52300
 H    -8.73872    -1.15098     0.57271
 O    -4.91607     1.92704    -7.16946
 H    -5.95212     1.92070    -6.96159
 O    -5.56164    -2.76064    -7.37978
 H    -5.12028    -3.67825    -7.61823
 C    -5.27206    -0.45015    -7.22176
 H    -6.32497    -0.35607    -6.96800
 C    -4.42845     0.66209    -7.32231
 C    -4.70427    -1.71063    -7.46098
 C    -2.52275    -0.73221    -7.78982
 H    -1.44734    -0.84625    -7.98188
 C    -3.33350    -1.87126    -7.73785
 H    -2.91329    -2.85882    -7.89563
 C    -3.05440     0.54358    -7.60107
 H    -2.43085     1.43691    -7.65259
 O    -6.86052    -2.72158     5.29901
 H    -7.88844    -0.55959     5.45510
 N    -7.18673    -0.61451     4.68453
 C    -6.51033    -1.79153     4.52841
 C    -5.43402    -1.98789     3.49480
 H    -5.85788    -1.78976     2.47364
 H    -5.10431    -3.05953     3.54457
 C    -4.21748    -1.08004     3.73624
 H    -3.35600    -1.49469     3.15300
 H    -3.95012    -1.10138     4.81958
 C    -4.43265     0.37413     3.29698
 H    -3.45448     0.91133     3.36958
 H    -4.74721     0.39105     2.22458
 C    -5.46260     1.13414     4.14205
 H    -5.18421     1.06084     5.22234
 H    -5.43126     2.21345     3.84818
 C    -6.89823     0.62944     3.92797
 H    -7.62770     1.40624     4.28062
 H    -7.07387     0.43158     2.83293
 O     1.93844     4.51399   -12.57154
 H     3.12394     2.42687   -12.86655
 N     2.40074     2.38421   -12.11036
 C     1.63838     3.49610   -11.89701
 C     0.51569     3.53651   -10.89683
 H     0.92680     3.34017    -9.87037
 H     0.09133     4.57337   -10.92838
 C    -0.60275     2.53290   -11.21284
 H    -1.52115     2.84719   -10.65410
 H    -0.82856     2.57191   -12.30544
 C    -0.27316     1.08765   -10.81898
 H    -1.19839     0.47178   -10.95105
 H     0.01372     1.05191    -9.73942
 C     0.83908     0.45986   -11.66754
 H     0.57322     0.54946   -12.74973
 H     0.90138    -0.62964   -11.42123
 C     2.21762     1.08780   -11.41058
 H     3.01706     0.39795   -11.79530
 H     2.36475     1.25113   -10.30598
 O    -3.19050     6.67541    -4.95561
 H    -3.78623     4.46807    -3.38368
 H    -1.36720     1.63337    -3.81470
 H     0.11136     3.12120    -2.79542
 O    -1.78441    -4.75364    -2.80614
 N    -3.72272    -4.01021    -3.66238
 H    -4.22104    -4.77125    -3.17470
 C    -2.37440    -3.86575    -3.46097
 C    -1.63638    -2.69665    -4.06274
 H    -1.86092    -2.61993    -5.15873
 H    -0.54584    -2.90419    -3.93002
 C    -2.00006    -1.36408    -3.39000
 H    -2.06007    -1.50587    -2.28437
 H    -1.18684    -0.62853    -3.60502
 C    -3.32281    -0.75991    -3.87936
 H    -3.26347    -0.55956    -4.97818
 H    -3.46978     0.21436    -3.34667
 C    -4.54290    -1.63982    -3.58279
 H    -5.45745    -1.07285    -3.88600
 H    -4.58813    -1.83907    -2.48192
 C    -4.51729    -2.96577    -4.35710
 H    -4.07045    -2.80435    -5.37676
 H    -5.55719    -3.34697    -4.50142
 N    -1.24421     5.62367    -4.67332
 H    -0.78400     6.55033    -4.74432
 C    -2.60920     5.58687    -4.71562
 C    -3.45263     4.36537    -4.45254
 H    -4.34051     4.43948    -5.13815
 C    -2.82508     2.98439    -4.64470
 H    -2.29028     2.95320    -5.63177
 H    -3.64682     2.22566    -4.70048
 C    -1.86668     2.58614    -3.51504
 H    -2.44289     2.40038    -2.57348
 C    -0.79112     3.63762    -3.21190
 H    -1.16538     4.34072    -2.42644
 C    -0.37062     4.44465    -4.44433
 H     0.66399     4.82627    -4.28288
 H    -0.39078     3.79973    -5.36584
