  144
 
Re     0.00000     0.00000     0.00000
Re    -2.47437    -7.13658    -3.48956
Re     3.69424    -6.15428    -0.57798
Re     9.98143    -5.25866     4.80412
Re    -2.19337    -2.00756    -2.21756
Re     4.62211    -2.17961    -1.40212
Re     5.88709    -4.14623     1.63988
Re     2.88313   -10.21727     2.71586
Re     1.90905    -3.11948     0.94499
Re    -4.38437    -4.01654    -4.43470
Re     5.59788    -9.27643     0.36947
Re     8.07847    -2.13600     3.85714
Re    -0.28376    -5.12730    -1.27239
Re     2.71268     0.93972    -2.34672
Re     7.79002    -7.26907     2.58694
Re     0.97952    -7.09534     1.76787
 O    -1.09192    -1.25676    -0.85158
 O     5.93432    -1.36835    -2.45743
 O     4.79312    -5.40380     0.79148
 O     1.48197   -10.34384     4.00729
 O     1.58878     0.35219    -0.92237
 O    -1.65500    -5.93200    -2.25605
 O     2.56749    -6.74000     0.84784
 O     8.61381    -6.06129     3.81524
 O     0.95798    -1.57053     0.42966
 O    -3.42504    -5.58691    -4.00402
 O     4.65007    -7.72612    -0.14694
 O     9.03401    -3.70779     4.28773
 O     1.10150     0.75066     1.36624
 O    -1.16552    -6.32125    -4.54504
 O     2.60189    -7.41105    -1.42841
 O     8.57763    -5.38998     6.09134
 O    -0.54803     0.83950    -1.68019
 O    -1.75706    -8.26971    -2.13330
 O     2.76199    -4.58017    -0.04097
 O    10.83639    -6.71831     3.81940
 O     2.62558    -4.24988     2.30277
 O    -4.93439    -3.18007    -6.11556
 O     6.45226   -10.73704    -0.61391
 O     7.14740    -0.56013     4.39207
 O     0.53823    -3.92274    -0.04162
 O    -5.51007    -4.60047    -3.01014
 O     6.41958    -8.06972     1.59912
 O     9.66741    -1.77928     2.94092
 O    -1.12730    -0.58438     1.42362
 O     5.44262    -0.97390    -0.16948
 O     5.28232    -5.79932    -1.49760
 O     1.51141   -11.02124     1.73238
 O     3.21814    -2.30834    -0.11442
 O    -3.28465    -3.26570    -3.06614
 O     4.19508    -9.40718     1.65744
 O     6.98520    -3.39377     3.00883
 O    -1.23461    -3.57879    -1.78896
 O     3.67504    -0.62854    -1.92019
 O     6.84330    -5.71657     2.07049
 O     1.93711    -8.66716     2.19777
 O    -3.31761    -2.59206    -0.79132
 O     3.25056    -2.97947    -2.39071
 O     7.47397    -3.78871     0.71971
 O     3.70725    -9.01225     3.94577
 O    -3.12516    -0.43287    -1.67809
 O     5.33689    -3.31084    -0.04358
 O     4.95580    -2.57117     2.17700
 O     3.59598   -11.34996     4.07520
 O     0.43051    -6.26045     0.08552
 O     2.16154     1.77810    -4.02629
 O     8.64247    -8.73040     1.60466
 O     0.04626    -5.52197     2.30553
 O     1.02601    -4.31431    -2.33004
 O     3.81311     1.69021    -0.97933
 O     6.38705    -7.39736     3.87601
 O    -0.11460    -8.35381     0.92333
Re    -0.52093     1.06721     4.56388
Re    -2.99554    -6.06971     1.07418
Re     3.17310    -5.08712     3.98556
Re     9.46008    -4.19140     9.36800
Re    -2.71508    -0.94060     2.34629
Re     4.10222    -1.11144     3.16261
Re     5.36552    -3.07934     6.20332
Re     2.36244    -9.14956     7.28058
Re     1.38778    -2.05223     5.50871
Re    -4.90529    -2.95005     0.12926
Re     5.07684    -8.20943     4.93323
Re     7.55672    -1.06922     8.42024
Re    -0.80560    -4.06083     3.29173
Re     2.19280     2.00796     2.21837
Re     7.26879    -6.20166     7.15099
Re     0.45926    -6.02724     6.33316
 O    -1.61398    -0.18854     3.71288
 O     5.41236    -0.29852     2.10555
 O     4.27170    -4.33690     5.35545
 O     0.96272    -9.27641     8.57271
 O     1.06763     1.42195     3.64196
 O    -2.17775    -4.86370     2.30798
 O     2.04630    -5.67257     5.41133
 O     8.09180    -4.99534     8.37989
 O     0.43750    -0.50392     4.98999
 O    -3.94488    -4.52046     0.55707
 O     4.12940    -6.65929     4.41573
 O     8.51327    -2.64114     8.84953
 O     0.58152     1.81541     5.93114
 O    -1.68495    -5.25584     0.01921
 O     2.07968    -6.34291     3.13489
 O     8.05659    -4.32293    10.65427
 O    -1.06908     1.90595     2.88397
 O    -2.27819    -7.20173     2.43111
 O     2.24048    -3.51321     4.52364
 O    10.31563    -5.64982     8.38339
 O     2.10377    -3.18240     6.86756
 O    -5.45572    -2.11371    -1.55077
 O     5.93115    -9.66974     3.94966
 O     6.62549     0.50571     8.95590
 O     0.01679    -2.85673     4.52340
 O    -6.02945    -3.53540     1.55448
 O     5.89824    -7.00301     6.16362
 O     9.14655    -0.70948     7.50488
 O    -1.64649     0.48196     5.98873
 O     4.92243     0.09429     4.39492
 O     4.76178    -4.73061     3.06683
 O     0.99037    -9.95277     6.29696
 O     2.69845    -1.24165     4.45029
 O    -3.80584    -2.20037     1.49935
 O     3.67355    -8.34003     6.22129
 O     6.46284    -2.32666     7.57305
 O    -1.75389    -2.51054     2.77474
 O     3.15260     0.43830     2.64577
 O     6.32287    -4.64951     6.63271
 O     1.41615    -7.59906     6.76328
 O    -3.83841    -1.52553     3.77327
 O     2.73195    -1.91319     2.17415
 O     6.95332    -2.71959     5.28450
 O     3.18685    -7.94394     8.51003
 O    -3.64771     0.63394     2.88626
 O     4.81702    -2.24324     4.52092
 O     4.43191    -1.50554     6.74095
 O     3.07799   -10.28118     8.63971
 O    -0.09199    -5.19432     4.64991
 O     1.64354     2.84714     0.53722
 O     8.12234    -7.66248     6.16730
 O    -0.47196    -4.45208     6.86970
 O     0.50635    -3.25036     2.23456
 O     3.29323     2.75852     3.58498
 O     5.86627    -6.32915     8.43871
 O    -0.63452    -7.28663     5.48868
