   56
 
 F     0.00000     0.00000     0.00000
 F    -2.78547    -1.50090    -4.38845
 F    -2.28434    -1.51601     4.20669
 F    -5.07523    -2.78480    -0.25101
 F    -0.97469    -2.15041     1.97784
 F    -6.38487    -2.15041     1.97784
 F     1.30964    -0.63440    -2.22885
 F    -4.09511    -0.86651    -2.15960
 F     1.84590     1.83986     0.57118
 F    -0.86137    -2.65035    -2.94094
 F    -4.13867    -3.35179     3.64986
 F    -6.99090    -1.63945    -1.71287
 F    -2.82059    -3.99027     1.40666
 F    -8.30898    -1.00096     0.53033
 F     3.16397     1.20138    -1.67202
 F    -2.17944    -2.01187    -0.69774
 F     0.58900     1.90014    -1.78422
 F    -3.40234    -3.40614    -2.61915
 F    -1.56370    -4.05055     3.76206
 F    -5.76800    -0.24517     0.20854
Re     1.58141     0.60677    -0.83297
Re    -2.47860    -1.76187    -2.54438
Re    -2.55610    -2.75718     2.81080
Re    -6.69175    -1.88944     0.13377
 F     2.57964    -0.68936     0.12250
 F    -1.54921    -0.11272    -2.46768
 F    -3.55433    -1.46105     1.85534
 F    -7.62114    -3.53858     0.05707
 F    -0.11117     4.75655    -1.41918
 F    -2.89664     3.25565    -5.80763
 F    -2.39551     3.24054     2.78751
 F    -5.18641     1.97175    -1.67019
 F    -1.08587     2.60615     0.55866
 F    -6.49605     2.60615     0.55866
 F     1.19847     4.12216    -3.64803
 F    -4.20629     3.89005    -3.57878
 F     1.73473     6.59641    -0.84800
 F    -0.97254     2.10621    -4.36012
 F    -4.24984     1.40477     2.23068
 F    -7.10208     3.11711    -3.13205
 F    -2.93176     0.76629    -0.01252
 F    -8.42015     3.75559    -0.88885
 F     3.05280     5.95793    -3.09120
 F    -2.29062     2.74469    -2.11692
 F     0.47783     6.65669    -3.20340
 F    -3.51351     1.35041    -4.03833
 F    -1.67487     0.70601     2.34288
 F    -5.87918     4.51139    -1.21064
Re     1.47023     5.36333    -2.25214
Re    -2.58977     2.99469    -3.96356
Re    -2.66727     1.99937     1.39162
Re    -6.80292     2.86711    -1.28541
 F     2.46846     4.06720    -1.29668
 F    -1.66038     4.64383    -3.88686
 F    -3.66550     3.29550     0.43616
 F    -7.73231     1.21797    -1.36211
