   48
 
 I     0.00000     0.00000     0.00000
 I     0.54519    -8.87088    -5.87523
 I     2.45327    -6.63108    -5.48770
 I     1.91682     2.27926     0.43969
 I     0.93865    -1.76625    -2.31157
 I    -1.71353    -8.77159    -3.86446
 I     1.54742    -4.80772    -3.12857
 I     4.18800     2.19325    -1.58207
Re     1.71206    -1.96940     0.22519
Re    -1.69970    -7.57481    -6.22856
Re     0.79220    -4.62816    -5.67776
Re     4.17136     1.01003     0.78958
 I     2.81696    -4.34248     0.21583
 I    -4.26549    -6.84590    -6.45443
 I    -0.27159    -2.23779    -5.59451
 I     6.72916     0.28200     1.01861
 I     0.15689     2.38509    -2.81527
 I     2.38050    -8.78441    -2.53734
Re     1.89194     0.73704    -1.78987
Re     0.56851    -7.29549    -3.66831
 I     2.77005    -0.75000     2.35483
 I    -0.31151    -5.80972    -7.80581
 I     3.81511    -0.96287    -0.90235
 I    -1.34944    -5.58318    -4.55449
 I     6.35377    -3.89009    -3.97748
 I     6.88885   -12.79875    -9.90164
 I     8.80804   -10.51924    -9.46017
 I     8.26249    -1.65045    -3.59143
 I     7.25869    -5.71434    -6.33673
 I     4.61801   -12.71215    -7.88021
 I     7.86733    -8.75327    -7.15037
 I    10.52098    -1.75281    -5.60224
Re     8.01349    -5.89429    -3.78764
Re     4.63408   -11.53087   -10.25373
Re     7.09464    -8.55049    -9.68773
Re    10.50718    -2.94663    -3.23694
 I     9.07875    -8.28483    -3.86967
 I     2.07570   -10.80408   -10.48219
 I     5.98788    -6.17816    -9.68051
 I    13.07291    -3.67555    -3.01112
 I     6.42642    -1.73763    -6.92869
 I     8.64798   -12.90306    -6.64366
Re     8.23773    -3.22659    -5.79755
Re     6.91446   -11.25619    -7.67270
 I     9.11738    -4.71172    -1.66027
 I     6.03539    -9.76924   -11.81831
 I    10.15618    -4.93917    -4.91029
 I     4.99004    -9.55755    -8.56052
