   64
 
 I     0.00000     0.00000     0.00000
 I    -4.22435     0.16124     1.01591
 I    -3.81729    -8.42752     0.65891
 I     0.07924    -8.44318     0.36656
 I    -1.76037    -6.70456     3.99735
 I    -2.11946    -6.58871    -2.34059
 I    -2.14294    -2.10901    -2.51800
 I    -1.83830    -2.16300     3.46936
 I     0.03632    -4.19645     0.72919
 I    -3.91869    -4.18402     0.81624
 I     2.28877     2.26629    -2.81848
 I    -2.13975     1.78516    -2.75225
Rh    -1.93115    -2.52826     0.90608
Rh    -1.88232    -6.75950     0.22732
Rh     0.65324     4.26747    -2.99662
Rh    -0.44453    -0.16008    -2.54582
 I     5.06122    -0.08672     5.72857
 I     0.83634    -0.15917     6.55572
 I     0.90603    -8.52085     6.93414
 I     5.13247    -8.49367     6.10012
 I     3.19464    -6.52994     9.42250
 I     2.84180    -6.52936     3.56810
 I     2.80493    -2.07771     3.23888
 I     3.13619    -2.12308     9.08550
 I     5.10602    -4.58331     6.13027
 I     0.84931    -4.06915     6.53871
 I     7.11665     2.18595     2.79591
 I     2.84095     1.82428     3.09932
Rh     2.53856    -2.10604     6.56680
Rh     3.42323    -6.55147     6.08985
Rh     5.51840     4.22384     2.73150
Rh     4.52398    -0.14186     3.19528
 I     3.82690    -0.29513    -6.29299
 I    -0.06684    -0.23539    -5.88726
 I    -0.06426    -8.66948    -5.52167
 I     4.19895    -8.80175    -6.41410
 I     2.17916    -6.62707    -3.00285
 I     1.75558    -6.48148    -8.92722
 I     1.60962    -1.90667    -9.48028
 I     2.16594    -2.05660    -3.21280
 I     3.89031    -4.52101    -6.27462
 I    -0.07448    -4.48716    -6.13473
 I     6.00861     2.01908    -9.41514
 I     1.76225     1.99847    -9.44172
Rh     1.88507    -1.93449    -5.78076
Rh     1.88724    -6.16027    -6.35818
Rh     4.41576     4.02188    -9.01524
Rh     3.36141    -0.01501    -9.74119
 I     8.91059    -0.22744    -0.93917
 I     4.74499    -0.29142    -0.13619
 I     4.74647    -8.58111     0.21197
 I     9.00025    -8.53284    -0.58079
 I     7.06502    -6.68628     2.74320
 I     6.69612    -6.57213    -3.11539
 I     6.63581    -2.17694    -3.45740
 I     6.98355    -2.24759     2.41457
 I     8.96428    -4.62662    -0.54850
 I     4.70707    -4.19611    -0.13410
 I    11.01825     2.17199    -3.81371
 I     6.73354     1.73474    -3.52086
Rh     6.42760    -2.26043    -0.11427
Rh     7.28376    -6.59668    -0.59446
Rh     9.36901     4.16961    -3.89529
Rh     8.38086    -0.26415    -3.47529
