   64
 
Rh     0.00000     0.00000     0.00000
Rh    -3.43231     0.20021    -0.13930
Rh    -5.24254    -2.79418     0.26343
Rh     2.05312     3.43935    -0.44799
Cl    -1.76982     0.47636    -1.56670
Cl    -1.54671    -0.76999     1.38661
Cl     3.58283     3.69429    -1.94774
Cl     3.67049     2.52433     0.93480
Cl     0.63258     2.39970     1.05737
Cl    -0.00133    -1.89123    -1.13749
Cl    -3.84499    -1.71738    -1.18404
Cl    -3.31126     2.60849     0.89411
Cl    -5.38545    -0.83392     1.26482
Cl    -4.63583     1.04890    -1.79095
Cl     1.54662     1.61262    -1.60057
Cl     1.44513    -0.96654     1.50838
Rh     0.05438    -2.28007   -11.96401
Rh    -3.36825    -2.08916   -12.09041
Rh    -5.17347    -5.08423   -11.64094
Rh     2.12279     1.19264   -12.44486
Cl    -1.72221    -1.84213   -13.54098
Cl    -1.48001    -3.04521   -10.56510
Cl     3.61993     1.37120   -13.96037
Cl     3.76888     0.35783   -11.01662
Cl     0.73419     0.16207   -10.94904
Cl     0.06819    -4.19305   -13.06248
Cl    -3.78826    -4.01950   -13.10753
Cl    -3.23537     0.35194   -11.10744
Cl    -5.28673    -3.12388   -10.62761
Cl    -4.59101    -1.26212   -13.73806
Cl     1.62679    -0.69323   -13.56497
Cl     1.49854    -3.20121   -10.43885
Rh     0.14837     6.78085    -0.81458
Rh    -3.23810     6.62960    -0.74261
Rh    -4.86449     3.32593    -0.51224
Rh     1.76229     9.67544    -1.28635
Cl    -1.64184     7.64926    -1.90219
Cl    -1.25536     6.28830     0.83667
Cl     3.80814    10.49434    -2.67551
Cl     3.31661     8.82826     0.06378
Cl     0.31005     8.73739     0.18532
Cl     0.58354     4.42187    -1.95953
Cl    -3.21077     4.19920    -1.72938
Cl    -3.56220     8.61736     0.20822
Cl    -4.85241     5.21717     0.68175
Cl    -4.61348     7.41677    -2.33934
Cl     1.82433     7.66510    -2.36976
Cl     1.55119     5.10011     0.78949
Rh     0.19996     4.49005   -12.76331
Rh    -3.16832     4.34775   -12.75689
Rh    -4.79424     1.05259   -12.52208
Rh     1.82536     7.39952   -13.18454
Cl    -1.54002     5.39418   -13.89291
Cl    -1.33708     3.99369   -11.21080
Cl     3.85820     8.22841   -14.54665
Cl     3.37580     6.58619   -11.81064
Cl     0.35147     6.43340   -11.72756
Cl     0.62272     2.16142   -13.94159
Cl    -3.16178     1.90312   -13.78216
Cl    -3.47376     6.29512   -11.72872
Cl    -4.78522     2.95412   -11.35422
Cl    -4.63872     5.15289   -14.29619
Cl     1.92120     5.37491   -14.22618
Cl     1.67570     2.86252   -11.18719
