   40
 
Rb     0.00000     0.00000     0.00000
Cl    -4.09840     0.00179    -0.00002
 O    -4.75338     1.35176     0.00022
 O    -4.74688    -0.67785     1.16979
 O    -4.74461    -0.67584    -1.17222
Rb     2.68114     1.82868    -3.14722
Cl    -1.44319     1.81147    -3.13272
 O    -2.09162     3.16425    -3.13555
 O    -2.09620     1.13446    -1.96384
 O    -2.08774     1.13684    -4.30753
Rb     2.69109    -3.63196    -0.00093
Cl    -1.43378    -3.62124    -0.00038
 O    -2.08998    -2.27220     0.00009
 O    -2.08061    -4.30225     1.16979
 O    -2.07859    -4.30004    -1.17282
Rb     5.37241    -1.80578    -3.14550
Cl     1.22050    -1.80066    -3.13844
 O     0.56449    -0.45141    -3.13726
 O     0.57632    -2.48369    -1.96845
 O     0.57679    -2.47808    -4.31231
Rb     2.67865     1.82700     3.15260
Cl    -1.44496     1.81083     3.13154
 O    -2.09294     3.16386     3.13511
 O    -2.08980     1.13554     4.30521
 O    -2.09849     1.13471     1.96210
Rb     5.36250     3.65240     0.00251
Cl     1.21047     3.62039     0.00479
 O     0.56847     4.97615     0.00458
 O     0.55798     2.94671     1.17596
 O     0.56154     2.94815    -1.16869
Rb     5.36942    -1.80832     3.15003
Cl     1.21987    -1.80287     3.13649
 O     0.56363    -0.45392     3.13750
 O     0.57733    -2.48184     4.30999
 O     0.57518    -2.48476     1.96611
Rb     8.05341     0.01477     0.00307
Cl     3.87484     0.01799     0.00451
 O     3.21798     1.36707     0.00406
 O     3.22999    -0.66389     1.17480
 O     3.23564    -0.66195    -1.16980
