   40
 
Rb     0.00000     0.00000     0.00000
Rb    -5.97695     1.57673    -2.84231
Rb    -3.66022    -2.48004    -2.61934
Rb    -2.52783     3.90817     0.12540
 C     1.36530    -1.71601     3.27684
 C    -3.92295     0.23304    -0.09688
 C    -2.82077    -4.66135     0.18571
 C    -7.15439    -1.97158    -2.02367
 H     1.41600    -1.48368     4.35808
 H    -4.85559    -0.34652    -0.24060
 H    -1.92234    -4.15628    -0.22011
 H    -6.93086    -1.72758    -3.08065
 O     0.55133    -2.59112     2.88747
 O    -3.56932     0.53357     1.06963
 O    -3.65790    -5.15445    -0.63025
 O    -6.57572    -1.30184    -1.11462
 O     2.12619    -1.09420     2.47709
 O    -3.25014     0.57063    -1.11894
 O    -2.97082    -4.72962     1.43038
 O    -7.96823    -2.89237    -1.77267
Rb     3.09359     1.66407    -3.89322
Rb    -2.99072     3.28459    -6.37323
Rb    -0.77930    -0.83120    -6.35647
Rb     0.69351     5.68002    -3.76380
 C     3.51111    -0.59620    -0.55890
 C    -0.80760     2.13664    -2.77810
 C     0.22985    -2.75507    -2.48694
 C    -5.06701    -0.76129    -5.87692
 H     3.23153    -0.80934     0.49115
 H    -1.74807     1.68252    -2.40955
 H     1.16005    -2.16960    -2.34761
 H    -5.16479    -0.94606    -6.96386
 O     2.83421    -1.13797    -1.48533
 O    -0.08029     2.77510    -1.95789
 O    -0.10113    -3.10084    -3.64703
 O    -4.18133     0.03631    -5.47851
 O     4.48202     0.16444    -0.78794
 O    -0.50679     2.00709    -3.99028
 O    -0.46329    -3.05528    -1.46638
 O    -5.84982    -1.36076    -5.08060
