   56
 
Rb     0.00000     0.00000     0.00000
Rb     6.39973     0.22858     0.19545
Rb     1.37660     0.50868     5.52901
Rb     3.18433    -6.49576    -1.14129
Rb     2.63340     5.37621     5.17616
Rb     6.56064    -3.32077    -3.17958
Rb     6.15196     0.00420     5.04144
Rb     3.05352    -2.91949     2.26114
Cr     3.23838     2.12159     2.01888
Cr     2.17934    -2.55530    -2.41224
Cr    -1.83082    -1.60919     3.46378
Cr     7.41919    -3.73723     1.47775
 O     4.46093     2.95255     2.75429
 O     3.44749    -1.76495    -1.70840
 O    -3.00766    -2.36517     2.58853
 O     6.19281    -4.61131     0.79878
 O     1.77841     2.69603     2.57678
 O     2.75428    -3.69568    -3.48264
 O    -0.33780    -2.17023     2.98088
 O     6.78762    -2.60210     2.51972
 O     3.38472     0.50225     2.37811
 O     1.24496    -1.44345    -3.22355
 O    -2.06535    -1.93702     5.07892
 O     8.27865    -2.97906     0.26949
 O    -1.93326     0.03011     3.19699
 O     8.41410    -4.77567     2.31431
 O     3.34824     2.35031     0.37320
 O     1.28407    -3.29632    -1.22132
Rb     0.06521     5.05109    -5.24562
Rb     6.44862     5.27820    -5.05783
Rb     1.43414     5.54953     0.28234
Rb     3.23383    -1.44360    -6.39252
Rb     2.71637    10.44151    -0.04216
Rb     6.61598     1.72347    -8.43933
Rb     6.23440     5.06913    -0.17615
Rb     3.10231     2.12004    -2.99440
Cr     3.28318     7.17270    -3.18804
Cr     2.22321     2.53216    -7.67012
Cr    -1.78654     3.44205    -1.73743
Cr     7.46555     1.33765    -3.77539
 O     4.45468     7.97204    -2.34014
 O     3.46011     3.40238    -7.00590
 O    -3.01120     2.63274    -2.49331
 O     6.20628     0.53814    -4.48258
 O     1.78832     7.72012    -2.70079
 O     2.84094     1.38863    -8.71205
 O    -0.32420     2.86954    -2.28905
 O     6.87823     2.47455    -2.70850
 O     3.41522     5.54077    -2.88688
 O     1.22926     3.57340    -8.50309
 O    -1.91668     3.19077    -0.09690
 O     8.36211     2.08463    -4.96132
 O    -1.92443     5.06663    -2.07446
 O     8.40845     0.23545    -2.95833
 O     3.49146     7.47038    -4.81292
 O     1.37395     1.78415    -6.44930
