  144
 
Rb     0.00000     0.00000     0.00000
 H     0.04123    -3.50780     0.16390
 H     1.77287    -2.91378     0.29423
Rb    -4.76135     5.20218    -0.61797
 O    -1.61180     3.76118    -0.78748
 O     1.24158    -3.68688     0.48864
 O    -4.21008     4.69535    -3.56866
 H    -2.99395     4.49984    -3.80030
 H    -4.72429     3.90190    -3.72035
Rb    -2.94979     0.97527    -3.45251
Rb    -3.43038     8.05018    -4.10008
 O    -1.80867     4.29847    -4.10138
 O    -2.93224     1.78603    -0.04077
 H    -3.86385     1.89966    -0.23619
 H    -2.26440     2.78213    -0.39104
 O    -1.12496    -3.33519    -0.20910
 O     0.41513    -0.56074    -3.04054
 H     1.62660    -0.78926    -3.18501
 H    -0.10242    -1.36916    -3.08909
 O     2.83866    -1.00717    -3.42600
 H    -1.75447     3.93333    -4.97062
 H     2.94267    -1.28338    -4.32366
 H    -1.74295     3.88809    -1.71592
 H    -1.15092    -3.19227    -1.14537
Rb     4.22071     1.82616     0.01597
 H     4.26140    -1.68279     0.16249
 H     5.99557    -1.10686     0.28632
Rb    -0.55177     7.05228    -0.60762
 O     2.59354     5.56783    -0.76903
 O     5.46224    -1.87988     0.47642
 O     0.04920     6.56662    -3.56199
 H     1.25448     6.33585    -3.79275
 H    -0.48471     5.78468    -3.70088
Rb     1.26861     2.82632    -3.45281
Rb     0.78114     9.88249    -4.10523
 O     2.43218     6.08858    -4.10449
 O     1.25127     3.59800    -0.04179
 H     0.32121     3.73360    -0.23662
 H     1.93078     4.58976    -0.37972
 O     3.09485    -1.47387    -0.19157
 O     4.65518     1.28272    -3.13344
 H     5.86066     1.03023    -3.22722
 H     4.12576     0.48119    -3.12389
 O     7.07500     0.77996    -3.44315
 H     2.46689     5.74451    -4.98504
 H     7.18777     0.51359    -4.34185
 H     2.46243     5.69998    -1.69596
 H     3.05142    -1.34799    -1.12943
Rb     8.43749     3.67135     0.02166
 H     8.45528     0.14964     0.16380
 H    10.18523     0.73802     0.29541
Rb     3.66701     8.86895    -0.61624
 O     6.81480     7.38142    -0.76268
 O     9.65808    -0.03684     0.49019
 O     4.24230     8.35995    -3.57342
 H     5.44387     8.13844    -3.81003
 H     3.70803     7.57517    -3.71131
Rb     5.48639     4.64507    -3.46994
Rb     4.99909    11.71031    -4.09333
 O     6.63279     7.91835    -4.11641
 O     5.45725     5.41387    -0.05220
 H     4.52713     5.55082    -0.24479
 H     6.14245     6.40553    -0.38275
 O     7.29610     0.34862    -0.21008
 O     8.85481     3.09807    -3.11800
 H    10.06230     2.86789    -3.21766
 H     8.33903     2.28705    -3.11125
 O    11.28365     2.65589    -3.44414
 H     6.68413     7.57176    -4.99396
 H    11.39514     2.37709    -4.33978
 H     6.68144     7.52270    -1.68732
 H     7.26958     0.47383    -1.14892
Rb    -0.21343     0.57972     6.50777
 H    -0.13432    -2.92663     6.64624
 H     1.60278    -2.33774     6.77283
Rb    -4.99094     5.76592     5.86608
 O    -1.79793     4.32146     5.69270
 O     1.07060    -3.11105     6.96893
 O    -4.38519     5.26671     2.92393
 H    -3.16912     5.06732     2.67007
 H    -4.90047     4.47881     2.75832
Rb    -3.16123     1.54622     3.02820
Rb    -3.64445     8.62564     2.38746
 O    -1.99622     4.84179     2.36156
 O    -3.12159     2.35896     6.46442
 H    -4.04615     2.46315     6.23592
 H    -2.44913     3.35528     6.10938
 O    -1.29888    -2.74097     6.27895
 O     0.22817     0.01939     3.37627
 H     1.44521    -0.21787     3.23952
 H    -0.28285    -0.79053     3.35892
 O     2.64704    -0.46535     3.01253
 H    -1.95341     4.49366     1.48249
 H     2.75287    -0.73517     2.11146
 H    -1.95177     4.43798     4.76592
 H    -1.33068    -2.61651     5.34040
Rb     4.00854     2.40484     6.49137
 H     4.06538    -1.09876     6.65113
 H     5.80564    -0.53528     6.76665
Rb    -0.77964     7.61099     5.87313
 O     2.40368     6.12581     5.71589
 O     5.26645    -1.30451     6.96079
 O    -0.15056     7.12895     2.91725
 H     1.05883     6.90068     2.66764
 H    -0.68178     6.34624     2.77410
Rb     1.05103     3.39383     3.02746
Rb     0.56924    10.44664     2.38497
 O     2.22631     6.64683     2.35610
 O     1.05647     4.17005     6.46621
 H     0.13384     4.29480     6.23540
 H     1.74314     5.15995     6.12601
 O     2.90096    -0.88195     6.29044
 O     4.45824     1.83924     3.35708
 H     5.67024     1.58933     3.23973
 H     3.93491     1.03544     3.35271
 O     6.87533     1.33492     3.02178
 H     2.25917     6.30615     1.47248
 H     6.98746     1.07224     2.11987
 H     2.25347     6.24603     4.78959
 H     2.86676    -0.76702     5.35052
Rb     8.22504     4.24588     6.49527
 H     8.27610     0.72365     6.65080
 H    10.00919     1.32681     6.78248
Rb     3.44219     9.42387     5.86555
 O     6.63663     7.94996     5.69497
 O     9.48881     0.54577     6.96980
 O     4.05450     8.92955     2.91235
 H     5.26447     8.71828     2.65550
 H     3.52900     8.14446     2.75862
Rb     5.27302     5.21378     3.01572
Rb     4.78538    12.28056     2.39613
 O     6.44022     8.49682     2.34084
 O     5.28846     5.97972     6.41201
 H     4.36084     6.10622     6.20801
 H     5.97122     6.98105     6.08344
 O     7.11776     0.90794     6.28274
 O     8.66333     3.66521     3.36700
 H     9.88141     3.43496     3.24135
 H     8.15428     2.85397     3.36496
 O    11.08782     3.20760     3.01586
 H     6.48114     8.14415     1.46223
 H    11.19919     2.93268     2.11734
 H     6.48336     8.09448     4.77290
 H     7.08923     1.03763     5.34382
