  108
 
Rb     0.00000     0.00000     0.00000
Rb    -3.54726    -1.41791     1.09238
 O    -1.12946    -3.04877     0.98429
 O    -2.41779     1.63086     0.10810
 H    -0.46431    -2.57911     1.21316
 H    -3.08295     1.16120    -0.12078
Rb     2.82029     5.19665    -0.98429
Rb    -0.72697     3.77874     0.10810
 O     1.69083     2.14788     0.00000
 O     0.40250     6.82751    -0.87619
 H     2.35598     2.61754     0.22887
 H    -0.26266     6.35785    -1.10507
Rb     2.33793    -1.84043    -3.01787
Rb    -1.20933    -3.25834    -1.92549
 O     1.20846    -4.88920    -2.03359
 O    -0.07987    -0.20957    -2.90978
 H     1.87362    -4.41954    -1.80472
 H    -0.74503    -0.67923    -3.13866
Rb     5.15822     3.35622    -4.00216
Rb     1.61096     1.93831    -2.90978
 O     4.02875     0.30745    -3.01787
 O     2.74042     4.98708    -3.89406
 H     4.69391     0.77711    -2.78900
 H     2.07526     4.51742    -4.12294
Rb     4.67585    -3.68086    -6.03575
Rb     1.12859    -5.09877    -4.94337
 O     3.54639    -6.72963    -5.05146
 O     2.25806    -2.05000    -5.92765
 H     4.21154    -6.25997    -4.82259
 H     1.59290    -2.51966    -6.15653
Rb     7.49614     1.51579    -7.02003
Rb     3.94888     0.09788    -5.92765
 O     6.36668    -1.53298    -6.03575
 O     5.07835     3.14665    -6.91194
 H     7.03183    -1.06332    -5.80688
 H     4.41319     2.67699    -7.14082
Rb     2.23019    -1.93831     2.90978
Rb    -1.31707    -3.35622     4.00216
 O     1.10073    -4.98708     3.89406
 O    -0.18760    -0.30745     3.01787
 H     1.76588    -4.51742     4.12294
 H    -0.85276    -0.77711     2.78900
Rb     5.05048     3.25834     1.92549
Rb     1.50322     1.84043     3.01787
 O     3.92102     0.20957     2.90978
 O     2.63269     4.88920     2.03359
 H     4.58617     0.67923     3.13865
 H     1.96753     4.41955     1.80471
Rb     4.56812    -3.77874    -0.10810
Rb     1.02086    -5.19665     0.98429
 O     3.43865    -6.82751     0.87619
 O     2.15032    -2.14788     0.00000
 H     4.10381    -6.35785     1.10506
 H     1.48516    -2.61754    -0.22888
Rb     7.38841     1.41791    -1.09238
Rb     3.84115     0.00000     0.00000
 O     6.25894    -1.63086    -0.10810
 O     4.97061     3.04877    -0.98429
 H     6.92410    -1.16120     0.12078
 H     4.30545     2.57912    -1.21316
Rb     6.90604    -5.61917    -3.12597
Rb     3.35879    -7.03708    -2.03359
 O     5.77658    -8.66794    -2.14168
 O     4.48825    -3.98831    -3.01787
 H     6.44173    -8.19828    -1.91281
 H     3.82309    -4.45797    -3.24675
Rb     9.72634    -0.42252    -4.11025
Rb     6.17908    -1.84043    -3.01787
 O     8.59687    -3.47129    -3.12597
 O     7.30854     1.20834    -4.00216
 H     9.26203    -3.00163    -2.89710
 H     6.64338     0.73868    -4.23104
Rb     4.46038    -3.87662     5.81956
Rb     0.91313    -5.29453     6.91194
 O     3.33092    -6.92539     6.80384
 O     2.04259    -2.24576     5.92765
 H     3.99607    -6.45573     7.03271
 H     1.37743    -2.71541     5.69877
Rb     7.28068     1.32003     4.83527
Rb     3.73342    -0.09788     5.92765
 O     6.15121    -1.72874     5.81956
 O     4.86288     2.95089     4.94337
 H     6.81637    -1.25908     6.04843
 H     4.19772     2.48124     4.71449
Rb     6.79831    -5.71705     2.80168
Rb     3.25105    -7.13496     3.89406
 O     5.66885    -8.76582     3.78597
 O     4.38052    -4.08619     2.90978
 H     6.33400    -8.29616     4.01484
 H     3.71536    -4.55584     2.68090
Rb     9.61860    -0.52040     1.81740
Rb     6.07134    -1.93831     2.90978
 O     8.48914    -3.56917     2.80168
 O     7.20081     1.11046     1.92549
 H     9.15429    -3.09951     3.03055
 H     6.53565     0.64081     1.69662
Rb     9.13624    -7.55748    -0.21619
Rb     5.58898    -8.97539     0.87619
 O     8.00677   -10.60625     0.76809
 O     6.71844    -5.92662    -0.10810
 H     8.67193   -10.13659     0.99697
 H     6.05328    -6.39628    -0.33697
Rb    11.95653    -2.36083    -1.20048
Rb     8.40927    -3.77874    -0.10810
 O    10.82706    -5.40960    -0.21619
 O     9.53873    -0.72997    -1.09238
 H    11.49222    -4.93994     0.01268
 H     8.87357    -1.19962    -1.32126
