   64
 
Rb     0.00000     0.00000     0.00000
Rb    -3.75840    -0.70488     1.19713
 N    -1.61946    -1.86646     2.39549
 N    -1.42304     1.91192     0.02826
 H    -2.49385    -2.19420     2.82391
 H    -1.12495     2.41343     0.86029
 H    -2.43606     1.76933     0.11423
 H    -1.46703    -2.56339     1.67819
Rb     1.85465     7.20696    -2.69879
Rb    -1.01139     3.99806    -1.27502
 N     2.07314     2.69852    -0.53868
 N    -0.90657     7.94093    -4.37317
 H     1.24146     2.36161    -0.96627
 H    -0.56826     8.77441    -3.93821
 H    -0.15949     7.23561    -4.27119
 H     2.51061     1.88213    -0.08321
Rb     4.11065    -0.34727    -0.76618
Rb     1.05689    -3.83333     1.08582
 N     3.18380    -5.75010     1.03788
 N     0.92794     0.30792    -2.33401
 H     4.07664    -5.36897     0.78962
 H     0.19076     0.94138    -2.64319
 H     1.64776     0.91250    -1.93537
 H     2.70196    -5.72377     0.14535
Rb     6.81001     4.90460    -3.41874
Rb     3.35044     3.03841    -2.54453
 N     5.55321     1.96603    -2.27782
 N     2.31099     6.76095    -4.80483
 H     6.17974     2.37988    -1.60863
 H     2.15772     6.98975    -5.76535
 H     2.62836     5.76570    -4.83134
 H     5.86386     1.03372    -2.43318
Rb     3.33653     0.75535     3.14512
Rb    -0.37498    -0.90895     3.93210
 N     4.11305    -2.65968     5.26417
 N     0.45475     2.22343     2.79222
 H     3.84008    -1.65763     5.27834
 H     0.07253     3.10640     3.01757
 H    -0.11383     1.77250     2.11136
 H     4.22209    -2.90214     6.22799
Rb     5.33132     7.82035    -0.60643
Rb     2.02664     3.99408     1.40067
 N     5.75862     3.38518     2.88894
 N     3.22705     9.72863    -0.54620
 H     5.04045     2.76094     2.51404
 H     3.69579     9.70143     0.35447
 H     2.33053     9.35408    -0.30229
 H     6.48445     2.79150     3.28031
Rb     7.55074     0.00864     1.64581
Rb     4.56332    -3.23722     3.20137
 N     7.32180    -3.92735     4.86356
 N     4.42741     1.13923     1.00829
 H     6.61125    -3.18499     4.74510
 H     4.01782     1.95017     0.51293
 H     5.29019     1.49089     1.35882
 H     6.95960    -4.75919     4.44229
Rb    10.14900     4.65951    -0.74299
Rb     6.40037     4.06243     0.66160
 N     7.65923     2.18052     0.38252
 N     8.03251     5.89330    -1.88693
 H     8.67787     2.26240     0.22042
 H     7.88225     6.58949    -1.16926
 H     8.91009     6.21491    -2.31480
 H     7.26586     1.68772    -0.41544
