   40
 
 I     0.00000     0.00000     0.00000
Rb    -4.33938    -0.00563    -0.00227
 O     0.84619    -1.59471     0.00192
 O     0.84671     0.79692    -1.38114
 O     0.84356     0.79927     1.38187
 I     2.90156     2.03073    -3.51814
Rb    -1.45038     2.02544    -3.52060
 O     3.74642     0.43515    -3.51328
 O     3.75105     2.82723    -4.89916
 O     3.74714     2.82570    -2.13488
 I     2.90458    -4.05623     0.00250
Rb    -1.44589    -4.06447     0.00191
 O     3.75882    -5.64789     0.00306
 O     3.74598    -3.25233    -1.37789
 O     3.74820    -3.25195     1.38133
 I     5.80396    -2.02737    -3.51542
Rb     1.44504    -2.03321    -3.51776
 O     6.65149    -3.62230    -3.51116
 O     6.64930    -1.22698    -4.89645
 O     6.65206    -1.22896    -2.13556
 I     2.90005     2.03502     3.51323
Rb    -1.45150     2.03194     3.51577
 O     3.74457     0.43927     3.50855
 O     3.74206     2.82625     2.12580
 O     3.75241     2.83451     4.89066
 I     5.79998     4.06692    -0.00201
Rb     1.44003     4.06512    -0.00342
 O     6.65231     2.47508    -0.00093
 O     6.64666     4.86418    -1.38421
 O     6.64191     4.86537     1.38264
 I     5.80266    -2.02038     3.51885
Rb     1.44382    -2.02827     3.52014
 O     6.65087    -3.61502     3.51921
 O     6.65090    -1.22403     2.13812
 O     6.64636    -1.21762     4.89987
 I     8.70020     0.00836     0.00105
Rb     4.33692     0.00447     0.00010
 O     9.54607    -1.58739     0.00180
 O     9.54680     0.80385    -1.38203
 O     9.54882     0.80620     1.38132
