   24
 
Rb     0.00000     0.00000     0.00000
Rb    -3.79497    -0.34892    -3.69364
Rb    -4.11868     0.26641     0.35869
Sb    -1.74562     2.01826    -1.88929
Sb    -2.31968    -2.44795    -1.63725
Sb    -2.66970    -1.83996     2.42647
 F    -1.67782    -1.11293    -2.91797
 F    -3.91765    -1.31235    -1.44080
 F    -2.82455    -2.88136    -3.59760
 F    -3.19851    -3.66552     2.98700
 F    -0.95714    -2.86982     2.05825
 F    -1.45514    -1.53530     3.95165
 F    -2.00649    -0.48841     1.16873
 F    -4.24094    -0.66146     2.61596
 F    -3.15117    -2.25392     0.45713
 F    -2.28745     0.18641    -1.34771
 F    -0.05601     0.96956    -2.25589
 F    -0.53785     2.32339    -0.35696
 F    -1.08694     3.36670    -3.15131
 F    -3.31942     3.18519    -1.69460
 F    -2.23541     1.60680    -3.86126
 F    -2.86910    -4.26450    -1.07518
 F    -0.60252    -3.47949    -1.99790
 F    -1.12474    -2.14777    -0.09852
