   60
 
 V     0.00000     0.00000     0.00000
Rb    -4.96976     1.54409    -9.42970
Rb    -4.57752    -8.32996    -3.15153
Rb    -0.14676     5.57009    -0.98261
Rb    -5.54141     1.81731    -2.03153
Rb    -0.31024    -4.35816    -2.05651
 V    -3.18193     0.55452     1.32854
 V    -6.49468     6.04214    -5.34299
 V    -2.91196    -2.68030    -5.29220
 V    -2.54025     6.47792    -4.71985
 V    -6.58321    -3.02251    -5.26247
 I     1.02350    -1.71641     1.33887
 I    -0.74916     0.85448     4.48971
 I     1.58560     3.77437     1.41429
 I    -2.71879     3.00234     1.16832
 I    -0.74520     1.03443    -2.14580
 I    -4.26289    -1.46209     0.47738
 I    -0.73824    11.24236    -1.30005
 I    -6.63609     3.64306    -5.79375
 I    -2.49960    -5.03985    -5.69450
 I    -4.81629     5.90029    -1.17239
 I    -2.94347    -0.24858    -5.56537
 I    -2.82633    -5.31970     1.71036
 I    -2.64894     7.80246     2.07284
 I    -2.80018     4.00960    -4.24557
 I    -4.53229    -4.81887    -2.01433
 I    -0.96365     8.30401    -4.33980
 I    -7.07012    -0.67305    -5.64428
 I     0.05428    -8.09523    -2.73587
Rb    -5.02178    10.17088    -0.81332
 V     6.92672     1.64448    -3.33173
Rb     1.63534     1.85536   -13.13266
Rb     1.42653    -7.26231    -5.99234
Rb     5.98463     6.05125    -5.54686
Rb     1.32997     0.71357    -5.96053
Rb     5.11845    -3.58303    -5.51594
 V     3.37664     1.37647    -1.15135
 V     0.06535     4.47971    -7.33970
 V     3.78862    -3.06888    -9.51025
 V     2.39863     6.53500    -9.14566
 V    -0.66768    -3.40446    -9.44204
 I     7.73158    -0.82630    -2.56857
 I     5.75223     2.09991     0.89873
 I     8.02852     3.85321    -2.35046
 I     3.77786     4.01673    -1.97438
 I     5.09129     1.87510    -5.44377
 I     3.29785    -0.80143    -2.53316
 I     5.51240    10.78933    -5.22240
 I    -0.48758     3.22175    -9.30439
 I     3.73059    -5.45384    -9.33941
 I     1.41827     4.86499    -5.27625
 I     3.75146    -0.67069    -9.06035
 I     3.06989    -4.95920    -2.51573
 I     3.04960     7.96256    -3.10729
 I     3.74616     3.56008    -9.55044
 I     1.34963    -2.86787    -5.80141
 I     3.16560     8.55087    -7.93351
 I    -0.66360    -0.92822    -9.12000
 I     5.83960    -7.55822    -6.16476
Rb     1.56252    11.62853    -5.01768
