   54
 
Rb     0.00000     0.00000     0.00000
Rb    -4.65853    -0.89443     0.70025
Rb     3.53209     2.26495    -5.96634
Rb    -0.63087     2.21970    -3.57603
Rb     7.61756     4.11077    -7.88288
Rb     1.41177     4.23296    -9.44142
Rb     2.58899     2.01759     5.56017
Rb    -1.90120     1.59382     3.58893
Rb     6.58656     3.28010    -0.65771
Rb     2.79665     2.89677    -1.77665
Rb     9.97550     7.09432    -6.06859
Rb     5.80018     5.98616    -4.09718
Rb     5.76589     4.11786     8.12256
Rb     1.47130     3.54109     8.94040
Rb     8.18544     5.80454     4.32109
Rb     4.45497     4.34374     2.26868
Rb    11.31007     8.21394    -2.03964
Rb     7.37583     6.97655    -0.09602
Rb     2.32289    -3.62111    -0.07176
Rb    -1.70129    -4.22556     1.51864
Rb     7.13285    -0.84668    -5.31319
Rb     2.08529    -1.07802    -3.33597
Rb    10.40874     0.95851    -7.69459
Rb     5.14013     1.41648    -9.86998
Rb     5.38948    -1.15892     5.27523
Rb     1.19835    -1.79985     3.68467
Rb     8.55713    -0.07118    -1.28771
Rb     4.41823    -0.07345     0.81529
Rb    12.57489     2.17826    -3.73829
Rb     8.56982     2.95820    -4.01986
Rb     8.63090     0.44767     8.22607
Rb     4.28682     0.09671     9.23558
Rb    11.96515     3.38439     4.10289
Rb     8.18325     1.43669     2.77203
Rb    14.37463     5.06853    -1.81331
Rb    10.62623     4.10533    -0.18199
Rb     4.65064    -7.41136    -0.68888
Rb     0.40409    -7.57705     0.71438
Rb     8.85774    -4.82886    -5.31904
Rb     4.82132    -4.43425    -3.44656
Rb    12.04421    -3.32123    -8.40346
Rb     7.47382    -2.17574    -9.77415
Rb     7.54841    -5.21893     4.97866
Rb     3.45657    -5.34924     3.20051
Rb    10.76730    -3.56079    -1.48264
Rb     6.42945    -3.72629     0.62368
Rb    14.76131    -0.36547    -6.30698
Rb    10.96809    -1.37527    -4.73043
Rb    10.91355    -3.29176     6.94633
Rb     6.42643    -3.61095     8.73885
Rb    13.60844    -0.99971     4.21964
Rb    10.07939    -2.50514     2.44143
Rb    16.54487     1.34939    -2.23862
Rb    12.78583     0.38465     0.18342
