   56
 
Rb     0.00000     0.00000     0.00000
Rb     6.11956    -0.13707    -0.13479
Rb     0.92675     0.08239     4.64774
Rb     3.00434    -6.33791    -1.36357
Rb     1.97506     4.50272     4.22506
Rb     6.09912    -3.52335    -3.25944
Rb     5.41127    -0.10128     4.48986
Rb     3.08180    -3.01891     1.80269
Cr     3.12199     1.75213     1.55004
Cr     2.33408    -2.38089    -2.28244
Cr    -2.17834    -1.62896     2.99405
Cr     6.78852    -3.98918     0.70706
 O     4.31279     2.60049     2.28420
 O     3.65276    -1.54322    -1.73901
 O    -3.20429    -2.52741     2.09898
 O     5.39093    -4.54341     0.06580
 O     1.60876     2.27034     1.90160
 O     2.75670    -3.48973    -3.41422
 O    -0.61191    -1.98403     2.63098
 O     6.47173    -2.80083     1.80884
 O     3.24053     0.16602     1.92565
 O     1.37964    -1.28007    -3.07071
 O    -2.41583    -1.88815     4.59450
 O     7.70303    -3.29916    -0.46960
 O    -2.41855    -0.03572     2.67717
 O     7.63951    -5.15753     1.46980
 O     3.33951     1.87753    -0.08359
 O     1.49852    -3.08318    -1.09363
Rb    -0.07434     4.60446    -4.91549
Rb     6.10684     4.47818    -5.09015
Rb     0.83585     4.68553    -0.26387
Rb     3.00648    -1.73459    -6.29231
Rb     1.93073     9.11082    -0.71823
Rb     6.02749     1.17285    -8.24230
Rb     5.33975     4.54715    -0.45383
Rb     2.98556     1.68936    -3.14589
Cr     3.05539     6.28110    -3.28914
Cr     2.29629     2.13593    -7.13300
Cr    -2.23842     2.91137    -1.82162
Cr     6.73605     0.52190    -4.12665
 O     4.11013     7.18793    -2.43786
 O     3.66547     2.70298    -6.43500
 O    -3.40258     2.04275    -2.56546
 O     5.33090    -0.20562    -4.61485
 O     1.49870     6.63512    -2.89077
 O     2.65288     0.95547    -8.22504
 O    -0.71375     2.41914    -2.19493
 O     6.35073     1.67886    -2.99553
 O     3.31112     4.68836    -2.97439
 O     1.43931     3.29487    -7.88886
 O    -2.42796     2.78063    -0.19266
 O     7.54420     1.22296    -5.33528
 O    -2.39050     4.49827    -2.19713
 O     7.66138    -0.57497    -3.34671
 O     3.24734     6.53067    -4.89731
 O     1.37861     1.41001    -5.97125
