   64
 
Ru     0.00000     0.00000     0.00000
Ru     4.60293     1.32201     1.08442
Br     0.74480    -2.27637    -0.54395
Br    -2.68416    -0.39776    -0.32755
Br     5.26081     2.53072    -0.76401
Br    -4.30504     1.47353     2.62804
Br     2.73109    -0.17031     0.59226
Br    -0.96565    -0.55143     2.39086
Ru     9.03368    -1.21359     0.99140
Ru    13.91772    -1.67134     1.49561
Br     7.97400    -3.09086     1.78637
Br     6.23760    -0.51619     1.35379
Br     8.92985    -0.73644    -1.24228
Br     4.43916     2.44346     3.06665
Br    11.41648    -2.37115     0.82994
Br     9.65015     0.43021     2.44885
Ru     0.57046    -5.87786    12.28191
Ru     3.38577    -8.87237    10.45849
Br     1.05097    -8.35603    10.42080
Br    -2.00121    -5.02158    12.69307
Br     0.91536    -4.44487    10.22115
Br     0.64284    -3.83471    14.01070
Br     3.22965    -6.80847    12.06865
Br    -2.43388    -4.20714    16.45595
Ru    10.89094    -2.51292    14.10628
Ru    15.70033    -3.82352    13.82091
Br    10.08998    -4.36024    15.24721
Br     4.73432    -8.26280     8.76630
Br     9.75013    -2.15513    12.09765
Br    11.09935    -0.58560    15.35824
Br    13.11461    -3.13918    13.19708
Br     4.16479   -10.65314    11.57299
Ru    -0.10531    12.53371     1.55790
Ru     4.33653    13.02547     2.39635
Br     2.63318    11.43400     1.31559
Br    -2.15184    11.07069     0.38491
Br     5.05584    14.88994     1.28968
Br    -2.54085    13.84340     1.88561
Br     1.82848    14.09073     2.80092
Br    -1.50144    11.30730     3.48253
Ru     9.30585    11.66079     2.96313
Ru    13.61883    10.83216     1.78974
Br     8.58646     9.94136     4.28839
Br     6.76567    11.80567     1.85656
Br    10.81075    11.22298     0.92785
Br     9.01599    13.73111     3.88940
Br    11.89603    11.44263     3.87479
Br     4.83381    13.01438     4.63009
Ru    -0.21031     8.31706    12.16685
Ru     4.36125     7.16460    13.48576
Br     5.25323     5.96866    12.26500
Br    -5.01553     5.95267    13.08430
Br     2.21743     7.14669    11.78196
Br    -2.82302     9.08811    12.82492
Br     0.84206     9.78979    13.84153
Br    -1.15988     6.52077    13.83563
Ru     9.20921     7.41467    15.08780
Ru    13.93767     6.52550    14.04177
Br     9.23404     5.82552    16.74004
Br     9.08838     6.80618    12.87055
Br    11.84543     7.81610    15.06299
Br     3.48727     8.35119    14.66778
Br     8.91736     9.61404    15.70539
Br     6.43690     7.00751    15.19987
