  192
 
Sc     0.00000     0.00000     0.00000
Sc    -0.04560    -2.06449     3.50283
Sc    -6.54797    -2.05486     3.49594
Sc    -6.50455    -4.08646    -0.02561
Sc   -13.62917    -4.02134    -0.12227
Cl    -7.94814    -2.50137    -1.46311
Cl    -7.99664    -0.03352     2.80309
Cl    -7.97665    -3.64221     2.04562
Cl    -5.05072    -3.63146    -2.10186
Cl    -5.14761    -0.01011     4.19800
Cl    -5.08681    -2.48979     1.41851
Cl     5.02011    -4.52291     2.04147
Cl     5.04921    -2.04180    -0.70271
Cl     5.01199     0.40682     2.07913
Cl   -12.26708     0.47672     4.86336
Cl   -12.21278    -1.98233     0.57507
Cl   -12.16011    -4.44650    -2.19540
Cl    -1.46380    -0.45425     2.07318
Cl    -1.47125    -4.09689     2.79956
Cl    -1.40471    -1.59963    -1.45298
Cl     1.41630    -1.61472     1.42724
Cl     1.47766    -4.05322    -2.81742
Cl     1.36300    -0.44920     4.93738
Sc   -13.64923     0.04766    -0.09970
Sc    19.54157    -0.00901     0.00697
Sc    19.47988    -2.07196     3.51092
Sc    12.88935    -2.05452     3.51569
Sc    12.94763    -4.08730    -0.00550
Sc     6.49509    -4.06633    -0.02411
Cl    11.53066    -2.47694    -1.43644
Cl    11.46123    -0.02697     2.80838
Cl    11.48384    -3.66676     2.07520
Cl    14.41209    -3.64086    -2.07982
Cl    14.30026    -0.01761     4.22754
Cl    14.35636    -2.47995     1.43779
Cl    25.83697    -4.66205     2.13774
Cl    25.86639    -2.10106    -0.54580
Cl    25.82298     0.38480     2.18713
Cl     7.82306     0.39549     4.94014
Cl     7.90599    -2.02677     0.68020
Cl     7.94532    -4.46186    -2.11897
Cl    18.07638    -0.45474     2.07814
Cl    18.04363    -4.09618     2.81258
Cl    18.12660    -1.60324    -1.43895
Cl    20.96753    -1.60213     1.45474
Cl    20.98371    -4.08858    -2.82956
Cl    20.89711    -0.48898     4.97632
Sc     6.46470    -0.00203    -0.00974
Sc     0.11865     0.05025    -7.03308
Sc     0.06706    -2.01477    -3.53031
Sc    -6.48537    -2.03303    -3.53284
Sc    -6.39620    -4.03861    -7.06736
Sc   -13.53326    -3.97268    -7.15488
Cl    -7.80659    -2.41160    -8.48982
Cl    -7.95522    -0.01746    -4.19969
Cl    -7.88670    -3.62205    -5.00175
Cl    -4.92997    -3.57874    -9.13458
Cl    -5.09946     0.01740    -2.82136
Cl    -5.00187    -2.44278    -5.60198
Cl     5.11735    -4.47070    -4.97102
Cl     5.13680    -1.99523    -7.75203
Cl     5.09812     0.45122    -4.96299
Cl   -12.17220     0.50083    -2.16190
Cl   -12.11331    -1.94048    -6.44628
Cl   -12.04508    -4.39727    -9.21640
Cl    -1.33610    -0.37873    -4.94903
Cl    -1.35478    -4.04508    -4.24058
Cl    -1.28884    -1.56558    -8.46603
Cl     1.52902    -1.57216    -5.60593
Cl     1.57882    -4.00987    -9.86526
Cl     1.46680    -0.40696    -2.08199
Sc   -13.53588     0.09455    -7.13643
Sc    19.61675     0.03393    -7.02022
Sc    19.58391    -2.03524    -3.51838
Sc    12.98953    -2.03502    -3.51378
Sc    13.03682    -4.04254    -7.04958
Sc     6.56234    -4.02801    -7.05705
Cl    11.63667    -2.40254    -8.46439
Cl    11.54410    -0.01031    -4.19873
Cl    11.58306    -3.64229    -4.95792
Cl    14.50589    -3.58264    -9.11774
Cl    14.39545     0.00650    -2.80612
Cl    14.44866    -2.44667    -5.59731
Cl    25.92650    -4.58710    -4.88973
Cl    25.97751    -2.04785    -7.59250
Cl    25.93408     0.42796    -4.84919
Cl     7.91628     0.43148    -2.09554
Cl     7.98379    -1.99138    -6.35613
Cl     8.01939    -4.43951    -9.14413
Cl    18.16561    -0.42246    -4.94381
Cl    18.14070    -4.05125    -4.23070
Cl    18.21951    -1.56961    -8.47190
Cl    21.05812    -1.55669    -5.57984
Cl    21.11016    -4.02559    -9.88707
Cl    21.02006    -0.45964    -2.05990
Sc     6.55720     0.04136    -7.05006
Sc    -0.08017     6.08806     3.54538
Sc    -0.14301     4.02258     7.04315
Sc    -6.67940     4.01509     7.04001
Sc    -6.59074     2.01137     3.50504
Sc   -13.69391     2.06935     3.42237
Cl    -8.03837     3.60998     2.08081
Cl    -8.08024     6.06142     6.34150
Cl    -8.08578     2.43500     5.56495
Cl    -5.15761     2.45667     1.41552
Cl    -5.25663     6.03823     7.77511
Cl    -5.19505     3.60594     4.96966
Cl     4.94771     1.57397     5.58388
Cl     4.99371     4.05130     2.81314
Cl     4.95003     6.49110     5.62393
Cl   -12.31482     6.58532     8.41342
Cl   -12.26313     4.10692     4.08750
Cl   -12.23660     1.65115     1.33943
Cl    -1.56032     5.62858     5.60654
Cl    -1.53147     1.97664     6.31550
Cl    -1.49710     4.49068     2.09847
Cl     1.33066     4.47138     4.97447
Cl     1.40678     2.04353     0.70088
Cl     1.26121     5.63833     8.48340
Sc   -13.71196     6.13603     3.43332
Sc    19.38745     6.06788     3.55333
Sc    19.33202     4.00797     7.05552
Sc    12.79866     4.01726     7.07323
Sc    12.86205     2.01042     3.54065
Sc     6.41869     2.02182     3.51495
Cl    11.44835     3.63666     2.12156
Cl    11.38865     6.05236     6.36140
Cl    11.39679     2.41094     5.62436
Cl    14.31712     2.45141     1.46076
Cl    14.21991     6.04826     7.78926
Cl    14.26961     3.60703     4.99463
Cl    25.77172     1.46979     5.69690
Cl    25.80183     3.98761     2.99196
Cl    25.75731     6.46724     5.71847
Cl     7.75521     6.48049     8.49233
Cl     7.83195     4.05664     4.23576
Cl     7.87243     1.61302     1.42536
Cl    17.91622     5.61345     5.61851
Cl    17.94955     1.95390     6.35441
Cl    18.00391     4.46575     2.08773
Cl    20.80657     4.45742     4.98672
Cl    20.96028     2.03684     0.68802
Cl    20.76026     5.60694     8.49310
Sc     6.40476     6.08690     3.53561
Sc     0.01441     6.12838    -3.48805
Sc    -0.03840     4.06473     0.01662
Sc    -6.59275     4.06636    -0.00137
Sc    -6.55046     2.03368    -3.52061
Sc   -13.58483     2.10547    -3.60428
Cl    -7.96440     3.63442    -4.96877
Cl    -7.99123     6.11908    -0.68828
Cl    -8.02392     2.48296    -1.45104
Cl    -5.08027     2.47646    -5.59074
Cl    -5.14184     6.08124     0.70441
Cl    -5.13314     3.63306    -2.08012
Cl     5.04939     1.61557    -1.43453
Cl     5.06582     4.08253    -4.20147
Cl     5.02765     6.52373    -1.41067
Cl   -12.23716     6.61943     1.37717
Cl   -12.15440     4.13745    -2.91121
Cl   -12.11361     1.67385    -5.67635
Cl    -1.46263     5.65951    -1.42772
Cl    -1.45521     2.02215    -0.66434
Cl    -1.39438     4.51873    -4.93274
Cl     1.42776     4.51714    -2.05554
Cl     1.51115     2.09616    -6.31801
Cl     1.37061     5.67706     1.45559
Sc   -13.57861     6.17301    -3.59311
Sc    19.51468     6.12068    -3.48019
Sc    19.49389     4.05683     0.02294
Sc    12.89634     4.06293     0.03349
Sc    12.94777     2.03107    -3.48723
Sc     6.50565     2.05472    -3.51645
Cl    11.54408     3.66356    -4.90925
Cl    11.47638     6.09590    -0.67193
Cl    11.48963     2.44761    -1.40128
Cl    14.41029     2.48424    -5.56138
Cl    14.32666     6.09605     0.72082
Cl    14.36667     3.62251    -2.03812
Cl    25.87517     1.52498    -1.32827
Cl    25.93364     4.02908    -4.04843
Cl    25.86733     6.51518    -1.32426
Cl     7.84932     6.52983     1.44949
Cl     7.92237     4.09112    -2.81605
Cl     7.95912     1.65304    -5.60820
Cl    18.06362     5.65747    -1.40473
Cl    18.09778     2.01083    -0.68158
Cl    18.09375     4.51737    -4.91591
Cl    20.96376     4.53904    -2.04148
Cl    21.01426     2.08830    -6.33058
Cl    20.89396     5.64195     1.49778
Sc     6.48311     6.11870    -3.50125
