   60
 
Si     0.00000     0.00000     0.00000
 I   -10.93874    -2.36377     1.87159
 I    -4.34705    -7.36407     0.72499
 I    -4.26653     5.34268    -2.81118
Si     1.15039     2.67114    -2.28269
Si    -9.10167    -3.59425     0.93677
Si    -2.01706    -7.79090     0.33186
Si    -6.09782     6.58157    -1.87485
 I     0.99980    -0.84662    -3.70622
 I   -12.00916    -5.09589    -1.00733
 I    -1.86157    -4.27076     1.75817
 I    -3.18889     8.07396     0.06705
 I    -8.25518    -5.26876     2.43180
 I     0.19429     4.16394    -3.90478
 I    -6.93997     8.25504    -3.37339
 I    -1.06237    -9.28370     1.95428
 I     2.45403     5.20826     0.30131
 I    -7.00888    -0.57805     2.07819
 I    -3.32071   -10.33058    -2.25439
 I    -8.19001     3.56370    -3.01318
 I    -6.90961     9.46746     0.53741
 I     1.48149    -6.27540     0.86909
 I    -8.28726    -6.47896    -1.47755
 I    -2.34950     1.15311    -2.81755
Si    -0.06023     0.70445    -2.20715
Si    -9.67373    -4.54662    -1.09194
Si    -0.80567    -5.82314     0.25980
Si    -5.52712     7.53263     0.15363
Si    -7.78250     5.15770    -1.26996
Si    -1.70941    -8.61812    -1.77571
Si    -7.41875    -2.16845     0.33154
Si     0.84083     3.50079    -0.17532
 I    -9.72020     6.45952    -0.70772
 I     0.55982    -9.38124    -1.97398
 I    -5.48011    -3.47007    -0.23032
 I    -1.42779     4.26297     0.02559
Si    -6.95998     4.17445     0.62841
Si    -2.00269    -6.77434    -3.09707
Si    -8.24173    -1.18636    -1.56419
Si     1.13521     1.65465     1.14513
Si    -6.00574     5.94217     1.77460
Si    -0.86804    -5.12024    -1.94881
Si    -9.19208    -2.95357    -2.70946
 I     3.47345     1.12501     1.29648
 I    -9.90912     0.43669    -0.97725
 I    -4.33960    -6.24337    -3.24911
 I    -5.29478     2.54925     0.04199
 I     1.15366    -2.10012     0.21114
 I   -11.18476    -2.24063    -3.85079
 I    -2.02569    -3.02234    -2.15953
 I    -4.00972     5.22639     2.90819
 I    -7.57250     6.80539     3.38698
 I     1.36041    -4.90051    -2.83619
 I    -7.62452    -3.82144    -4.31910
 I    -2.22794    -0.21354     0.88802
 I    -8.75460     3.19352     1.89415
 I    -1.03974    -7.15102    -5.26934
 I    -6.44807    -0.20278    -2.83348
 I     0.17589     2.03751     3.31991
 I     3.47912     2.25151    -2.67657
