  112
 
Ag     0.00000     0.00000     0.00000
Ag    -6.15904     0.87400    -2.02217
Ag    -2.78414    -1.76913     1.86716
Ag     2.58544    -1.51428     3.16971
Ag    -4.32212    -0.94760    -4.47641
Ag     1.05806    -3.66877    -2.95254
Ag     4.60887    -2.67745    -0.31727
Ag    -2.70982    -3.29796    -1.41348
Ag    -6.08217    -1.51547    -0.78001
Ag     0.38832    -3.51023     0.11033
Ag     3.07690     3.06053     2.43547
Ag    -3.30138     1.95576    -0.12915
Ag    -0.70551    -5.43088    -1.79206
Ag    -4.92623    -4.48505    -4.45173
Ag    -0.64865    -1.31030    -3.20372
Ag     4.39099     0.50884    -1.07121
 S     1.78788    -1.56646    -1.59254
 S    -2.20589    -3.36181    -4.10468
 S    -6.55442     1.69638     0.49145
 S     4.30692    -0.40269     1.40383
 S    -6.83427    -2.22514    -3.71749
 S     2.69464     5.68852    -7.61099
 S    -0.06753    -1.37572     2.37860
 S    -3.21809    -0.71208    -0.61509
 O     0.28444    -1.85489    -1.28224
 O    -6.73840     0.28710     0.21521
 O    -6.05514    -1.17683    -3.08646
 O    -0.59338    -1.89406     1.05143
 O    -1.50821    -2.40598    -4.98810
 O     3.96245     0.97775     1.08975
 O     4.11334    -2.41844    -3.99575
 O    -2.27131    -0.05809     0.35976
 O    -9.53691     2.23170     0.24022
 O     2.56362    -2.76284    -1.06752
 O     0.90943    -0.23984     2.22872
 O    -8.15633    -1.86930    -4.26724
 O     5.51140    -0.78017     0.54882
 O    -3.56974    -2.85723    -3.61846
 O    -3.81573    -2.01591    -0.06189
 O     3.28682     4.63893    -6.85345
 O    -6.85629    -3.56258    -3.10778
 O     0.61303    -2.48964     3.12501
 O     2.18313    -0.25325    -1.05095
 O    -7.23397     2.58282    -0.66003
 O     4.25990    -1.48132    -5.63873
 O    -4.36814     0.25737    -0.82621
 O    -2.59774    -4.67606    -4.68117
 O     4.55304    -0.54900     2.85086
 O    -1.29131    -0.94287     3.16764
 O    -5.91248    -2.51033    -5.10270
 O    -5.26190     2.31467     0.71748
 O     1.88639    -1.54018    -3.09154
 O    -2.53156    -0.99502    -1.89359
 O     1.44840     6.26444    -7.12245
 O     3.23858    -1.47751     1.09769
 O    -1.22368    -3.52477    -2.87028
Ag    -1.56931    10.58667    -9.97568
Ag    -6.84145    11.27045   -10.98390
Ag    -4.24933    10.15382    -7.15609
Ag     3.52503     9.01000    -4.10061
Ag    -5.59508     8.82991   -14.25968
Ag     2.58818     6.84827   -11.07028
Ag     4.29729     6.66868    -8.36863
Ag    -4.25157     8.72524   -10.08468
Ag    -6.98369     8.15325    -8.39630
Ag     1.42848     8.60694    -7.28214
Ag     4.06883    11.73610    -6.11456
Ag    -3.80504    12.73488    -8.15121
Ag     0.18823     5.97719    -9.05269
Ag    -5.33328     6.14848   -12.48384
Ag    -3.18230    11.36890   -12.89776
Ag     2.95467     9.84691    -9.22921
 S     0.52247     8.52905   -10.15000
 S    -3.30570     8.63701   -12.59604
 S    -6.87951    10.88115    -8.32747
 S     4.11228     9.06483    -6.83873
 S    -6.07384    -0.32302    -7.70359
 S     5.40801     7.87274   -10.45313
 S     0.31469     8.32514    -2.96049
 S    -4.17581    11.52219   -10.38003
 O    -0.77395     7.94746    -9.74731
 O    -6.16267     9.96305    -9.30814
 O    -7.51195    -0.28353    -7.96106
 O     1.42668     8.05691    -3.88066
 O    -3.48848     9.48502   -13.88002
 O     2.97734     9.78543    -6.15387
 O     4.75703     6.61511   -10.99928
 O    -3.65247    10.67580    -9.21333
 O    -7.71732     9.95114    -7.41254
 O     1.61976     7.73513    -9.32597
 O     0.80069     9.75605    -2.20603
 O    -9.47705    -1.24248    -6.28309
 O     5.12459    10.00909    -7.41018
 O    -4.70547     8.18600   -12.13634
 O    -4.82146    10.72362   -11.50400
 O     5.59483     7.41058    -8.88256
 O    -5.70298     0.14210    -6.35538
 O     0.14242     7.34647    -1.90208
 O     0.60484     9.96559    -9.69801
 O    -7.76590    11.88778    -9.01106
 O     6.74658     8.09790   -10.99813
 O    -5.24137    12.44740    -9.86928
 O    -2.44730     7.46818   -12.83804
 O     4.70613     8.02378    -5.94667
 O    -0.94859     8.77297    -3.57464
 O    -5.25303     0.19758    -8.78017
 O    -5.86937    11.56600    -7.42206
 O     0.87339     8.39080   -11.57272
 O    -3.00496    12.31211   -10.90759
 O     4.56672     9.03582   -10.56102
 O     3.51605     8.19781    -8.05804
 O    -2.67141     9.58388   -11.59048
