   64
 
Ag     0.00000     0.00000     0.00000
Cl    -0.89890     4.16640    -3.05129
Cl    -0.40004    -2.22303    -1.26621
Cl    -2.45977    -0.31592     0.89478
Ag    -2.72515    -1.11950    -1.58865
Ag    -3.29043     3.19927    -3.49328
Ag    -0.18527     2.00611    -4.46623
Cl    -2.20331     0.96629    -3.18867
Ag     6.60136     4.11855    -2.38503
Cl     4.37716     5.22207    -3.23277
Cl     5.64815     1.99955    -3.58851
Cl     2.23710     1.08819    -0.65804
Ag     3.74957     0.55199    -4.56865
Ag     1.75137     4.91711    -3.17341
Ag     4.47066     3.68719    -5.29634
Cl     2.27815     2.63291    -4.31941
Ag     1.96337     7.96752     4.60138
Cl     0.48842     8.51279     2.54558
Cl    -0.13905     2.06073     1.67445
Cl    -0.52535     7.10849     5.02047
Ag    -2.52586     1.77687     2.51178
Ag    -1.98864     8.20948     3.12430
Ag    -1.19153     5.92852    -1.12491
Cl    -2.30479     6.97109     0.95156
Ag     6.04197     7.71883     1.39584
Cl     4.34668     8.26307    -0.41677
Cl     6.62927     6.01733    -0.59340
Cl     3.80976     7.36981     2.85726
Ag     1.99119     3.19621     0.73532
Ag     2.21909     7.73070     0.75424
Ag     5.49959     7.46953    -2.49521
Cl     1.29219     5.49639    -0.54752
Ag     3.41889    -2.83463     4.83740
Cl     1.17043    -1.18841     1.89981
Cl     2.37565    -5.28754     4.17322
Cl     1.26774    -9.42608     3.26280
Ag     1.46419    -7.15610     2.82181
Ag    -2.88709    -1.27953     3.27003
Ag     1.49279    -3.92527    -1.20151
Cl     1.25317    -5.90987     0.68823
Ag     8.76656     0.98121     1.15436
Cl     7.79258     2.58230    -0.64913
Cl     7.50349    -0.79450    -0.20851
Cl     4.62190    -2.26801     2.60149
Ag     6.07791    -2.82416     0.54097
Ag     3.47943    -0.51071     0.99113
Ag     7.47617     0.62973    -2.34597
Cl     3.66200    -2.78067    -0.35390
Ag     3.72322     3.68284     7.03992
Cl     2.77434     5.84026     5.89126
Cl     1.84320    -0.91700     5.43010
Cl     1.24567     2.90907     6.90156
Ag     0.06558     0.51643     6.66696
Ag     0.36400     5.28736     6.73491
Ag     1.22050     0.75463     3.54154
Cl    -1.25856     0.40357     4.39425
Ag     8.26458     4.63201     4.72820
Cl     6.88907     5.83730     2.94275
Cl     8.01611     2.71775     2.92675
Cl     5.84168     3.84405     5.54870
Ag     6.99132     1.63222     5.03173
Ag     5.15919     6.25780     4.82703
Ag     8.10711     4.58462     1.03292
Cl     3.28120     1.71245     2.34221
