   96
 
Ag     0.00000     0.00000     0.00000
Ag    -3.69261    -4.67632    -5.20168
Ag    -5.01385    -7.44352    -6.47614
Ag     5.65973    -6.77569    -7.96262
 I    -4.09074    -6.33712    -2.90551
 I     6.17693    -4.37317    -6.53967
 I     2.81624    -6.33955    -7.61078
 I    -1.33290   -11.06152    -1.88742
 O    -4.52524    -7.70984    -2.04608
 O    -2.44134    -6.22845    -3.21236
 O     6.91443    -5.90782    -6.31200
 O     7.39056    -3.24999    -6.81506
 O    -2.35359   -10.50291    -3.10566
 O    -2.01049   -11.05867    -0.27742
 O     1.97378    -7.84092    -7.29271
 O     1.88964    -5.11386    -6.85869
 O     4.09694    -6.66555    -6.40090
 O     3.74180    -6.63300    -9.04940
 O     0.01222    -9.99567    -1.73469
 O    -1.03118   -12.71151    -2.24710
 O     5.06987    -3.88031    -5.33589
 O     5.09451    -4.70223    -7.90444
 O    -4.94124    -6.38597    -4.44581
 O    -4.82258    -4.94296    -2.16949
Ag     1.66959     5.96345     5.60963
Ag    -4.34433    -0.89158     2.30269
Ag    -6.16444    -3.06289    -1.45515
Ag     3.83699    -0.49499    -0.61750
 I    -5.06980    -4.07246     0.57741
 I     4.45997     2.15214     0.38419
 I     1.72959     0.32851    -2.30310
 I    -1.95055    -1.98498    -0.70894
 O    -4.03789    -2.96677     1.58086
 O    -4.57977    -1.33055     3.29913
 O     4.62056     0.66612     1.22232
 O     5.98872     2.85018     0.33719
 O    -3.63146    -2.07938    -1.14113
 O    -1.37969    -3.59241    -0.67508
 O     1.16359     0.29844    -3.93324
 O     0.90288     1.56475    -1.41341
 O     1.45829    -1.10302    -1.36179
 O     3.40910     0.00971    -2.72887
 O    -1.91345    -1.12592     0.78660
 O    -1.17800    -0.91273    -1.78896
 O     3.29829     3.23412     1.02996
 O     3.80366     1.68964    -1.17364
 O    -3.81856    -5.30839     0.40506
 O    -6.24510    -4.74814     1.65432
Ag     5.68555    -9.79808     3.58919
Ag    -0.31650    -9.82861     0.51273
Ag    -3.71595    -9.75770     2.95073
Ag     5.17141   -11.67215    -0.08032
 I    -4.54909   -11.58813     4.90125
 I     5.97642    -9.09898     0.80694
 I     2.29298   -11.20182     0.21614
 I    -1.42910   -11.73085     2.49313
 O    -3.02943   -11.54119     3.80156
 O    -5.48625   -10.62763     3.80335
 O     6.83078    -8.46713     2.16009
 O     6.87173   -10.00283    -0.32813
 O    -1.66700   -10.00821     2.36232
 O    -2.33507   -12.99010     1.71861
 O     1.19517   -12.15683    -0.68787
 O     1.75641    -9.88360     1.15895
 O     3.31397   -12.31440     1.10312
 O     3.45412   -10.60391    -0.91302
 O    -0.76854   -12.48258     3.92843
 O     0.04026   -11.79880     1.50125
 O     5.19035    -7.80270     0.08255
 O     4.87766   -10.24781     1.56723
 O    -4.85474   -13.24568     4.50691
 O    -5.11507   -11.36265     6.48197
Ag     4.53388    -2.99691     9.42142
Ag    -2.33686     1.26120    11.28293
Ag    -2.26524    -4.00210     1.27400
Ag     5.37796    -5.06384     5.96403
 I    -4.51529    -6.44510    10.01621
 I     6.08872    -2.52457     7.02747
 I     2.08868    -1.24109     1.49390
 I    -2.70538    -8.73419     6.89486
 O    -4.05341    -7.73021    11.07521
 O    -3.44915    -5.15903    10.26590
 O     6.49434    -2.06806     8.62741
 O     7.08376    -3.64318     6.19150
 O    -2.63134    -7.19185     6.13100
 O    -3.37692    -9.81796     5.51935
 O     0.56494    -1.93473     1.12361
 O     2.11853    -1.02853     3.16918
 O     3.39262    -2.18044     0.91248
 O     2.11510     0.31769     0.68886
 O    -1.86911    -6.60062    11.88183
 O    -1.04665    -9.32653     6.73669
 O     5.91480    -1.11381     6.12968
 O     4.57244    -3.39172     7.19319
 O    -4.43834    -7.21648     8.47701
 O    -6.08858    -5.95548    10.35883
