  160
 
Ag     0.00000     0.00000     0.00000
 O    -2.07471    -0.21745    -4.28796
 O    -4.01761     0.82678    -4.45862
 O    -2.45013     1.15058    -5.91805
Ag    -5.22304    -2.20057     1.34246
 N    -1.94171     0.72927    -1.48022
 O    -1.20998    -0.22027    -1.80376
 O    -2.78519     1.26682    -2.22177
 O    -1.77915     1.22996    -0.30407
 O    -3.60154    -2.17990    -0.13493
 O    -4.89696    -0.10334     0.69308
 O    -6.89358    -0.88777     0.98501
Ag    -5.16684    -2.32841    -3.34119
Ag    -3.21264     2.81966    -0.71533
Ag    -0.51567     0.11118    -5.73321
Ag    -4.38400     2.17300    -6.13018
 O    -3.34750    -1.47984    -2.55802
 O    -1.42384    -2.53988    -2.87783
 O    -0.08436    -2.07693    -0.65940
 O     1.78261    -1.24323     0.04022
 N    -2.86242     0.57334    -4.83962
 N    -2.99080    -3.08052     0.46564
 O    -3.49328    -3.49145     1.58479
 O    -1.94822    -3.62818     0.07410
 N    -2.66393    -2.45261    -2.92021
 O    -3.30413    -3.46686    -3.40620
 O     0.46156    -0.21162    -3.75179
 O     0.85076    -1.56966    -5.38830
Ag    -1.45015    -4.62185    -3.53863
Ag    -1.84035    -4.87629     1.86823
 O    -5.60022    -0.64855    -1.98836
 O    -6.56444    -0.72922    -3.92848
 N    -6.11519     0.11538     0.73615
 O    -6.65183     1.23193     0.63459
 N    -6.40481    -0.14419    -2.79275
 O    -7.11084     0.85221    -2.55890
 O     1.80982    -1.93756    -3.48255
 O     1.76176    -3.30069    -0.63090
 N     1.03496    -1.23508    -4.15383
 N     1.12843    -2.24672    -0.44165
Ag     8.48450     9.98653    -5.23799
 O     5.11999     7.27509    -8.43254
 O     3.27686     8.47970    -8.60785
 O     4.91348     8.74962   -10.00069
Ag     2.70929     7.21810    -3.25903
 N     6.18473    10.30583    -6.35260
 O     6.73153     9.19325    -6.35661
 O     5.09605    10.57321    -6.88765
 O     6.80718    11.27329    -5.76007
 O     2.86147     6.02046    -1.33092
 O     2.30736     8.14974    -5.23419
 O     0.93551     8.39513    -3.57947
Ag     1.75061     4.63750    -8.81660
Ag     5.16658    12.66464    -6.12954
Ag     6.74090     7.59297    -9.90858
Ag     3.11663     9.91972   -10.28174
 O     3.43059     5.38969    -7.56848
 O     5.34337     4.28323    -7.59146
 O     8.27165     7.86228    -4.54735
 O    10.15568     8.59915    -5.31851
 N     4.41925     8.15230    -8.96095
 N     3.84831     5.41101    -1.78056
 O     4.45912     4.53129    -1.14752
 O     4.26135     5.70879    -2.95632
 N     4.16748     4.46674    -7.94243
 O     3.66487     3.61555    -8.78276
 O     7.61354     7.26744    -7.87935
 O     8.30311     6.11075    -9.57207
Ag     5.43578     2.35185    -8.70159
Ag     5.91903     4.28140    -2.87649
 O     0.85521     5.71726    -7.06592
 O     0.22379     6.17352    -9.08693
 N     1.23535     8.61952    -4.81511
 O     0.43138     9.29076    -5.48293
 N     0.12749     6.38523    -7.81698
 O    -0.71924     7.20662    -7.43264
 O     9.16789     5.72501    -7.62375
 O    10.04928     6.56331    -4.58638
 N     8.35612     6.36975    -8.30466
 N     9.46044     7.63132    -4.81321
Ag     2.72868     5.33548    11.35094
 O    -3.83769     3.41497     8.37817
 O    -2.71783     3.70537     6.55175
 O    -2.27484     4.96765     8.25754
Ag    -2.62100     3.62378    12.52592
 N     0.39454     5.84322    10.35238
 O     1.24513     5.20302     9.70739
 O    -0.75117     6.09931     9.94615
 O     0.74232     6.30759    11.50213
 O    -0.84746     3.64737    11.18142
 O    -3.06367     4.31127    10.54257
 O    -4.50987     4.65985    12.11013
Ag    -4.14001     2.05348     6.73435
Ag    -1.14235     7.47221    11.57537
Ag     2.09052     2.57191     6.90442
Ag    -1.21689     5.34472     6.42194
 O     1.75243     1.66797     8.83669
 O     0.64982     0.91054     7.12933
 O     2.43143     3.28113    10.72322
 O     4.15395     3.77088    11.93482
 N    -2.95810     4.05481     7.76704
 N    -0.49654     2.50993    11.54756
 O    -1.12597     1.97720    12.53077
 O     0.42946     1.86524    11.03076
 N     0.87101     0.91461     8.39802
 O     0.14505     0.17612     9.09634
 O     3.69340     3.23634     8.34250
 O     3.81521     1.34025     7.30307
Ag    -0.85291    -0.66539     7.37635
Ag     0.32009     0.25197    12.48539
 O    -5.76156     1.74080     8.29901
 O    -5.90904     3.31676     6.81702
 N    -4.21094     4.67973    10.85319
 O    -5.08881     5.04618    10.05705
 N    -6.41192     2.68192     7.80605
 O    -7.55552     2.98973     8.18923
 O     5.50695     2.01017     8.48138
 O     3.84546     1.70835    11.34671
 N     4.34596     2.20914     8.07849
 N     3.45560     2.89132    11.30264
Ag     9.12128    12.46965     6.65509
 O     7.29909    11.59404     2.30633
 O     5.37051    12.62539     2.00237
 O     7.18538    13.37326     1.08434
Ag     5.19165    11.24091     8.69293
 N     7.19381    13.13052     5.11761
 O     7.88424    12.11739     4.91389
 O     6.36798    13.60014     4.31201
 O     7.39768    13.77632     6.21165
 O     5.91529    10.26978     6.87051
 O     4.79163    12.68105     7.11595
 O     3.14477    12.06516     8.38392
Ag     3.90543     9.92713     3.73712
Ag     6.00515    15.36304     5.59396
Ag     9.08362    12.29890     1.28819
Ag     5.26871    14.33215     0.63143
 O     5.77657    10.84443     4.29975
 O     7.66606     9.71297     4.03308
 O     9.06494    10.36313     6.12186
 O    10.97000    11.29453     6.54484
 N     6.59556    12.50853     1.84066
 N     6.59267     9.45193     7.52129
 O     7.13390     8.43985     7.04656
 O     6.70881     9.64835     8.78917
 N     6.42520     9.81570     4.03318
 O     5.75032     8.76718     3.70192
 O     9.69022    11.45664     3.23213
 O    10.53786    10.64781     1.41288
Ag     7.58324     7.58732     3.52965
Ag     7.96920     7.82001     8.99687
 O     3.55844    11.70297     4.99431
 O     2.50198    11.50761     3.11255
 N     3.58873    12.78480     7.41520
 O     2.78611    13.57275     6.87693
 N     2.72477    12.16715     4.19170
 O     2.05276    13.19462     4.38892
 O    11.08772     9.75131     3.30616
 O    10.96732     9.26462     5.80121
 N    10.42662    10.61084     2.69751
 N    10.30642    10.26573     6.13152
