  226
 
Sm     0.00000     0.00000     0.00000
 O     2.36008     0.08182    -0.00664
 O     0.99581     2.14030    -0.19964
 O     0.33650    -1.46732     1.82228
 O    -0.94362     0.67759     2.04659
 O    -1.90730    -1.42523    -0.16536
 O    -1.98100     0.93962    -0.91765
 O     0.93716    -1.94252    -1.24306
 O     0.48700     0.28096    -2.42182
 C     4.51524    -1.20480    -1.05771
 C     4.70367    -0.01568    -0.10431
 C     3.40046     0.78604    -0.08964
 C     3.31489     2.18603    -0.15929
 C     2.06214     2.81662    -0.17224
 C     1.84726     4.33177    -0.15458
 C     1.19629     4.72347    -1.48836
 C     5.89300     0.82707    -0.56389
 C     4.93494    -0.53005     1.32229
 C     0.88399     4.63201     1.00078
 C     3.14800     5.11437     0.03653
 C    -3.44565     1.45509     3.16258
 C    -2.13285     1.35309     3.95292
 C    -1.24573     0.34054     3.22507
 C    -0.78988    -0.87112     3.76513
 C     0.03588    -1.73070     3.02088
 C     0.60114    -3.05206     3.54682
 C    -0.29186    -4.15973     2.96554
 C    -1.39425     2.69850     3.93457
 C    -2.43435     0.93575     5.39274
 C     2.04251    -3.20818     3.04922
 C     0.60205    -3.11184     5.07422
 C    -3.00156    -3.89180     0.24859
 C    -3.78651    -2.62855     0.61999
 C    -3.16552    -1.41931    -0.07941
 C    -3.90209    -0.30524    -0.52005
 C    -3.24485     0.87276    -0.89061
 C    -3.95831     2.17577    -1.25525
 C    -3.39939     3.27302    -0.33903
 C    -3.63654    -2.33955     2.12275
 C    -5.26372    -2.80825     0.27089
 C    -3.62766     2.46867    -2.72340
 C    -5.47539     2.09290    -1.07559
 C     1.12286    -3.27025    -0.70849
 C     1.08864    -1.97173    -2.68567
 C     1.46563    -0.55198    -3.09421
 C     0.24843     1.49700    -3.15638
 H     3.60934    -1.77249    -0.78861
 H     4.39866    -0.86663    -2.09335
 H     5.36809    -1.88863    -1.01715
 H     4.21456     2.77582    -0.20358
 H     0.25822     4.16893    -1.63078
 H     0.96516     5.79427    -1.51144
 H     1.85433     4.50889    -2.33734
 H     6.80830     0.22364    -0.58245
 H     5.74049     1.21756    -1.58187
 H     6.06972     1.68364     0.09627
 H     4.02611    -1.01754     1.70976
 H     5.74076    -1.26992     1.35175
 H     5.20092     0.28552     2.00558
 H     1.32288     4.36476     1.96997
 H     0.61532     5.69289     1.02737
 H    -0.04619     4.05285     0.89762
 H     3.67875     4.79432     0.94282
 H     3.82930     4.98293    -0.81173
 H     2.94447     6.18828     0.13057
 H    -3.24517     1.64177     2.09730
 H    -4.02538     0.52778     3.22139
 H    -4.07234     2.27193     3.53450
 H    -1.06541    -1.14426     4.77028
 H    -0.26196    -4.14980     1.86907
 H     0.03691    -5.15060     3.29903
 H    -1.33821    -4.03436     3.26623
 H    -1.19756     3.01606     2.89949
 H    -1.97512     3.48550     4.42583
 H    -0.42244     2.63067     4.43789
 H    -2.95505    -0.02831     5.42867
 H    -1.51708     0.84204     5.98708
 H    -3.07247     1.67849     5.88695
 H     2.12757    -2.98067     1.97849
 H     2.71612    -2.51759     3.57658
 H     2.41077    -4.22510     3.21964
 H     1.09066    -4.02537     5.43594
 H     1.15524    -2.26776     5.51226
 H    -0.41215    -3.09313     5.48664
 H    -1.92839    -3.74494     0.44343
 H    -3.33341    -4.75448     0.83599
 H    -3.11326    -4.13823    -0.81082
 H    -4.97910    -0.34167    -0.50296
 H    -3.87387     4.23825    -0.53392
 H    -3.56412     3.03342     0.71985
 H    -2.31351     3.38256    -0.46891
 H    -2.58244    -2.15705     2.38983
 H    -4.19897    -1.44836     2.42198
 H    -3.98935    -3.18037     2.72736
 H    -5.86896    -1.94915     0.58522
 H    -5.41672    -2.94989    -0.80483
 H    -5.68308    -3.68862     0.77772
 H    -4.04699     3.42667    -3.03595
 H    -2.54051     2.51222    -2.87545
 H    -4.03481     1.69932    -3.38843
 H    -5.95364     3.04907    -1.32222
 H    -5.92207     1.32334    -1.71534
 H    -5.73533     1.85662    -0.03487
 H     2.00297    -3.74597    -1.14668
 H     1.28602    -3.13131     0.37598
 H     0.20836    -3.84047    -0.89680
 H     0.10945    -2.28718    -3.09060
 H     1.87703    -2.68557    -2.98159
 H     2.44944    -0.22972    -2.70252
 H     1.41342    -0.42860    -4.19203
 H     0.32559     1.33678    -4.23411
 H    -0.78046     1.77862    -2.87514
 H     0.97371     2.23682    -2.79105
Sm    -7.11498    -8.38775     6.52765
 O    -9.47400    -8.46720     6.57196
 O    -8.11085   -10.52936     6.73174
 O    -7.48397    -6.94515     4.68924
 O    -6.16912    -9.06694     4.47700
 O    -5.21093    -6.95720     6.66370
 O    -5.13631    -9.30808     7.47470
 O    -2.15720    -0.80625    -5.49050
 O    -1.72347    -3.02708    -4.29982
 C   -11.63133    -7.15951     7.57958
 C   -11.82023    -8.37074     6.65516
 C   -10.51572    -9.17045     6.64941
 C   -10.43080   -10.57125     6.71393
 C    -9.17839   -11.20382     6.72153
 C    -8.97067   -12.72062     6.72211
 C    -8.37620   -13.10443     8.08485
 C   -13.00361    -9.20704     7.14181
 C   -12.06519    -7.89446     5.21759
 C    -7.97016   -13.04399     5.60550
 C   -10.27060   -13.49400     6.48772
 C    -3.68082    -9.85131     3.34432
 C    -4.99671    -9.74757     2.55945
 C    -5.88725    -8.73951     3.29067
 C    -6.37010    -7.54314     2.74059
 C    -7.20097    -6.68856     3.48475
 C    -7.78860    -5.38064     2.94974
 C    -6.88496    -4.25943     3.48822
 C    -5.73282   -11.09461     2.57823
 C    -4.70301    -9.32204     1.12042
 C    -9.21571    -5.22467     3.48714
 C    -7.83204    -5.34258     1.42181
 C    -4.10640    -4.49071     6.20428
 C    -3.32178    -5.76725     5.88011
 C    -3.95182    -6.95802     6.60315
 C    -3.21800    -8.05423     7.09454
 C    -3.87320    -9.22873     7.47875
 C    -3.15463   -10.51713     7.88959
 C    -3.64705   -11.62422     6.94722
 C    -3.45064    -6.09513     4.38323
 C    -1.84978    -5.58158     6.24738
 C    -3.54850   -10.81848     9.33994
 C    -1.63209   -10.40586     7.78708
 C    -2.31742     0.52720    -6.01761
 C    -2.25887    -0.76259    -4.04302
 C    -2.66890    -2.16557    -3.61415
 C    -1.47607    -4.22448    -3.54104
 H   -10.74091    -6.58297     7.28015
 H   -11.48277    -7.47429     8.61856
 H   -12.49673    -6.49171     7.54484
 H   -11.33077   -11.15965     6.75444
 H    -7.44403   -12.55194     8.26492
 H    -8.14927   -14.17538     8.12664
 H    -9.06993   -12.88153     8.90336
 H   -13.91484    -8.59867     7.17968
 H   -12.83017    -9.59586     8.15693
 H   -13.19808   -10.06371     6.48713
 H   -11.16183    -7.41662     4.80684
 H   -12.87249    -7.15682     5.17600
 H   -12.33660    -8.72883     4.55905
 H    -8.37524   -12.79303     4.61722
 H    -7.70391   -14.10569     5.60618
 H    -7.04257   -12.46500     5.72863
 H   -10.77182   -13.16199     5.56866
 H   -10.97559   -13.36536     7.31679
 H   -10.06825   -14.56791     6.39043
 H    -3.87788   -10.05439     4.40765
 H    -3.10653    -8.91984     3.29540
 H    -3.04923   -10.65829     2.96027
 H    -6.11468    -7.27623     1.72825
 H    -6.89306    -4.24234     4.58488
 H    -7.22197    -3.27709     3.13781
 H    -5.84486    -4.39060     3.16915
 H    -5.93256   -11.41078     3.61360
 H    -5.14869   -11.88181     2.09106
 H    -6.70293   -11.03124     2.07130
 H    -4.17893    -8.35910     1.08842
 H    -5.62553    -9.22061     0.53409
 H    -4.07170   -10.06325     0.61599
 H    -9.26867    -5.44088     4.56248
 H    -9.90120    -5.92327     2.98705
 H    -9.59341    -4.21152     3.31714
 H    -8.34713    -4.44295     1.06174
 H    -8.38303    -6.20139     1.00957
 H    -6.83133    -5.34599     0.97877
 H    -5.17761    -4.63935     6.00129
 H    -3.76430    -3.64744     5.59423
 H    -4.00606    -4.21142     7.25649
 H    -2.14151    -8.00786     7.10458
 H    -3.15629   -12.57839     7.15587
 H    -3.44592   -11.37499     5.89703
 H    -4.73387   -11.76277     7.03508
 H    -4.50165    -6.27844     4.10511
 H    -2.88890    -6.99730     4.11742
 H    -3.08368    -5.27334     3.76095
 H    -1.24229    -6.44819     5.95998
 H    -1.71265    -5.41738     7.32206
 H    -1.42305    -4.71280     5.72614
 H    -3.16323   -11.78822     9.66102
 H    -4.64166   -10.84151     9.45119
 H    -3.15054   -10.06573    10.02903
 H    -1.14758   -11.34818     8.07166
 H    -1.23610    -9.61886     8.43885
 H    -1.32230   -10.17812     6.75828
 H    -3.20863     0.99955    -5.59662
 H    -2.44755     0.40250    -7.10715
 H    -1.40578     1.08887    -5.79304
 H    -1.25250    -0.48350    -3.68063
 H    -3.00572    -0.01740    -3.72106
 H    -3.66750    -2.46532    -3.98371
 H    -2.60054    -2.28271    -2.51579
 H    -1.46862    -4.02099    -2.46674
 H    -0.47910    -4.55723    -3.87870
 H    -2.24937    -4.95055    -3.82244
