  208
 
 S     0.00000     0.00000     0.00000
 O     1.47392     0.06965     0.10381
 O    -0.63179     1.33738    -0.07964
 C    -0.32915    -0.81003    -1.60043
 F     0.18771    -2.04059    -1.67493
 F     0.17973    -0.14111    -2.63565
 O    -0.63008    -0.86168     1.02391
 F    -1.62653    -0.95231    -1.86994
 S     1.15545     3.35094     5.75398
 O     1.88757     4.57955     5.38121
 O     1.05093     2.39017     4.63178
 C     2.18237     2.56394     7.04070
 F     2.27608     3.30180     8.15094
 F     3.43885     2.35175     6.65022
 O    -0.15596     3.58522     6.40163
 F     1.72458     1.37768     7.43927
 S    -0.43382    -5.35459    -6.37985
 O     0.45153    -5.21599    -7.55923
 O     0.30728    -5.74447    -5.15910
 C    -1.07594    -3.67610    -6.07355
 F    -1.79330    -3.20183    -7.09795
 F    -0.11457    -2.77626    -5.86793
 O    -1.62810    -6.19144    -6.61879
 F    -1.87568    -3.60010    -5.00980
 S     5.23985     0.37967     2.54140
 O     5.83206     1.18675     1.45091
 O     5.87216    -0.95429     2.66891
 C     5.64520     1.28668     4.06986
 F     5.06636     2.49047     4.12699
 F     6.95035     1.51575     4.21497
 O     3.76417     0.30635     2.49811
 F     5.26552     0.64909     5.17653
 S     4.12462    -2.99128    -3.15337
 O     5.45389    -3.26975    -3.74778
 O     4.20944    -2.01812    -2.03982
 C     3.19279    -2.18511    -4.49837
 F     3.02653    -2.97997    -5.56077
 F     3.78736    -1.08871    -4.96660
 O     3.34788    -4.19437    -2.79532
 F     1.96672    -1.80594    -4.14196
 S     5.68966     5.78204     9.00330
 O     6.81203     6.70686     9.27288
 O     4.94224     6.13269     7.77220
 C     6.47678     4.17121     8.66950
 F     7.13713     3.68518     9.72537
 F     7.37257     4.22981     7.68291
 O     4.79494     5.56335    10.16000
 F     5.61558     3.21747     8.31880
 H     5.01978    -5.94775     3.04620
 H     5.19272    -3.92885     3.69324
 H     5.22357    -2.50248     2.85211
Sm     2.65266    -4.12463     1.78463
 O     3.99714    -5.78182     3.09274
 O     4.74462    -3.41176     2.91741
 H     3.61618    -6.53241     3.68757
 O     2.09892    -1.87084     2.72554
 O     1.83988    -4.69718    -0.51867
 O     3.06360    -2.08825     0.42678
 O     4.23809    -5.07788     0.12617
 O     2.00117    -4.61791     4.13499
 O     0.31308    -3.30364     1.65568
 O     1.50442    -6.28476     1.37687
 H     2.71298    -1.03877     2.72360
 H     1.29256    -1.62896     3.32313
 H     2.30324    -4.48101    -1.41401
 H     0.91280    -5.08543    -0.76932
 H     2.58374    -1.18747     0.57739
 H     3.53576    -2.02067    -0.48656
 H     4.00586    -5.50783    -0.78667
 H     5.24245    -5.23825     0.28107
 H     2.56589    -5.11751     4.84074
 H     1.17302    -4.24806     4.62743
 H     0.01185    -2.31943     1.74328
 H    -0.50232    -3.82593     1.30173
 H     1.41591    -6.73873     0.45267
 H     1.19530    -6.97461     2.07834
 H     3.53041    -4.65526    -8.25015
 H    -3.40538     2.90225     0.46660
 H    -2.01241     2.02668     0.63326
Sm     2.60022     4.49842     0.80971
 O     3.16730    -5.38437    -7.62166
 O    -2.82221     2.39434     1.15139
 H     2.14301    -5.23473    -7.56577
 O     3.13835     2.24591    -0.13552
 O     3.41221     5.04940     3.11454
 O    -1.09971     1.04663     3.61019
 O    -0.33167    -7.51265    -3.20898
 O     0.50487     3.78271    -0.30939
 O     2.17814     2.46320     2.16275
 O     2.95145    -6.11314    -4.66218
 H     3.93492     1.99278    -0.74366
 H     2.52203     1.41597    -0.11406
 H     4.33572     5.44385     3.37356
 H     2.94073     4.83338     4.00347
 H    -0.82712     0.05788     3.49314
 H    -0.27097     1.53867     3.96929
 H    -0.20809    -7.12193    -2.26062
 H    -0.04268    -6.78687    -3.87498
 H     0.04847     4.29178    -1.08294
 H     0.03010     2.87204    -0.23196
 H     2.65065     1.55825     2.02142
 H     1.69939     2.40810     3.07188
 H     3.18592    -5.67224    -3.75434
 H     1.94605    -5.96935    -4.80696
 S    -6.01078    -2.60219     2.77816
 O    -4.54349    -2.49133     2.92341
 O    -6.66554    -1.27909     2.62915
 C    -6.26332    -3.47693     1.19885
 F    -5.80756    -4.73335     1.22947
 F    -5.63709    -2.89444     0.17571
 O    -6.65944    -3.44309     3.80652
 F    -7.54155    -3.56902     0.83566
 S    -4.99882     0.87149     8.34010
 O    -4.36240     2.13236     7.89278
 O    -5.05431    -0.14861     7.26578
 C    -3.89941     0.20026     9.63281
 F    -3.90439     0.92751    10.75463
 F    -2.62338     0.15175     9.25074
 O    -6.30777     1.05246     9.00453
 F    -4.21250    -1.03777    10.01290
 S    -6.46239    -8.07343    -3.76413
 O    -5.55306    -7.94644    -4.92489
 O    -5.73324    -8.40036    -2.51414
 C    -7.16306    -6.40605    -3.52927
 F    -7.85898    -5.98233    -4.58968
 F    -6.24008    -5.46789    -3.31625
 O    -7.62271    -8.95819    -3.99379
 F    -8.00374    -6.33012    -2.49790
 S    -0.84834    -2.26284     5.20437
 O    -0.20208    -1.41953     4.17581
 O    -0.20301    -3.59189     5.33454
 C    -0.56794    -1.40824     6.79049
 F    -0.98021    -0.13695     6.77169
 F     0.71425    -1.36337     7.15059
 O    -2.31789    -2.35863     5.07409
 F    -1.20968    -1.97824     7.81112
 S    -1.87956    -5.70291    -0.40644
 O    -0.57063    -5.89657    -1.06882
 O    -1.80978    -4.70193     0.68511
 C    -2.96040    -4.98795    -1.69300
 F    -2.94565    -5.68147    -2.83600
 F    -2.63363    -3.74119    -2.03103
 O    -2.53296    -6.96077     0.01919
 F    -4.24216    -4.94097    -1.32855
 S    -0.39342     3.13046    11.69469
 O     0.80530     3.96340    11.91522
 O    -1.12799     3.49556    10.45799
 C     0.22739     1.43579    11.43941
 F     1.02920     1.02647    12.42815
 F     0.93486     1.29083    10.31952
 O    -1.28995     3.03205    12.86822
 F    -0.74617     0.52778    11.37523
 H    -1.03781    -8.58009     5.69887
 H    -0.79747    -6.59657     6.29365
 H    -0.84919    -5.13805     5.50970
Sm    -3.41398    -6.75683     4.45422
 O    -2.06306    -8.42627     5.72834
 O    -1.30355    -6.05978     5.56942
 H    -2.43672    -9.14220     6.36963
 O    -3.94989    -4.52247     5.43889
 O    -4.27394    -7.30507     2.16535
 O    -2.98449    -4.69663     3.13452
 O    -1.82852    -7.66599     2.76029
 O    -4.05342    -7.29442     6.80372
 O    -5.75225    -5.91474     4.37301
 O    -4.60642    -8.88997     4.02997
 H    -3.34891    -3.68368     5.41450
 H    -4.75718    -4.27912     6.03748
 H    -3.75548    -7.26007     1.27946
 H    -5.22523    -7.63478     1.91903
 H    -3.38588    -3.76258     3.31615
 H    -2.52770    -4.65152     2.21423
 H    -2.00082    -7.99234     1.78607
 H    -0.83683    -7.83514     2.95685
 H    -3.52831    -7.85760     7.49600
 H    -4.86372    -6.90066     7.29981
 H    -6.05502    -4.93748     4.52057
 H    -6.56712    -6.41771     3.99805
 H    -4.76147    -9.30039     3.09372
 H    -4.88558    -9.59700     4.72011
 H    -2.44792    -7.21092    -5.50591
 H    -9.38957     0.34814     3.14468
 H    -8.04676    -0.60619     3.32495
Sm    -3.43803     1.87962     3.51123
 O    -2.83231    -7.97520    -4.92878
 O    -8.85770    -0.22165     3.82902
 H    -3.86005    -7.83987    -4.92246
 O    -2.87627    -0.34474     2.50897
 O    -2.55053     2.43693     5.79155
 O    -7.14752    -1.58104     6.28152
 O    -6.39194   -10.13443    -0.54031
 O    -5.54487     1.18025     2.38282
 O    -3.88045    -0.18124     4.81798
 O    -3.09859    -8.75766    -1.95290
 H    -2.08448    -0.58312     1.88587
 H    -3.47518    -1.18323     2.54158
 H    -1.58793     2.72469     6.05278
 H    -3.08781     2.42960     6.66492
 H    -6.85053    -2.56000     6.14323
 H    -6.33311    -1.07121     6.65070
 H    -6.26517    -9.70163     0.39188
 H    -6.10047    -9.43858    -1.23827
 H    -6.05407     1.70698     1.65174
 H    -5.99942     0.25769     2.45059
 H    -3.49665    -1.12487     4.64154
 H    -4.33854    -0.21318     5.73771
 H    -2.93790    -8.41850    -0.97753
 H    -4.09044    -8.59067    -2.15717
