  172
 
Sm     0.00000     0.00000     0.00000
 O     2.43520     0.00000     0.00000
 O     1.02933     2.25529     0.00000
 O    -1.03562     1.77197     1.57272
 O    -2.03189    -0.67440     1.13283
 O     0.87215     0.16431    -2.32776
 O    -1.34123    -1.54516    -1.38517
 O     0.81469    -2.30445     0.26480
 O    -1.56756     1.34391    -1.34256
 O     0.74747    -0.22306     2.31636
 C     3.16497     1.18815     0.30738
 C     2.45222     2.34954    -0.34643
 C     0.67812     3.26959     0.94062
 C    -0.80841     3.15212     1.22198
 C    -2.39583     1.55529     1.98666
 C    -2.52912     0.10089     2.26362
 H     3.17862     1.25281     1.41338
 H     4.20102     1.08751    -0.07195
 H     2.42155     2.30004    -1.45361
 H     2.88541     3.31956    -0.04416
 H     1.29704     3.11226     1.85053
 H     0.90265     4.26180     0.49754
 H    -1.43492     3.38525     0.33883
 H    -1.10995     3.80118     2.06731
 H    -2.59207     2.17282     2.88912
 H    -3.05755     1.91056     1.16745
 H    -3.57886    -0.20406     2.46023
 H    -1.89049    -0.25039     3.10384
Sm     2.26021    -5.92370    -4.72335
 O     0.44473    -5.32729    -6.23283
 O     2.04517    -3.49382    -5.16524
 O     2.49139    -4.32947    -2.70077
 O     2.90766    -6.97403    -2.63905
 O    -0.22514    -6.31330     2.05814
 O     3.74031    -7.86472    -5.10662
 O     2.19037     4.13410    -4.02224
 O     4.59019    -5.12664    -4.68183
 O     0.21251    -5.75457    -3.39959
 C     0.00113    -3.97451    -6.34213
 C     1.22221    -3.08445    -6.30921
 C     1.97236    -2.51857    -4.12576
 C     2.87742    -2.97161    -2.99511
 C     3.19580    -4.83583    -1.55365
 C     2.76729    -6.24881    -1.38153
 H    -0.67616    -3.81462    -5.47930
 H    -0.56668    -3.84922    -7.28428
 H     1.91818    -3.23091    -7.15909
 H     0.94769    -2.01556    -6.25309
 H     0.90811    -2.43910    -3.81440
 H     2.32376    -1.54391    -4.52360
 H     3.94900    -2.97731    -3.27669
 H     2.73659    -2.34478    -2.09273
 H     2.93251    -4.20886    -0.67491
 H     4.28395    -4.72559    -1.75010
 H     3.35072    -6.78459    -0.60315
 H     1.68359    -6.35739    -1.15528
Sm     8.47571    -0.64509    -2.45874
 O    10.34376    -0.74070    -0.89943
 O     9.17677     1.55485    -1.55618
 O     8.61875     1.32559    -4.12661
 O     7.66890    -1.11296    -4.69409
 O     7.64778    -0.76739    -0.11232
 O     6.62056    -2.27689    -2.43096
 O     9.36069    -2.93768    -2.38721
 O     6.36079     0.60654    -2.29641
 O     7.22280    -1.20538     5.35743
 C    11.05374     0.44411    -0.53763
 C    10.04274     1.55522    -0.37144
 C     9.46983     2.67778    -2.38690
 C     8.51428     2.64982    -3.56540
 C     7.84890     1.20844    -5.33577
 C     7.98110    -0.20121    -5.78874
 H    11.76836     0.62645    -1.36480
 H    11.61272     0.26283     0.40138
 H     9.31380     1.38904     0.44695
 H    10.53033     2.53511    -0.22134
 H    10.53351     2.59613    -2.69924
 H     9.31847     3.60698    -1.79937
 H     7.45917     2.81054    -3.26893
 H     8.80138     3.39699    -4.33090
 H     8.25589     1.92539    -6.08086
 H     6.80276     1.50073    -5.10143
 H     7.31928    -0.44098    -6.64742
 H     9.02576    -0.48231    -6.05031
Sm     7.41766    -7.12820     1.94109
 O     5.03503    -6.62741     1.99092
 O     6.87433    -4.75366     2.40176
 O     8.82750    -5.33527     0.72308
 O     9.29017    -7.97200     0.65721
 O     6.55049    -7.24500     4.27358
 O    -5.04457    -7.27175    -1.79786
 O     7.41811     2.94145     2.44893
 O    -4.22813    -4.53932    -1.28113
 O     6.68784    -6.73689    -0.35853
 C     4.57163    -5.27797     1.93603
 C     5.49446    -4.43818     2.78895
 C     7.44579    -3.66980     1.66990
 C     8.88183    -4.03332     1.34069
 C    10.12225    -5.74210     0.24710
 C     9.95924    -7.11032    -0.31071
 H     4.59556    -4.99788     0.86432
 H     3.52839    -5.23479     2.30711
 H     5.49146    -4.70942     3.86387
 H     5.27819    -3.35944     2.69112
 H     6.82628    -3.51618     0.75995
 H     7.42174    -2.75803     2.30214
 H     9.52429    -4.11205     2.23981
 H     9.32906    -3.30838     0.63283
 H    10.45780    -5.01468    -0.52292
 H    10.82703    -5.69625     1.10499
 H    10.92663    -7.58083    -0.58681
 H     9.27863    -7.15125    -1.18963
Cl    -1.00598    -4.69293    -0.67924
Cl     3.54791     1.29969    -3.83764
Cl     7.45335    -5.34078    -3.09294
Cl     8.68898     0.09243     2.87183
Cl     1.99057    -2.98610     3.09257
Cl    -0.60603     4.00979    -2.60508
Cl    -4.64651    -2.03104     0.49621
Cl     6.18530     3.08074    -0.43281
Cl     4.75021    -1.91090    -0.06389
Cl    -1.70954    -6.61112    -7.88383
Cl    -1.27468    -0.85264    -4.34340
Cl     2.37571    -7.99638     1.72847
 H     3.09800    -0.78631    -0.11415
 H    -2.81293    -1.21020     0.73032
 H     1.74821     0.50252    -2.62139
 H     0.33362     0.07105    -3.15002
 H    -1.51304    -1.40691    -2.36524
 H    -1.66830    -2.44769    -1.20141
 H     1.39288    -2.64550     0.99660
 H     0.44138    -3.12107    -0.14986
 H    -1.32459     2.20602    -1.79372
 H    -2.48288     1.16761    -1.65089
 H     0.58675     0.40917     3.06062
 H     1.12861    -1.02257     2.77293
 H    -0.15138    -5.93220    -6.82133
 H     3.61731    -7.71383    -2.51383
 H     0.64697    -6.63328     1.72737
 H    -0.60941    -5.78261     1.32449
 H     4.50643    -7.84780    -5.75634
 H     3.65872    -8.80308    -4.84315
 H     2.52327     3.21483    -4.17808
 H     1.22007     4.01876    -3.83872
 H     4.88124    -4.27791    -5.13162
 H     5.42653    -5.52196    -4.35516
 H     0.03388    -5.12370    -2.65897
 H    -0.54498    -6.39743    -3.34169
 H    10.79844    -1.56007    -0.46358
 H     6.83579    -1.66266    -4.94834
 H     8.10084    -0.47215     0.70942
 H     6.71837    -0.97362     0.15489
 H     6.56552    -3.17948    -2.81142
 H     5.83571    -2.21451    -1.81073
 H    10.29348    -3.20648    -2.60213
 H     8.85540    -3.78852    -2.41444
 H     6.23117     1.36677    -1.65675
 H     5.47243     0.46646    -2.68994
 H     7.55994    -0.49367     4.75805
 H     7.82241    -1.97415     5.15769
 H     4.22335    -7.26910     1.97052
 H     9.94469    -8.72167     0.92736
 H     7.05558    -7.57738     5.05757
 H     5.73897    -6.82622     4.63768
 H    -4.91713    -7.36823    -0.80542
 H    -4.86288    -8.16048    -2.15857
 H     7.62076     2.00254     2.68998
 H     6.79389     2.86795     1.67901
 H    -4.33981    -3.77805    -0.63929
 H    -3.34748    -4.91157    -1.05967
 H     6.99460    -6.02138    -0.96656
 H     6.15491    -7.33061    -0.95344
