   36
 
Al     0.00000     0.00000     0.00000
 O     3.04771     1.06749    -1.30467
 O     1.21493     0.81259    -3.07204
 O     1.25615    -0.74786    -1.05261
 O     3.05021    -0.94546    -2.86381
 P     2.13994     0.04875    -2.06863
 P    -0.03811    -2.09275     2.10308
 O    -0.80443    -1.21086     1.06186
 O     0.97779    -2.97938     1.31053
 O    -1.08273    -2.94778     2.89197
 O     0.76127    -1.22148     3.12746
 P     4.29707     4.18479    -4.20320
 O     3.24442    -3.35418     3.24436
 O     3.51828     3.15927    -3.31475
 O     5.04879    -3.07629    -3.32796
 O    -3.28688    -4.93012     3.30906
 P    -2.16406     0.00645    -2.03893
 O    -3.07073     1.02262    -2.80875
 O    -1.24770     0.78276    -1.03686
 O    -1.26464    -0.76882    -3.05754
 O    -3.06716    -1.00326    -1.25810
 P     4.30280     4.19224     0.00145
 O     5.08581     3.16763    -0.88544
 O     3.22454    -4.89332     0.86205
 O    -3.31130    -3.35622     0.95821
 O     3.49626    -3.06021    -0.86712
 P     0.00875     2.10066     2.10398
 O     1.06345     2.96785     2.86638
 O     0.78365     1.20923     1.07835
 O    -0.77605     1.22847     3.13912
 O    -1.03625     2.97017     1.32957
Al     2.12459    -4.13977     2.07250
Al     4.28447    -2.00871    -2.09755
Al    -0.02850     0.01829    -4.10483
Al    -2.18337    -4.14689     2.11920
Al     4.30281     2.08957    -2.09766
