  176
 
Ir     0.00000     0.00000     0.00000
Na    -7.40607     0.00001    -0.00001
Na    -1.13066    -4.58721    -0.33934
Na     1.13066     4.58722     0.33933
 N     1.18498    -1.51378    -0.11199
 N     1.18497     0.85387    -1.25499
 N     1.18497     0.65991     1.36696
 N    -1.18497     1.51379     0.11197
 N    -1.18497    -0.85386     1.25498
 N    -1.18497    -0.65991    -1.36697
 O     0.59249    -2.82114    -0.20869
 O     0.59249     1.59131    -2.33884
 O     0.59248     1.22984     2.54752
 O    -0.59248     2.82115     0.20869
 O    -0.59249    -1.59130     2.33883
 O    -0.59248    -1.22983    -2.54753
 O     2.33539    -1.77984    -0.13166
 O     2.33539     1.00395    -1.47556
 O     2.33538     0.77590     1.60722
 O    -2.33537     1.77985     0.13166
 O    -2.33538    -1.00394     1.47555
 O    -2.33537    -0.77589    -1.60722
Ir     4.93738    -2.58749     3.80299
Na    -2.46869    -2.58748     3.80298
Na     3.80672    -7.17470     3.46365
Na     6.06804     1.99973     4.14232
 N     6.12236    -4.10127     3.69100
 N     6.12235    -1.73362     2.54799
 N     6.12235    -1.92758     5.16995
 N     3.75241    -1.07370     3.91496
 N     3.75241    -3.44135     5.05797
 N     3.75241    -3.24740     2.43601
 O     5.52987    -5.40863     3.59429
 O     5.52987    -0.99618     1.46415
 O     5.52986    -1.35765     6.35051
 O     4.34490     0.23366     4.01168
 O     4.34489    -4.17879     6.14182
 O     4.34490    -3.81732     1.25546
 O     7.27277    -4.36733     3.67132
 O     7.27277    -1.58354     2.32742
 O     7.27276    -1.81159     5.41021
 O     2.60201    -0.80764     3.93465
 O     2.60200    -3.59143     5.27854
 O     2.60201    -3.36338     2.19577
Ir     4.93738     4.58722     0.33934
Na    -2.46869     4.58723     0.33933
Na     3.80673     0.00001     0.00000
Na     6.06804     9.17444     0.67867
 N     6.12236     3.07344     0.22735
 N     6.12236     5.44109    -0.91565
 N     6.12235     5.24713     1.70630
 N     3.75241     6.10100     0.45131
 N     3.75241     3.73336     1.59432
 N     3.75241     3.92731    -1.02764
 O     5.52987     1.76608     0.13064
 O     5.52987     6.17853    -1.99950
 O     5.52986     5.81706     2.88686
 O     4.34490     7.40837     0.54803
 O     4.34489     2.99592     2.67817
 O     4.34490     3.35739    -2.20819
 O     7.27277     2.80737     0.20767
 O     7.27277     5.59117    -1.13623
 O     7.27276     5.36311     1.94656
 O     2.60201     6.36706     0.47100
 O     2.60200     3.58328     1.81489
 O     2.60201     3.81133    -1.26788
Ir     9.87476     1.99973     4.14232
Na     2.46869     1.99974     4.14232
Na     8.74411    -2.58748     3.80299
Na    11.00542     6.58695     4.48166
 N    11.05974     0.48595     4.03034
 N    11.05974     2.85360     2.88733
 N    11.05973     2.65963     5.50928
 N     8.68979     3.51351     4.25430
 N     8.68979     1.14586     5.39730
 N     8.68979     1.33982     2.77535
 O    10.46725    -0.82141     3.93363
 O    10.46725     3.59104     1.80349
 O    10.46724     3.22957     6.68985
 O     9.28228     4.82087     4.35101
 O     9.28227     0.40843     6.48116
 O     9.28228     0.76990     1.59479
 O    12.21015     0.21988     4.01066
 O    12.21015     3.00368     2.66676
 O    12.21014     2.77562     5.74955
 O     7.53939     3.77957     4.27398
 O     7.53938     0.99579     5.61788
 O     7.53939     1.22384     2.53510
Ir     4.93738    -1.99974    -4.14232
Na    -2.46869    -1.99973    -4.14232
Na     3.80673    -6.58695    -4.48166
Na     6.06804     2.58748    -3.80299
 N     6.12236    -3.51352    -4.25430
 N     6.12236    -1.14587    -5.39731
 N     6.12235    -1.33983    -2.77536
 N     3.75241    -0.48595    -4.03035
 N     3.75242    -2.85360    -2.88734
 N     3.75241    -2.65965    -5.50929
 O     5.52987    -4.82087    -4.35101
 O     5.52987    -0.40843    -6.48116
 O     5.52987    -0.76990    -1.59479
 O     4.34490     0.82141    -3.93363
 O     4.34490    -3.59104    -1.80349
 O     4.34490    -3.22957    -6.68985
 O     7.27277    -3.77958    -4.27398
 O     7.27277    -0.99579    -5.61788
 O     7.27276    -1.22384    -2.53510
 O     2.60201    -0.21989    -4.01066
 O     2.60200    -3.00368    -2.66677
 O     2.60201    -2.77563    -5.74954
Ir     9.87476    -4.58723    -0.33933
Na     2.46869    -4.58722    -0.33934
Na     8.74411    -9.17444    -0.67867
Na    11.00543    -0.00001     0.00000
 N    11.05974    -6.10101    -0.45132
 N    11.05974    -3.73336    -1.59432
 N    11.05973    -3.92732     1.02763
 N     8.68979    -3.07344    -0.22736
 N     8.68980    -5.44109     0.91565
 N     8.68979    -5.24714    -1.70631
 O    10.46725    -7.40836    -0.54803
 O    10.46725    -2.99592    -2.67817
 O    10.46725    -3.35739     2.20819
 O     9.28228    -1.76608    -0.13064
 O     9.28228    -6.17853     1.99950
 O     9.28228    -5.81706    -2.88686
 O    12.21015    -6.36707    -0.47100
 O    12.21015    -3.58328    -1.81490
 O    12.21014    -3.81133     1.26789
 O     7.53939    -2.80738    -0.20767
 O     7.53938    -5.59117     1.13622
 O     7.53939    -5.36312    -1.94655
Ir     9.87476     2.58748    -3.80298
Na     2.46869     2.58749    -3.80299
Na     8.74411    -1.99973    -4.14232
Na    11.00543     7.17470    -3.46365
 N    11.05974     1.07370    -3.91497
 N    11.05974     3.44135    -5.05797
 N    11.05973     3.24739    -2.43602
 N     8.68979     4.10127    -3.69101
 N     8.68980     1.73362    -2.54800
 N     8.68979     1.92757    -5.16995
 O    10.46725    -0.23366    -4.01168
 O    10.46725     4.17879    -6.14182
 O    10.46725     3.81732    -1.25546
 O     9.28228     5.40863    -3.59429
 O     9.28228     0.99618    -1.46415
 O     9.28228     1.35765    -6.35051
 O    12.21015     0.80764    -3.93465
 O    12.21015     3.59143    -5.27855
 O    12.21014     3.36338    -2.19576
 O     7.53939     4.36733    -3.67132
 O     7.53938     1.58354    -2.32743
 O     7.53939     1.81159    -5.41020
Ir    14.81214    -0.00001     0.00001
Na     7.40607     0.00000     0.00000
Na    13.68149    -4.58722    -0.33933
Na    15.94281     4.58721     0.33934
 N    15.99712    -1.51379    -0.11198
 N    15.99712     0.85386    -1.25499
 N    15.99711     0.65990     1.36696
 N    13.62717     1.51377     0.11198
 N    13.62718    -0.85387     1.25499
 N    13.62717    -0.65992    -1.36697
 O    15.40463    -2.82115    -0.20869
 O    15.40463     1.59130    -2.33883
 O    15.40463     1.22983     2.54753
 O    14.21966     2.82114     0.20869
 O    14.21966    -1.59131     2.33884
 O    14.21966    -1.22984    -2.54753
 O    17.14753    -1.77986    -0.13166
 O    17.14753     1.00394    -1.47556
 O    17.14752     0.77588     1.60723
 O    12.47677     1.77983     0.13167
 O    12.47676    -1.00395     1.47556
 O    12.47677    -0.77590    -1.60722
