  116
 
Na     0.00000     0.00000     0.00000
 O    -0.51346     0.06126     6.84353
 O    -6.63269     3.69779     5.65273
 O    -0.65222    -3.18579     0.37513
 O    -1.48130     4.37724     6.19712
 O     4.49369    -1.29373    -4.20335
 O    -1.99303     5.09713    -4.82064
 O     0.32846    -1.67550     3.62238
 O    -4.75285     0.27484     3.27679
 O     7.68115     3.07433    -0.01599
 O    -1.39801     2.83425    -2.45247
 O     3.19662     1.23162     6.01805
 O    -3.06534     0.72996     6.97298
 O     3.20064    -3.18348    -5.51043
 O    -1.98806    11.88605    -1.90579
 O     3.70937    -1.74119     5.39324
 O    -3.34259    -3.40703    -0.30278
 O    -5.07012     2.39988     7.49840
 O     2.00230    -0.79076     7.28505
 O   -10.69352     0.17973     1.18746
 O    -2.54604    -1.10861     0.69828
 O    -4.18969     4.74585     6.45844
 O     0.07529    -2.53202     6.23575
 O   -11.39984    -2.27820     0.45434
As    -1.93891    -2.44752    -0.38965
As    -5.68274     3.86556     7.00588
As     0.39124    -1.24016     7.44662
As   -10.01750    -1.09152     0.28986
 O    -1.82388     0.13393     4.63618
 O     4.91544     9.23370    -1.00852
 O     6.97455    -4.31008    -5.11218
 O    -6.69140     4.45532     3.18650
 O    -1.58851    -1.69504    -1.78807
 O    -6.36800     4.88496     8.10752
 O    -0.03276    -1.92949     8.85827
 O    -9.86464    -0.85293    -1.33380
 O    -0.93659     4.40930     3.68529
 O     2.54129     0.53039     1.25021
 O    -3.08755     3.89345    -0.61955
 O     1.65400    -4.49059    -0.57940
 O     5.21285     7.58487     1.03629
 O    -1.21223     1.13732     2.25579
 O     5.29972     1.75922     2.68214
 O    -4.48359     0.31151    -4.02045
 O     2.18619     0.66418    -1.64514
 O     0.83513     1.86224     5.23487
 O     5.78764    -2.68486     4.20544
 O    -2.95674     8.41906    -2.06644
Na     7.03940     3.54215     3.53271
Na    -5.57636     3.89191     0.83906
Na     2.96451     6.15714     1.79598
Na    -3.98923    -1.35507    -2.25740
Na     6.35014    -3.56727     0.83215
Na    -6.03768     6.52324     5.47454
Na    -0.81803     4.10115     1.13558
 H    -0.89427     3.71801     6.66818
 H     3.73224    -0.65226    -3.98226
 H    -2.69976     5.37700    -4.14300
 H     1.32414    -1.76701     3.57734
 H     8.50607     3.11450    -0.56918
 H    -5.15024     0.54312     4.15911
 H     2.62877     0.55761     6.55542
 H    -0.49676     3.31246    -2.38809
 H    -3.36888     1.66065     7.16216
 H     3.93878    -2.85126    -4.95491
 H    -1.05411    11.71826    -2.34798
 H     2.99095    -1.45906     6.06337
 H    -5.47740    -0.15048     2.72024
 H     7.27922     2.14395    -0.15808
 H    -1.91393     3.21521    -3.22380
 H     2.62949     1.58846     5.28439
 H    -1.11656     5.34127     6.30716
 H     5.31933    -0.96432    -3.75730
 H    -2.21719     4.16098    -5.13254
 H    -0.05696    -2.36218     3.02971
 H    -2.08043     0.58581     7.19668
 H     3.54686    -3.09601    -6.60358
 H    -2.64633    11.25777    -2.28959
 H     3.47948    -2.61403     5.02627
 H    -3.04379    -1.29089     1.51935
 H    -3.30129     4.39486     6.28412
 H     0.21965    -2.45758     5.27062
 H   -12.26733    -2.06541     0.85555
 H    -1.23192    -0.23670     5.40723
 H     4.00998     9.25393    -1.46041
 H     6.89411    -3.82206    -6.05915
 H    -6.35244     4.10225     4.10532
 H    -0.52153     5.29696     3.88083
 H     2.43414     1.53447     1.13132
 H    -3.82813     4.33183    -1.16267
 H     1.06067    -4.11217     0.12228
 H     0.30037     1.03703     5.45701
 H     2.16267     1.61263    -1.21599
 H    -3.24807     7.54076    -2.43720
 H     5.06818    -3.29065     3.78788
 H    -1.42975     4.12546     4.50885
 H     3.31959     0.25690     0.71132
 H    -2.56072     3.32878    -1.28078
 H     1.94434    -3.76388    -1.19262
 H     5.03414     8.51455     0.70606
 H    -0.94849     0.87909     3.19003
 H     4.70323     1.55968     1.96413
 H    -5.28570     0.80060    -4.33271
 H     3.09407     0.30515    -1.49556
 H     0.39518     2.38100     4.54538
 H     6.10614    -3.10547     5.02479
 H    -3.49827     9.13871    -2.45937
 H     5.53500     8.60660    -1.48849
 H    -2.58476     0.60280     5.03734
 H    -7.64892     4.20719     3.11133
 H     6.15320    -4.20747    -4.63848
 H     5.72870     7.12848     0.33530
 H    -2.01235     0.57606     2.06025
 H     5.16873     1.06348     3.45133
 H    -3.83710     0.24386    -4.81044
 O    -8.66459    -1.68349     0.99418
