  128
 
Na     0.00000     0.00000     0.00000
Na    -6.18347     1.43348    -0.72256
Na    -3.09174     0.89884     0.00000
Na     3.19423    -0.18211    -0.36128
Na    -6.61051    -1.55293     0.78277
Na    -6.28596    -0.80081    -3.37194
Na     3.19423    -1.69966    -3.37194
Na     2.76719    -2.80430     1.86661
Na    -6.71300    -3.78722    -1.86661
Na    -0.32454    -3.78722    -1.86661
Na     2.76719    -4.32185    -1.14405
Na    -3.51877    -3.96933    -2.22789
Na     0.10249    -0.80081    -3.37194
Na    -0.42703    -2.98641     1.50533
Na    -3.51877    -2.45178     0.78277
Na    -3.09174    -0.61871    -3.01066
 C    -1.68004     0.36972     2.17640
 C    -5.25006    -2.64014     2.74362
 C    -5.35750    -3.00970     3.87983
 C    -1.78748    -0.76347     1.79767
 C    -4.93047    -1.92265    -1.39363
 C    -8.07345     0.33508     2.19386
 C    -7.96601     0.70464     1.05765
 C    -4.82303    -0.78947    -1.01489
 C    -8.39304    -3.41751     0.30979
 C     1.46294    -1.88801    -1.41109
 C     1.35550    -2.25758    -0.27488
 C    -8.50048    -4.55069    -0.06894
 C     0.92846    -4.10825     3.48363
 C    -2.21452    -4.88562     1.04981
 C    -2.10708    -4.51605    -0.08640
 C     1.03591    -2.97506     3.86237
Na     0.00000     3.03510     6.02131
Na    -6.18347     4.46858     5.29876
Na    -3.09174     3.93395     6.02131
Na     3.19423     2.85300     5.66003
Na    -6.61051     1.48217     6.80408
Na    -6.28596     2.23429     2.64938
Na     3.19423     1.33545     2.64938
Na     2.76719     0.23080     7.88792
Na    -6.71300    -0.75212     4.15471
Na    -0.32454    -0.75212     4.15471
Na     2.76719    -1.28675     4.87726
Na    -3.51877    -0.93423     3.79343
Na     0.10249     2.23429     2.64938
Na    -0.42703     0.04869     7.52664
Na    -3.51877     0.58332     6.80408
Na    -3.09174     2.41640     3.01066
 C    -1.68004     3.40482     8.19771
 C    -5.25006     0.39497     8.76493
 C    -5.35750     0.02541     9.90114
 C    -1.78748     2.27163     7.81898
 C    -4.93046     1.11245     4.62768
 C    -8.07345     3.37018     8.21517
 C    -7.96601     3.73974     7.07896
 C    -4.82303     2.24564     5.00642
 C    -8.39304    -0.38240     6.33111
 C     1.46294     1.14709     4.61022
 C     1.35550     0.77753     5.74643
 C    -8.50048    -1.51559     5.95237
 C     0.92847    -1.07314     9.50495
 C    -2.21452    -1.85051     7.07112
 C    -2.10708    -1.48095     5.93491
 C     1.03591     0.06004     9.88368
Na     0.85407     5.97282    -3.01066
Na    -5.32941     7.40629    -3.73321
Na    -2.23767     6.87166    -3.01066
Na     4.04829     5.79071    -3.37194
Na    -5.75644     4.41989    -2.22789
Na    -5.43190     5.17201    -6.38259
Na     4.04829     4.27316    -6.38259
Na     3.62126     3.16852    -1.14405
Na    -5.85893     2.18560    -4.87726
Na     0.52952     2.18560    -4.87726
Na     3.62126     1.65096    -4.15471
Na    -2.66470     2.00349    -5.23854
Na     0.95655     5.17201    -6.38259
Na     0.42703     2.98641    -1.50533
Na    -2.66470     3.52104    -2.22789
Na    -2.23767     5.35411    -6.02131
 C    -0.82598     6.34254    -0.83426
 C    -4.39599     3.33268    -0.26704
 C    -4.50343     2.96312     0.86917
 C    -0.93342     5.20935    -1.21299
 C    -4.07640     4.05017    -4.40429
 C    -7.21938     6.30790    -0.81680
 C    -7.11194     6.67746    -1.95301
 C    -3.96896     5.18335    -4.02555
 C    -7.53897     2.55531    -2.70086
 C     2.31700     4.08480    -4.42175
 C     2.20957     3.71524    -3.28554
 C    -7.64641     1.42213    -3.07960
 C     1.78253     1.86457     0.47298
 C    -1.36045     1.08720    -1.96085
 C    -1.25301     1.45676    -3.09706
 C     1.88997     2.99776     0.85171
Na     0.85407     9.00792     3.01066
Na    -5.32941    10.44140     2.28810
Na    -2.23767     9.90676     3.01066
Na     4.04829     8.82581     2.64938
Na    -5.75644     7.45499     3.79343
Na    -5.43190     8.20711    -0.36128
Na     4.04829     7.30826    -0.36128
Na     3.62126     6.20362     4.87726
Na    -5.85893     5.22070     1.14405
Na     0.52952     5.22070     1.14405
Na     3.62126     4.68607     1.86661
Na    -2.66470     5.03859     0.78277
Na     0.95655     8.20711    -0.36128
Na     0.42703     6.02151     4.51598
Na    -2.66470     6.55614     3.79343
Na    -2.23767     8.38921    -0.00000
 C    -0.82598     9.37764     5.18706
 C    -4.39599     6.36778     5.75427
 C    -4.50343     5.99822     6.89048
 C    -0.93342     8.24445     4.80832
 C    -4.07640     7.08527     1.61703
 C    -7.21938     9.34300     5.20452
 C    -7.11194     9.71256     4.06831
 C    -3.96896     8.21845     1.99576
 C    -7.53897     5.59041     3.32045
 C     2.31700     7.11991     1.59957
 C     2.20957     6.75034     2.73578
 C    -7.64641     4.45723     2.94171
 C     1.78253     4.89968     6.49429
 C    -1.36045     4.12230     4.06047
 C    -1.25301     4.49187     2.92426
 C     1.88997     6.03286     6.87303
