  112
 
Na     0.00000     0.00000     0.00000
Na     6.78551     0.00000     0.00000
Na     3.93252     3.81069     0.00000
Na     2.85300     0.69809    -3.74620
Na     1.51187     1.94102     2.33613
Na     3.39276     0.00000     0.00000
Na     1.34112    -5.75170    -2.33613
Na    -0.53976    -3.81069     0.00000
Cr     5.23347     2.07116     2.49276
Cr     1.55204    -2.07115    -2.49276
Cr     1.30096     2.76924    -1.25344
Cr     5.48456     1.73953    -2.49276
 O     2.11860     2.05585    -0.00240
 O     4.66691     0.37897    -2.02062
 O     2.11860    -0.37897     2.02062
 O     4.66691    -2.05586     0.00240
 O     6.05112     1.35777     3.74380
 O     0.73439    -3.43171    -2.02062
 O     6.05112     3.43171     2.02062
 O     0.73440    -1.35777    -3.74380
 O     1.66174    -1.02889    -1.23833
 O     5.12377     1.02889     1.23833
 O    -0.70080     1.40918     1.69603
 O     3.72454     2.47285     2.97622
 O     5.59426     2.78180    -1.23833
 O     1.19126     1.72697    -2.50787
 O     6.99348     1.33784    -2.97622
 O    -0.20797     3.17094    -0.76998
Na     3.76177    -3.88203    -4.67226
Na    10.54728    -3.88203    -4.67226
Na     7.69428    -0.07134    -4.67226
Na     6.61476    -3.18394    -8.41845
Na     5.27364    -1.94101    -2.33613
Na     7.15452    -3.88203    -4.67226
Na     5.10289    -9.63373    -7.00838
Na     3.22200    -7.69272    -4.67226
Cr     8.99524    -1.81088    -2.17950
Cr     5.31381    -5.95319    -7.16501
Cr     5.06272    -1.11279    -5.92570
Cr     9.24632    -2.14250    -7.16501
 O     5.88037    -1.82618    -4.67465
 O     8.42868    -3.50306    -6.69288
 O     5.88037    -4.26101    -2.65163
 O     8.42868    -5.93789    -4.66986
 O     9.81288    -2.52426    -0.92846
 O     4.49616    -7.31374    -6.69288
 O     9.81288    -0.45032    -2.65163
 O     4.49616    -5.23980    -8.41606
 O     5.42350    -4.91092    -5.91058
 O     8.88554    -2.85314    -3.43393
 O     3.06097    -2.47285    -2.97622
 O     7.48631    -1.40918    -1.69603
 O     9.35602    -1.10023    -5.91058
 O     4.95302    -2.15506    -7.18013
 O    10.75525    -2.54419    -7.64848
 O     3.55379    -0.71109    -5.44223
Na     0.00000     4.50877    -3.74620
Na     6.78551     4.50877    -3.74620
Na     3.93252     8.31946    -3.74620
Na     2.85300     5.20686    -7.49240
Na     1.51187     6.44979    -1.41007
Na     3.39276     4.50877    -3.74620
Na     1.34112    -1.24293    -6.08233
Na    -0.53976     0.69809    -3.74620
Cr     5.23347     6.57993    -1.25344
Cr     1.55204     2.43762    -6.23896
Cr     1.30096     7.27802    -4.99964
Cr     5.48456     6.24830    -6.23896
 O     2.11860     6.56463    -3.74860
 O     4.66691     4.88775    -5.76682
 O     2.11860     4.12980    -1.72557
 O     4.66691     2.45292    -3.74380
 O     6.05112     5.86654    -0.00240
 O     0.73440     1.07706    -5.76682
 O     6.05112     7.94048    -1.72557
 O     0.73440     3.15101    -7.49000
 O     1.66174     3.47989    -4.98452
 O     5.12377     5.53766    -2.50787
 O    -0.70080     5.91795    -2.05017
 O     3.72455     6.98162    -0.76998
 O     5.59426     7.29057    -4.98452
 O     1.19126     6.23575    -6.25407
 O     6.99349     5.84661    -6.72242
 O    -0.20797     7.67971    -4.51617
Na     3.76177     0.62674    -8.41845
Na    10.54728     0.62674    -8.41845
Na     7.69428     4.43743    -8.41845
Na     6.61476     1.32483   -12.16465
Na     5.27364     2.56776    -6.08233
Na     7.15452     0.62674    -8.41845
Na     5.10289    -5.12496   -10.75458
Na     3.22201    -3.18394    -8.41845
Cr     8.99524     2.69790    -5.92570
Cr     5.31381    -1.44441   -10.91121
Cr     5.06272     3.39599    -9.67189
Cr     9.24632     2.36627   -10.91121
 O     5.88037     2.68260    -8.42085
 O     8.42868     1.00572   -10.43908
 O     5.88037     0.24777    -6.39783
 O     8.42868    -1.42911    -8.41605
 O     9.81288     1.98451    -4.67465
 O     4.49616    -2.80497   -10.43908
 O     9.81288     4.05845    -6.39783
 O     4.49616    -0.73102   -12.16225
 O     5.42351    -0.40214    -9.65678
 O     8.88554     1.65563    -7.18013
 O     3.06097     2.03592    -6.72242
 O     7.48631     3.09959    -5.44223
 O     9.35602     3.40854    -9.65678
 O     4.95302     2.35372   -10.92633
 O    10.75525     1.96458   -11.39468
 O     3.55379     3.79768    -9.18843
