  128
 
Na     0.00000     0.00000     0.00000
 P     0.58144    -4.67503    -3.21655
Na    -2.48205    -0.49723    -3.25768
 O     1.42577    -2.10178    -0.85815
 O    -3.81149     1.57318    -3.80792
 O    -0.31342    -0.97025    -2.10246
 O    -4.97925    -2.09956    -5.34433
 O     5.19080     2.90028    -0.07305
 O     0.35535    -3.15104    -2.85629
 O     2.63405     1.04198     0.49591
 H     2.89055     1.09662     1.41649
 H     3.29141     0.48105     0.07748
 P    -0.55741    -0.74857    -6.33510
 O    -0.94079    -0.26930    -7.84807
 O    -1.76939    -1.27040    -5.66733
 O     3.29687     4.35126     1.14661
 P    -3.24542     0.16859    -0.62044
 O    -0.55823     2.43682    -4.02393
 O    -3.35253    -1.38279    -0.85346
 O    -2.00130     0.79141    -1.15065
 O     3.23190     1.09538    -2.56433
 H     2.55668     0.38855    -2.63433
 H     4.05071     0.57976    -2.56080
Na    -2.93116     0.86975    -6.20587
Na     2.85629     3.48757    -0.99024
 O     0.29804     2.51720    -1.46274
 H     0.05010     2.39521    -2.37919
 H    -0.38599     3.07381    -1.08482
 O    -0.29666     2.30253     1.48272
 H     0.29035     3.07584     1.47961
 H    -1.17061     2.70884     1.60843
 P     0.90084    -1.75103    -2.35826
Na     5.94043    -2.71855     0.64448
 P     6.49277    -7.45077    -2.54349
Na     3.45647    -3.24368    -2.56904
 O     7.32192    -4.88620    -0.15895
 O     2.03742    -1.23778    -3.15521
 O     5.61972    -3.72932    -1.42789
 O     0.90124    -4.91826    -4.64088
 O    11.08615     0.16863     0.62697
 O     6.31324    -5.91616    -2.18466
 O     8.65837    -1.71583     1.12624
 H     8.89836    -1.65018     2.04874
 H     9.28618    -2.32907     0.73820
 P     5.43756    -3.48323    -5.68476
 O     4.97065    -3.01714    -7.17261
 O     4.26616    -4.03239    -4.96476
 O     9.30785     1.66026     1.71373
 P     2.67128    -2.55926     0.04993
 O     5.37114    -0.32866    -3.34776
 O     2.63743    -4.11436    -0.19432
 O     3.90259    -1.90610    -0.47610
 O     9.13434    -1.60734    -1.93635
 H     8.46746    -2.32415    -1.99038
 H     9.95296    -2.12134    -1.92476
Na     2.99064    -1.95660    -5.54914
Na     8.80888     0.74614    -0.38605
 O     6.32621    -0.23765    -0.82431
 H     6.06450    -0.36967    -1.73713
 H     5.63286     0.29944    -0.43348
 O     5.65390    -0.38843     2.11572
 H     6.26286     0.36865     2.12991
 H     4.79741     0.02386     2.29659
 P     6.83436    -4.51758    -1.66528
Na     3.45171     2.06044    -4.86626
 P     3.83691    -2.47075    -8.17105
Na     0.85459     1.53431    -8.00064
 O     4.68632    -0.02900    -5.74165
 O    -0.30058     3.68281    -8.59771
 O     3.18320     1.34655    -7.09155
 O    -1.61000     0.04161   -10.23454
 O     8.28659     4.75194    -4.69014
 O     3.72816    -0.92361    -7.83000
 O     6.00718     3.11134    -4.37959
 H     6.26995     3.18588    -3.46055
 H     6.69747     2.59406    -4.80232
 P     2.85907     1.42369   -11.29043
 O     2.18627     1.80292   -12.72783
 O     1.85182     0.68780   -10.49418
 O     6.87636     6.94996    -4.01310
 P    -0.11047     2.18406    -5.40492
 O     2.68740     4.56685    -8.87872
 O    -0.11925     0.63787    -5.73535
 O     1.21409     2.70287    -5.83583
 O     6.54544     3.30403    -7.35628
 H     5.96655     2.51909    -7.36810
 H     7.41547     2.89620    -7.50798
Na     0.24532     2.78736   -10.93194
Na     6.23926     5.58688    -5.81921
 O     3.62977     4.58597    -6.34597
 H     3.38471     4.45699    -7.26329
 H     2.95899     5.17123    -5.98851
 O     3.08630     4.40940    -3.33904
 H     3.76830     5.10480    -3.30175
 H     2.26938     4.92857    -3.35164
 P     4.31364     0.42232    -7.25928
Na     9.41028    -0.64098    -4.23500
 P     9.74253    -5.23955    -7.48008
Na     6.80536    -1.23207    -7.31390
 O    10.58420    -2.78853    -5.04861
 O     5.55123     0.87191    -7.93958
 O     9.11533    -1.40677    -6.42566
 O     4.31619    -2.75039    -9.53844
 O    14.16707     2.02017    -4.03045
 O     9.70305    -3.68972    -7.15404
 O    12.01633     0.35615    -3.75554
 H    12.25174     0.43394    -2.83144
 H    12.69966    -0.19125    -4.14967
 P     8.85274    -1.30515   -10.63971
 O     8.10237    -0.94032   -12.04406
 O     7.90019    -2.06667    -9.80117
 O    12.87062     4.26737    -3.40824
 P     5.81962    -0.56049    -4.73338
 O     8.60222     1.82488    -8.20577
 O     5.89808    -2.10678    -5.07496
 O     7.12206     0.01220    -5.16510
 O    12.48180     0.57834    -6.72382
 H    11.91574    -0.21702    -6.73370
 H    13.36079     0.17281    -6.84323
Na     6.20221    -0.00631   -10.24588
Na    12.19754     2.86955    -5.18724
 O     9.66748     1.84108    -5.72029
 H     9.39734     1.74146    -6.63468
 H     9.00226     2.40516    -5.32035
 O     9.06624     1.72189    -2.71962
 H     9.76440     2.39924    -2.65677
 H     8.26122     2.25026    -2.71125
 P    10.24544    -2.33398    -6.57047
