   80
 
 V     0.00000     0.00000     0.00000
Na    -0.02261     3.97244     0.00000
Na    -3.98149     0.00000     0.00000
Na     2.07038     2.28639    -2.20318
Na     1.88851     2.13920     1.76652
Na    -2.07038     1.83322    -1.76652
Na    -1.93373     1.68605     2.20319
 F    -5.75302     3.47662    -0.01984
 F     1.74893     0.00146     0.49621
 F    -2.25519     4.46825     0.01985
 F    -1.74892    -0.00146    -0.49621
 F    -4.25611     4.42262     1.78637
 F     0.25201    -1.76846    -0.51606
 F    -3.75210     3.52225    -1.78637
 F    -0.25200     1.76846     0.51606
 F    -3.51955     2.24515     0.51606
 F    -0.48456    -0.57970     1.70697
 F    -4.48866     5.69972    -0.51606
 F     0.48457     0.57971    -1.70697
 V    -4.00411     3.97243     0.00000
 V     0.00000    -4.11962     3.96971
Na    -0.02261    -0.14718     3.96971
Na    -3.98149    -4.11962     3.96971
Na     2.07038    -1.83323     1.76653
Na     1.88851    -1.98042     5.73623
Na    -2.07038    -2.28639     2.20319
Na    -1.93373    -2.43357     6.17290
 F    -5.75302    -0.64300     3.94986
 F     1.74893    -4.11816     4.46592
 F    -2.25519     0.34863     3.98955
 F    -1.74892    -4.12108     3.47350
 F    -4.25611     0.30300     5.75608
 F     0.25201    -5.88808     3.45364
 F    -3.75210    -0.59737     2.18334
 F    -0.25200    -2.35116     4.48577
 F    -3.51955    -1.87447     4.48577
 F    -0.48456    -4.69932     5.67668
 F    -4.48866     1.58010     3.45365
 F     0.48457    -3.53991     2.26273
 V    -4.00411    -0.14718     3.96971
 V     0.04522    -3.82525    -3.96971
Na     0.02261     0.14718    -3.96971
Na    -3.93627    -3.82525    -3.96971
Na     2.11560    -1.53886    -6.17289
Na     1.93374    -1.68605    -2.20319
Na    -2.02516    -1.99203    -5.73623
Na    -1.88850    -2.13921    -1.76651
 F    -5.70780    -0.34863    -3.98955
 F     1.79415    -3.82379    -3.47350
 F    -2.20996     0.64300    -3.94986
 F    -1.70370    -3.82671    -4.46592
 F    -4.21089     0.59737    -2.18334
 F     0.29724    -5.59371    -4.48577
 F    -3.70688    -0.30300    -5.75608
 F    -0.20678    -2.05679    -3.45365
 F    -3.47432    -1.58010    -3.45365
 F    -0.43934    -4.40496    -2.26273
 F    -4.44344     1.87447    -4.48577
 F     0.52979    -3.24555    -5.67668
 V    -3.95888     0.14718    -3.96971
 V     0.04522    -7.94487    -0.00000
Na     0.02261    -3.97243    -0.00000
Na    -3.93627    -7.94487    -0.00000
Na     2.11560    -5.65848    -2.20318
Na     1.93374    -5.80567     1.76652
Na    -2.02516    -6.11165    -1.76652
Na    -1.88850    -6.25883     2.20319
 F    -5.70780    -4.46825    -0.01985
 F     1.79415    -7.94341     0.49621
 F    -2.20996    -3.47662     0.01984
 F    -1.70370    -7.94633    -0.49621
 F    -4.21089    -3.52225     1.78637
 F     0.29724    -9.71333    -0.51606
 F    -3.70688    -4.42262    -1.78637
 F    -0.20678    -6.17641     0.51606
 F    -3.47432    -5.69972     0.51606
 F    -0.43934    -8.52458     1.70697
 F    -4.44344    -2.24515    -0.51606
 F     0.52979    -7.36516    -1.70698
 V    -3.95888    -3.97244    -0.00000
