   64
 
Zn     0.00000     0.00000     0.00000
Se     2.40750    -0.02300    -0.00160
Zn    -3.26452     4.50662    -0.01084
Se    -0.85734     4.48548    -0.01255
Zn    -3.23466     1.14650     1.97661
Se    -0.82853     1.11440     1.96949
Zn    -6.49902     5.65360     1.96580
Se    -4.09232     5.61879     1.95895
Zn    -3.20701    -2.21836     3.96350
Se    -0.79969    -2.25420     3.95706
Zn    -6.47161     2.28836     3.95188
Se    -4.06516     2.25490     3.94488
Zn    -6.44074    -1.08092     5.93550
Se    -4.03345    -1.10595     5.93220
Zn    -9.70681     3.42501     5.92545
Se    -7.29830     3.39840     5.92073
Zn    -3.23109     1.14138    -1.97870
Se    -0.82521     1.10690    -1.97563
Zn    -6.49712     5.64761    -1.99052
Se    -4.08984     5.61260    -1.98673
Zn    -3.20642    -2.22702     0.00884
Se    -0.79762    -2.27103     0.00783
Zn    -6.46984     2.27980    -0.00211
Se    -4.06411     2.23764    -0.00432
Zn    -6.43843    -1.07798     1.98464
Se    -4.03300    -1.12427     1.98193
Zn    -9.70315     3.42765     1.97402
Se    -7.29696     3.38194     1.97040
Zn    -6.41340    -4.45519     3.96872
Se    -4.00292    -4.49146     3.97020
Zn    -9.67787     0.05226     3.95690
Se    -7.26998     0.01730     3.95772
Zn    -3.20087    -2.23115    -3.94731
Se    -0.79114    -2.26677    -3.94257
Zn    -6.46498     2.27592    -3.95866
Se    -4.05775     2.24211    -3.95323
Zn    -6.43440    -1.08527    -1.96957
Se    -4.02716    -1.13000    -1.97094
Zn    -9.69978     3.42073    -1.98072
Se    -7.29225     3.37583    -1.98186
Zn    -6.40863    -4.45108     0.01609
Se    -3.99907    -4.49779     0.01646
Zn    -9.67116     0.05639     0.00468
Se    -7.26481     0.01081     0.00533
Zn    -9.64127    -3.31286     1.98874
Se    -7.23255    -3.35077     1.99158
Zn   -12.90690     1.19294     1.97802
Se   -10.49852     1.15512     1.97947
Zn    -6.43045    -1.10188    -5.92031
Se    -4.02199    -1.12565    -5.92081
Zn    -9.69614     3.40344    -5.93380
Se    -7.28702     3.37894    -5.93191
Zn    -6.40672    -4.47070    -3.93464
Se    -3.99493    -4.50366    -3.93792
Zn    -9.66925     0.03715    -3.94465
Se    -7.26021     0.00497    -3.94786
Zn    -9.63829    -3.31972    -1.95712
Se    -7.22901    -3.35728    -1.96281
Zn   -12.90261     1.18583    -1.96889
Se   -10.49418     1.14863    -1.97346
Zn    -9.61296    -6.69938     0.02543
Se    -7.20089    -6.72504     0.02430
Zn   -12.87650    -2.19152     0.01454
Se   -10.46601    -2.21556     0.01363
