   96
 
Si     0.00000     0.00000     0.00000
 O    -3.05291     1.32906     2.81469
 O    -1.31507     3.06300     2.81017
 O    -0.86545     0.87129     1.40664
 O    -0.87087     0.86497    -1.40805
Si    -2.18713     2.19531     1.40547
Si    -2.19199     2.18996    -1.41047
 O     0.87113    -0.86522     1.40802
 O     0.86626    -0.87080    -1.40672
 O     1.32156     1.32244    -0.00488
Si     0.00535     0.00509     2.81578
 O    -1.32304    -1.32088     0.00203
Si    -0.00201    -0.00603    -5.63103
 O    -3.05942     1.31899    -2.81697
 O    -1.32430     3.05458    -2.81989
 O    -0.87198     0.86134    -4.22372
 O    -0.86617     0.86385    -7.03912
Si    -2.19333     2.18526    -4.22550
Si    -2.19262     2.18407    -7.04166
 O     0.86487    -0.87396    -4.22255
 O     0.86650    -0.87601    -7.03764
 O     1.31990     1.31517    -5.63462
Si    -0.00345    -0.00554    -2.81522
 O    -1.32676    -1.32618    -5.62507
Si     0.00086     4.38234    -0.00872
 O    -3.05249     5.71033     2.80748
 O    -1.31726     7.44612     2.80348
 O    -0.86401     5.25442     1.39870
 O    -0.86886     5.24735    -1.41877
Si    -2.18750     6.57654     1.39733
Si    -2.19206     6.56993    -1.41789
 O     0.86976     3.51543     1.39936
 O     0.86763     3.51214    -1.41549
 O     1.32488     5.70168    -0.01104
Si     0.00540     4.38769     2.80725
 O    -1.32314     3.06201    -0.00551
Si    -0.00319     4.37416    -5.63922
 O    -3.05997     5.70065    -2.82390
 O    -1.32392     7.43501    -2.82677
 O    -0.86976     5.24535    -4.23251
 O    -0.87147     5.24125    -7.04800
Si    -2.19315     6.56762    -4.23346
Si    -2.19315     6.56569    -7.04844
 O     0.86241     3.50465    -4.23097
 O     0.86549     3.50539    -7.04541
 O     1.31963     5.69570    -5.64265
Si    -0.00213     4.37694    -2.82426
 O    -1.32586     3.05252    -5.63449
Si     4.37992    -0.00080    -0.00384
 O     1.32717     1.32705     2.81106
 O     3.06121     3.06275     2.80743
 O     3.51386     0.86961     1.40367
 O     3.51125     0.86505    -1.41256
Si     2.19179     2.19259     1.40104
Si     2.18771     2.18705    -1.41463
 O     5.24934    -0.86884     1.40374
 O     5.24554    -0.87442    -1.40975
 O     5.70233     1.32079    -0.00688
Si     4.38394     0.00241     2.81167
 O     3.05633    -1.32129    -0.00216
Si     4.37590    -0.00820    -5.63428
 O     1.31934     1.31621    -2.81930
 O     3.05375     3.05416    -2.82384
 O     3.50863     0.86094    -4.22621
 O     3.51004     0.85908    -7.04403
Si     2.18636     2.18359    -4.22830
Si     2.18735     2.18161    -7.04485
 O     5.24363    -0.87739    -4.22595
 O     5.24428    -0.87924    -7.04103
 O     5.69852     1.31275    -5.63887
Si     4.37799    -0.00702    -2.81881
 O     3.05275    -1.32853    -5.63121
Si     4.38067     4.37770    -0.01247
 O     1.32750     5.70886     2.80331
 O     3.06464     7.44107     2.79930
 O     3.51693     5.25061     1.39449
 O     3.50946     5.24283    -1.42038
Si     2.19507     6.57301     1.39324
Si     2.18981     6.56762    -1.42182
 O     5.25110     3.51194     1.39675
 O     5.24607     3.50615    -1.41962
 O     5.70351     5.69938    -0.01416
Si     4.38548     4.38284     2.80368
 O     3.05778     3.05706    -0.00929
Si     4.37753     4.37049    -5.64218
 O     1.32040     5.69900    -2.82810
 O     3.05716     7.43350    -2.83055
 O     3.51085     5.24252    -4.23597
 O     3.50853     5.23595    -7.05090
Si     2.18813     6.56490    -4.23658
Si     2.18920     6.56054    -7.05201
 O     5.24559     3.50288    -4.23380
 O     5.24526     3.49982    -7.04914
 O     5.69803     5.69477    -5.64665
Si     4.37806     4.37386    -2.82780
 O     3.05452     3.05034    -5.63730
