   96
 
Sr     0.00000     0.00000     0.00000
Cl    -3.01781    -0.00082     0.00000
Cl     3.01897    -0.00000     0.00000
Sr    -4.02298    -1.42356     2.46427
Sr    -4.02298    -1.42356    -2.46427
Cl     1.00690     1.42275     2.46427
Cl     1.00690     1.42275    -2.46427
Cl     1.00632    -2.84631     0.00000
Cl    -1.00574    -1.42356     2.46427
Cl    -1.00574    -1.42356    -2.46427
Cl    -1.00517     2.84549     0.00000
Sr    -4.02529     2.84631     0.00000
Sr     4.02355     5.69261     0.00000
Cl     1.00574     5.69180     0.00000
Cl     7.04252     5.69261     0.00000
Sr     0.00058     4.26905     2.46427
Sr     0.00058     4.26905    -2.46427
Cl     5.03045     7.11536     2.46427
Cl     5.03045     7.11536    -2.46427
Cl     5.02988     2.84631     0.00000
Cl     3.01781     4.26905     2.46427
Cl     3.01781     4.26905    -2.46427
Cl     3.01839     8.53811     0.00000
Sr    -0.00173     8.53892     0.00000
Sr     4.02471    -2.84590     4.92924
Cl     1.00690    -2.84672     4.92924
Cl     7.04367    -2.84590     4.92924
Sr     0.00173    -4.26946     7.39351
Sr     0.00173    -4.26946     2.46497
Cl     5.03161    -1.42315     7.39351
Cl     5.03161    -1.42315     2.46497
Cl     5.03103    -5.69221     4.92924
Cl     3.01896    -4.26946     7.39351
Cl     3.01896    -4.26946     2.46497
Cl     3.01954    -0.00041     4.92924
Sr    -0.00058     0.00041     4.92924
Sr     8.04826     2.84672     4.92924
Cl     5.03045     2.84590     4.92924
Cl    11.06723     2.84671     4.92924
Sr     4.02529     1.42315     7.39351
Sr     4.02529     1.42315     2.46497
Cl     9.05516     4.26946     7.39351
Cl     9.05516     4.26946     2.46497
Cl     9.05458     0.00041     4.92924
Cl     7.04252     1.42315     7.39351
Cl     7.04252     1.42315     2.46497
Cl     7.04310     5.69221     4.92924
Sr     4.02298     5.69302     4.92924
Sr     4.02471    -2.84590    -4.92924
Cl     1.00690    -2.84672    -4.92924
Cl     7.04367    -2.84590    -4.92924
Sr     0.00173    -4.26946    -2.46497
Sr     0.00173    -4.26946    -7.39351
Cl     5.03161    -1.42315    -2.46497
Cl     5.03161    -1.42315    -7.39351
Cl     5.03103    -5.69221    -4.92924
Cl     3.01896    -4.26946    -2.46497
Cl     3.01896    -4.26946    -7.39351
Cl     3.01954    -0.00041    -4.92924
Sr    -0.00058     0.00041    -4.92924
Sr     8.04826     2.84672    -4.92924
Cl     5.03045     2.84590    -4.92924
Cl    11.06723     2.84672    -4.92924
Sr     4.02529     1.42315    -2.46497
Sr     4.02529     1.42315    -7.39351
Cl     9.05516     4.26946    -2.46497
Cl     9.05516     4.26946    -7.39351
Cl     9.05458     0.00041    -4.92924
Cl     7.04252     1.42315    -2.46497
Cl     7.04252     1.42315    -7.39351
Cl     7.04310     5.69221    -4.92924
Sr     4.02298     5.69302    -4.92924
Sr     8.04942    -5.69180    -0.00000
Cl     5.03161    -5.69261     0.00000
Cl    11.06838    -5.69180    -0.00000
Sr     4.02644    -7.11536     2.46427
Sr     4.02644    -7.11536    -2.46427
Cl     9.05632    -4.26905     2.46427
Cl     9.05632    -4.26905    -2.46427
Cl     9.05574    -8.53811    -0.00000
Cl     7.04367    -7.11536     2.46427
Cl     7.04367    -7.11536    -2.46427
Cl     7.04425    -2.84631     0.00000
Sr     4.02413    -2.84549     0.00000
Sr    12.07297     0.00082    -0.00000
Cl     9.05516     0.00000     0.00000
Cl    15.09194     0.00082    -0.00000
Sr     8.05000    -1.42275     2.46427
Sr     8.05000    -1.42275    -2.46427
Cl    13.07987     1.42356     2.46427
Cl    13.07987     1.42356    -2.46427
Cl    13.07929    -2.84549    -0.00000
Cl    11.06723    -1.42275     2.46427
Cl    11.06723    -1.42275    -2.46427
Cl    11.06781     2.84631     0.00000
Sr     8.04769     2.84712     0.00000
