  288
 
Sr     0.00000     0.00000     0.00000
 O     1.59876    -1.45390    -0.29663
Sr    -3.60761    -3.61892    -0.00358
 N    -1.25680    -1.25316    -2.36436
 O    -0.29358    -2.01880    -2.17021
 N    -1.25437    -2.35851     1.25881
 O    -1.44897    -3.32724     2.01679
 N     1.24332     2.36976    -1.26339
 O     1.42833     3.33816    -2.02512
 O     3.34161    -1.59362     2.18103
 O     0.28875     1.59464    -1.46056
 O    -3.32476     2.02089     1.45272
 O     1.45786     0.29413     1.59313
 O    -2.18183     3.33608    -1.59407
 O     2.16884    -0.29070    -2.02226
 O     2.00552     2.18421    -0.29510
 O    -2.01271    -1.43901    -3.33740
 O    -1.59569     1.45451     0.29246
 O     0.29207     2.01523     2.17005
 O    -3.33298     1.60110    -2.15977
 O    -0.28908    -1.59596     1.45698
 O     3.33504    -2.01337    -1.44826
 O    -1.45604    -0.29354    -1.59584
 O     2.18223    -3.32114     1.60713
 O    -2.15823     0.29779     2.02420
 O    -2.01571    -2.16089     0.29277
Sr     0.01234    -3.62219     3.60704
 N     2.36476    -1.25525    -1.25886
 N    -2.37643     2.37332    -2.35944
 O     1.60714    -2.16085     3.33229
 O    -1.62211     2.18893    -3.33440
 O     2.02407     1.44944     3.32576
 N     2.37491    -2.35588     2.37109
 N     1.26082     1.25515     2.36065
Sr    -3.60283    -0.00648     3.62958
 N    -2.35749     1.26040     1.25906
Sr     0.00257     0.04194    -7.25722
 O     1.60464    -1.40722    -7.55911
Sr    -3.59609    -3.57845    -7.26410
 N    -1.23741    -1.21604    -9.62549
 O    -0.27229    -1.97776    -9.42741
 N    -1.24614    -2.31755    -5.99770
 O    -1.44102    -3.28914    -5.24278
 N     1.25872     2.40702    -8.51757
 O     1.45125     3.37338    -9.27997
 O     3.33273    -1.57321    -5.07319
 O     0.29540     1.64175    -8.71160
 O    -3.32091     2.06705    -5.79500
 O     1.46160     0.32689    -5.66217
 O    -2.16511     3.38355    -8.85280
 O     2.18102    -0.23956    -9.28011
 O     2.02205     2.21436    -7.55187
 O    -1.99363    -1.40743   -10.59677
 O    -1.60019     1.48577    -6.95848
 O     0.28700     2.03856    -5.07634
 O    -3.31488     1.64732    -9.41626
 O    -0.28347    -1.55317    -5.79788
 O     3.34535    -1.96284    -8.70639
 O    -1.44051    -0.25309    -8.86112
 O     2.17169    -3.29127    -5.66742
 O    -2.17551     0.32597    -5.23245
 O    -2.00726    -2.11910    -6.96413
Sr    -0.00058    -3.60306    -3.63967
 N     2.37365    -1.20589    -8.51798
 N    -2.35505     2.41629    -9.61386
 O     1.59593    -2.14780    -3.92957
 O    -1.59391     2.22340   -10.58143
 O     2.01263     1.46555    -3.91397
 N     2.36370    -2.33526    -4.89259
 N     1.25658     1.27932    -4.88640
Sr    -3.61301     0.00946    -3.62204
 N    -2.36396     1.29492    -5.99231
Sr    -0.03892     7.25576    -0.00104
 O     1.55852     5.79956    -0.29197
Sr    -3.63234     3.62436     0.00896
 N    -1.29470     5.99708    -2.37018
 O    -0.33279     5.22970    -2.17697
 N    -1.27350     4.88775     1.26587
 O    -1.45624     3.91447     2.02149
 N     1.21266     9.62947    -1.24792
 O     1.40686    10.59381    -2.01173
 O     3.29823     5.66915     2.17919
 O     0.25154     8.86203    -1.44665
 O    -3.36014     9.26970     1.47271
 O     1.41556     7.56050     1.59274
 O    -2.20911    10.58861    -1.57989
 O     2.13667     6.95966    -2.01591
 O     1.97128     9.43919    -0.27804
 O    -2.05772     5.81152    -3.33705
 O    -1.64110     8.70403     0.29750
 O     0.25773     9.28566     2.17578
 O    -3.37241     8.86455    -2.15540
 O    -0.31564     5.65955     1.46110
 O     3.30121     5.23771    -1.43338
 O    -1.48674     6.96037    -1.60348
 O     2.15612     3.92731     1.61270
 O    -2.18824     7.54850     2.03587
 O    -2.04174     5.08202     0.30429
Sr    -0.00731     3.61348     3.62053
 N     2.32999     5.99572    -1.25000
 N    -2.40980     9.63087    -2.34999
 O     1.57735     5.08145     3.34017
 O    -1.65450     9.44428    -3.32362
 O     1.98264     8.70399     3.33318
 N     2.34180     4.89600     2.37440
 N     1.22156     8.51912     2.36423
Sr    -3.64066     7.25462     3.63595
 N    -2.39377     8.50991     1.27117
Sr    -0.03480     7.29767    -7.25922
 O     1.56374     5.84388    -7.55240
Sr    -3.61881     3.66704    -7.24909
 N    -1.27454     6.03325    -9.63063
 O    -0.31099     5.26942    -9.43312
 N    -1.26496     4.93125    -5.98928
 O    -1.44885     3.95529    -5.23690
 N     1.23047     9.66614    -8.50283
 O     1.43020    10.63041    -9.26574
 O     3.29113     5.68827    -5.07191
 O     0.26271     8.90667    -8.69979
 O    -3.35524     9.31505    -5.77794
 O     1.42111     7.59313    -5.66362
 O    -2.19177    10.63630    -8.83809
 O     2.15089     7.00912    -9.27043
 O     1.99030     9.46961    -7.53555
 O    -2.03912     5.84039   -10.59456
 O    -1.64295     8.73564    -6.95495
 O     0.25069     9.30618    -5.07075
 O    -3.35059     8.90808    -9.40875
 O    -0.30960     5.70446    -5.79225
 O     3.31119     5.28468    -8.68884
 O    -1.46890     7.00176    -8.87026
 O     2.14732     3.95522    -5.65723
 O    -2.20449     7.57668    -5.22263
 O    -2.03253     5.12647    -6.95173
Sr    -0.02015     3.63329    -3.62537
 N     2.33957     6.04251    -8.50657
 N    -2.38657     9.67289    -9.60290
 O     1.56740     5.09433    -3.91833
 O    -1.62538     9.47898   -10.57013
 O     1.97108     8.72075    -3.90789
 N     2.33214     4.91547    -4.88540
 N     1.21714     8.54236    -4.88368
Sr    -3.65100     7.27298    -3.61683
 N    -2.39847     8.54430    -5.98229
Sr     7.25697     0.00455     0.03521
 O     8.86296    -1.44035    -0.26291
Sr     3.62451    -3.61125    -0.00029
 N     5.98553    -1.23212    -2.33400
 O     6.94920    -1.99982    -2.14699
 N     5.99215    -2.36239     1.28842
 O     5.79971    -3.32193     2.05832
 N     8.49973     2.37659    -1.22843
 O     8.67966     3.34833    -1.98703
 O    10.59619    -1.58114     2.20400
 O     7.54875     1.59744    -1.42682
 O     3.91584     2.03192     1.45101
 O     8.70941     0.29912     1.63550
 O     5.05700     3.34533    -1.58130
 O     9.42581    -0.27715    -1.99152
 O     9.26407     2.19159    -0.26166
 O     5.22849    -1.40999    -3.30726
 O     5.66653     1.47201     0.31818
 O     7.55334     2.02949     2.20481
 O     3.90603     1.61553    -2.16326
 O     6.95770    -1.59766     1.47948
 O    10.58955    -2.00385    -1.42728
 O     5.79027    -0.28007    -1.55527
 O     9.44036    -3.31288     1.63823
 O     5.07932     0.31218     2.03827
 O     5.23080    -2.17379     0.32080
Sr     7.27026    -3.60708     3.64481
 N     9.62325    -1.24251    -1.23014
 N     4.86995     2.38260    -2.34934
 O     8.87356    -2.15591     3.36909
 O     5.63883     2.19490    -3.31128
 O     9.28430     1.46156     3.36057
 N     9.63482    -2.34792     2.40158
 N     8.51858     1.26570     2.39777
Sr     3.62949     0.00553     3.63220
 N     4.88945     1.27548     1.27117
Sr     7.26090     0.04521    -7.22314
 O     8.87004    -1.39600    -7.52423
Sr     3.63380    -3.56898    -7.26368
 N     6.00817    -1.19185    -9.59742
 O     6.97335    -1.95563    -9.40382
 N     5.99758    -2.32165    -5.96850
 O     5.80445    -3.28386    -5.20198
 N     8.52276     2.41420    -8.47977
 O     8.70783     3.38589    -9.23767
 O    10.58850    -1.56380    -5.04766
 O     7.56266     1.64534    -8.67455
 O     3.91455     2.07117    -5.80272
 O     8.71439     0.33111    -5.62155
 O     5.07310     3.39265    -8.83743
 O     9.44102    -0.22777    -9.24720
 O     9.28998     2.22149    -7.51730
 O     5.25155    -1.37710   -10.56900
 O     5.66123     1.50075    -6.93480
 O     7.54717     2.05011    -5.04183
 O     3.92562     1.66062    -9.41732
 O     6.96214    -1.55631    -5.77666
 O    10.60212    -1.95573    -8.68253
 O     5.80874    -0.23509    -8.82450
 O     9.43162    -3.28713    -5.63307
 O     5.06255     0.33930    -5.21893
 O     5.23595    -2.13032    -6.93572
Sr     7.25629    -3.58889    -3.60445
 N     9.63470    -1.19546    -8.48728
 N     4.89303     2.42419    -9.60010
 O     8.85830    -2.14144    -3.89539
 O     5.67083     2.22717   -10.55263
 O     9.27525     1.47859    -3.88236
 N     9.62313    -2.32920    -4.86091
 N     8.51511     1.28916    -4.85063
Sr     3.61848     0.02188    -3.62011
 N     4.88105     1.30658    -5.98298
Sr     7.22051     7.26011     0.03344
 O     8.82618     5.81422    -0.25656
Sr     3.60124     3.63530     0.01160
 N     5.95124     6.01639    -2.34125
 O     6.91348     5.24662    -2.15583
 N     5.97460     4.88522     1.29607
 O     5.79562     3.91888     2.06112
 N     8.47129     9.63868    -1.21007
 O     8.65786    10.60893    -1.96897
 O    10.55564     5.68132     2.20364
 O     7.51392     8.86719    -1.41041
 O     3.88004     9.27582     1.47036
 O     8.66614     7.56886     1.63593
 O     5.02779    10.59452    -1.56471
 O     9.39794     6.97572    -1.98201
 O     9.23378     9.44750    -0.24377
 O     5.18668     5.83869    -3.30835
 O     5.62116     8.71709     0.32284
 O     7.51710     9.30266     2.21190
 O     3.86913     8.87236    -2.15549
 O     6.93361     5.65837     1.48413
 O    10.56080     5.24995    -1.40897
 O     5.76331     6.97175    -1.56421
 O     9.41684     3.93487     1.64581
 O     5.04959     7.55869     2.05033
 O     5.20474     5.07322     0.33487
Sr     7.25462     3.62620     3.65550
 N     9.59315     6.01085    -1.21875
 N     4.83767     9.63539    -2.33613
 O     8.84374     5.08868     3.37564
 O     5.60901     9.44603    -3.29584
 O     9.24229     8.71983     3.36802
 N     9.60369     4.90469     2.40557
 N     8.47788     8.53313     2.40184
Sr     3.59104     7.26278     3.63921
 N     4.85315     8.52016     1.28302
Sr     7.22138     7.30024    -7.22630
 O     8.83013     5.85740    -7.51967
Sr     3.61025     3.67448    -7.24862
 N     5.97137     6.05309    -9.60424
 O     6.93554     5.28812    -9.41240
 N     5.97834     4.92673    -5.96340
 O     5.79910     3.95704    -5.20253
 N     8.48970     9.67405    -8.46276
 O     8.68088    10.64510    -9.21951
 O    10.54769     5.70158    -5.04686
 O     7.52437     8.91172    -8.66050
 O     3.87912     9.32003    -5.78411
 O     8.66837     7.59817    -5.62171
 O     5.04236    10.64616    -8.82704
 O     9.41337     7.02604    -9.23666
 O     9.25558     9.47459    -7.50107
 O     5.20577     5.86649   -10.56872
 O     5.61362     8.74780    -6.93344
 O     7.50837     9.32135    -5.03678
 O     3.88649     8.92105    -9.41289
 O     6.93606     5.70056    -5.77322
 O    10.57139     5.29722    -8.66452
 O     5.77975     7.01489    -8.83521
 O     9.40822     3.96319    -5.62259
 O     5.03078     7.58822    -5.20989
 O     5.20833     5.11755    -6.92416
Sr     7.23851     3.64757    -3.59507
 N     9.60281     6.05774    -8.47623
 N     4.85830     9.68016    -9.59204
 O     8.83322     5.10224    -3.88180
 O     5.63795     9.48060   -10.54223
 O     9.23076     8.73626    -3.87694
 N     9.59356     4.92471    -4.85306
 N     8.47190     8.55451    -4.84830
Sr     3.58100     7.28082    -3.61394
 N     4.84330     8.55445    -5.97346
