  504
 
 O     0.00000     0.00000     0.00000
 O     2.22630    -0.02733    -0.01642
 C     1.05648     0.60943    -0.00614
 C     1.24009     2.08745     0.00773
 H     2.18827    -1.05044    -0.03853
 H     1.64464     2.42011    -0.98577
 H     2.03436     2.37777     0.74086
 C    -0.06940     2.78863     0.32473
 C     0.10260     4.26788     0.32509
 O     1.15340     4.88610     0.33512
 O    -1.07232     4.89592     0.31077
 H    -1.04204     5.92009     0.32655
 H    -0.46523     2.46337     1.32524
 H    -0.86774     2.48595    -0.39833
 O    -4.18527     2.32729     1.52899
 O    -3.05977     2.77312    -0.33899
 C    -3.53212     1.93117     0.57846
 C    -3.15842     0.52389     0.26985
 H    -3.25821     3.76766    -0.19092
 H    -2.05633     0.38826     0.44211
 H    -3.29918     0.31201    -0.81942
 C    -3.96015    -0.44997     1.11525
 C    -3.58916    -1.85586     0.79003
 O    -2.92193    -2.23312    -0.15802
 O    -4.07392    -2.71535     1.68479
 H    -3.86903    -3.70679     1.52106
 H    -5.06273    -0.31103     0.95192
 H    -3.81108    -0.24416     2.20500
 O     1.09460     3.83818     2.86786
 O     3.32059     3.82031     2.87576
 C     2.14852     4.45263     2.87854
 C     2.32006     5.93158     2.90522
 H     3.28755     2.79705     2.84784
 H     2.75308     6.27362     1.92716
 H     3.08996     6.22274     3.66300
 C     0.99468     6.61993     3.18453
 C     1.15731     8.09951     3.20624
 O     2.20644     8.72070     3.23168
 O    -0.01919     8.72398     3.19276
 H     0.00580     9.74751     3.21652
 H     0.56491     6.28016     4.16561
 H     0.22379     6.31941     2.43197
 O    -3.08981     6.16651     4.40519
 O    -1.97358     6.62710     2.53548
 C    -2.44202     5.77756     3.44828
 C    -2.07571     4.37014     3.12871
 H    -2.17564     7.61916     2.68932
 H    -0.97228     4.22861     3.28624
 H    -2.23117     4.16140     2.04047
 C    -2.87118     3.39611     3.97993
 C    -2.48800     1.99049     3.67237
 O    -1.81438     1.60135     2.73312
 O    -2.97211     1.14169     4.57708
 H    -2.76534     0.14942     4.42755
 H    -3.97505     3.52332     3.80944
 H    -2.73164     3.61206     5.06908
 O     2.13062     7.66673     5.77671
 O     4.35621     7.65893     5.79220
 C     3.18093     8.28595     5.79240
 C     3.35294     9.76536     5.82152
 H     4.32861     6.63466     5.76068
 H     3.77319    10.10841     4.83751
 H     4.13441    10.05227     6.56948
 C     2.03661    10.46030     6.12318
 C     2.21322    11.93869     6.14412
 O     3.26786    12.54997     6.16323
 O     1.04112    12.57112     6.13586
 H     1.07700    13.59493     6.16676
 H     1.62206    10.12232     7.11143
 H     1.25133    10.16846     5.38131
 O    -2.06631    10.00768     7.31795
 O    -0.92663    10.48150     5.46604
 C    -1.40039     9.62584     6.37055
 C    -1.00736     8.22521     6.05222
 H    -1.13449    11.47154     5.62244
 H     0.09592     8.10303     6.22446
 H    -1.14278     8.01717     4.96168
 C    -1.79765     7.23680     6.89053
 C    -1.40600     5.83576     6.56865
 O    -0.73263     5.45346     5.62722
 O    -1.88874     4.97871     7.46750
 H    -1.67810     3.98950     7.30961
 H    -2.90212     7.36090     6.72181
 H    -1.66074     7.44333     7.98199
 O     7.22758     0.95764    -3.99037
 O     9.45224     0.93653    -4.03404
 C     8.28093     1.57100    -4.01268
 C     8.46078     3.04980    -4.00832
 H     9.41342    -0.08716    -4.05353
 H     8.84174     3.37949    -5.01291
 H     9.27178     3.34472    -3.29458
 C     7.15818     3.75205    -3.66541
 C     7.33097     5.23213    -3.65899
 O     8.38139     5.85138    -3.67818
 O     6.15696     5.86172    -3.63444
 H     6.18867     6.88507    -3.62555
 H     6.77558     3.42044    -2.66252
 H     6.34778     3.45806    -4.37878
 O     3.01135     3.29188    -2.41734
 O     4.13472     3.73989    -4.28648
 C     3.66638     2.89761    -3.36730
 C     4.04475     1.49065    -3.67285
 H     3.93836     4.73395    -4.13415
 H     5.14489     1.35532    -3.48806
 H     3.92154     1.27734    -4.76401
 C     3.23137     0.51828    -2.83697
 C     3.60402    -0.88770    -3.15765
 O     4.27613    -1.26602    -4.10190
 O     3.11482    -1.74523    -2.26296
 H     3.31987    -2.73559    -2.42526
 H     2.13034     0.65730    -3.01237
 H     3.36576     0.72243    -1.74523
 O     8.31214     4.79540    -1.10335
 O    10.53711     4.78249    -1.12816
 C     9.36364     5.41279    -1.11524
 C     9.53232     6.89283    -1.10822
 H    10.50185     3.75860    -1.15560
 H     9.92412     7.22552    -2.10753
 H    10.33121     7.19291    -0.38393
 C     8.21885     7.58439    -0.78290
 C     8.38464     9.06474    -0.76487
 O     9.43419     9.68610    -0.77048
 O     7.20880     9.69118    -0.74154
 H     7.23881    10.71511    -0.72259
 H     7.82161     7.24704     0.21234
 H     7.42129     7.28697    -1.50939
 O     4.10398     7.13865     0.46905
 O     5.21818     7.59560    -1.40284
 C     4.75377     6.74806    -0.48613
 C     5.12807     5.34105    -0.79880
 H     5.01499     8.58777    -1.24874
 H     6.23073     5.20271    -0.63238
 H     4.98683     5.13000    -1.88813
 C     4.32817     4.36650     0.04774
 C     4.70573     2.96065    -0.26554
 O     5.38191     2.57418    -1.20367
 O     4.21285     2.10903     0.63251
 H     4.41670     1.11719     0.48189
 H     3.22443     4.49879    -0.11844
 H     4.46876     4.57656     1.13755
 O     9.35477     8.63115     1.81273
 O    11.57955     8.62260     1.78844
 C    10.40505     9.25066     1.80668
 C    10.57803    10.73044     1.82660
 H    11.54895     7.59781     1.76321
 H    10.97473    11.06845     0.83060
 H    11.37602    11.01990     2.55687
 C     9.27011    11.42876     2.15677
 C     9.44526    12.90807     2.16605
 O    10.49877    13.52276     2.16092
 O     8.27350    13.54102     2.17907
 H     8.31037    14.56500     2.19727
 H     8.88019    11.09660     3.15688
 H     8.46656    11.13462     1.43574
 O     5.13648    10.96887     3.38692
 O     6.27902    11.44335     1.53633
 C     5.80255    10.58718     2.43921
 C     6.19103     9.18602     2.11672
 H     6.07389    12.43388     1.69577
 H     7.29421     9.05797     2.28742
 H     6.05772     8.98511     1.02416
 C     5.39516     8.19818     2.95096
 C     5.77993     6.79664     2.62513
 O     6.45625     6.41721     1.68491
 O     5.29099     5.93836     3.51988
 H     5.49929     4.94885     3.36438
 H     4.29157     8.32745     2.78312
 H     5.53244     8.39711     4.04354
 O     1.98824    -3.72976     2.67192
 O     4.21368    -3.74822     2.70409
 C     3.04126    -3.11505     2.68782
 C     3.22126    -1.63634     2.69647
 H     4.17821    -4.77113     2.68451
 H     3.63872    -1.30740     1.70673
 H     4.00646    -1.34113     3.43694
 C     1.90714    -0.93413     2.99014
 C     2.08701     0.54402     3.02244
 O     3.13995     1.15791     3.02586
 O     0.91478     1.17688     3.04067
 H     0.94784     2.20064     3.06491
 H     1.48008    -1.27540     3.97143
 H     1.12961    -1.21729     2.23671
 O    -2.19845    -1.39217     4.22619
 O    -1.04901    -0.93437     2.37597
 C    -1.53895    -1.78279     3.27786
 C    -1.18310    -3.19226     2.95610
 H    -1.24443     0.05954     2.53129
 H    -0.07919    -3.33736     3.10249
 H    -1.34838    -3.40168     1.86926
 C    -1.97548    -4.16184     3.81641
 C    -1.61149    -5.56986     3.49133
 O    -0.95405    -5.95187     2.53793
 O    -2.08899    -6.42660     4.39287
 H    -1.88686    -7.41754     4.23170
 H    -3.07950    -4.01820     3.66973
 H    -1.81012    -3.95415     4.90314
 O     3.07999     0.10675     5.54006
 O     5.30521     0.09640     5.57772
 C     4.13102     0.72554     5.56267
 C     4.30007     2.20533     5.58523
 H     5.27384    -0.92709     5.55161
 H     4.72476     2.54627     4.60309
 H     5.07532     2.49972     6.33627
 C     2.97721     2.89496     5.87085
 C     3.14362     4.37402     5.90646
 O     4.19308     4.99444     5.93260
 O     1.96759     5.00025     5.89849
 H     1.99205     6.02339     5.93532
 H     2.54605     2.54755     6.84763
 H     2.20543     2.60569     5.11380
 O    -1.10579     2.44933     7.10379
 O     0.03916     2.92023     5.25399
 C    -0.44777     2.06497     6.15166
 C    -0.09610     0.65694     5.81729
 H    -0.16063     3.91115     5.41483
 H     1.00910     0.50595     5.94520
 H    -0.28067     0.45643     4.73133
 C    -0.87791    -0.31639     6.68185
 C    -0.49873    -1.72328     6.37212
 O     0.16124    -2.11727     5.42538
 O    -0.97384    -2.57101     7.28369
 H    -0.76995    -3.56372     7.13392
 H    -1.98343    -0.18848     6.52696
 H    -0.72119    -0.09857     7.76811
 O     4.11426     3.95236     8.44348
 O     6.33925     3.94997     8.48487
 C     5.16263     4.57473     8.47561
 C     5.33168     6.05423     8.51422
 H     6.31385     2.92561     8.45031
 H     5.76864     6.40224     7.53891
 H     6.10191     6.33827     9.27469
 C     4.01042     6.74894     8.79554
 C     4.19127     8.22633     8.84492
 O     5.24687     8.83670     8.85829
 O     3.02125     8.86227     8.86464
 H     3.05937     9.88569     8.90495
 H     3.56851     6.39758     9.76619
 H     3.24347     6.47497     8.02751
 O    -0.07952     6.27933    10.01264
 O     1.07479     6.76212     8.17224
 C     0.59411     5.90185     9.06884
 C     0.98621     4.50175     8.74552
 H     0.86722     7.75042     8.33513
 H     2.08849     4.37715     8.92086
 H     0.85474     4.29839     7.65316
 C     0.19004     3.51142     9.57647
 C     0.57524     2.10897     9.25383
 O     1.23202     1.72226     8.30208
 O     0.10772     1.25516    10.16416
 H     0.31741     0.26578    10.01001
 H    -0.91244     3.64254     9.40408
 H     0.32327     3.71251    10.66826
 O     9.21805    -2.76557    -1.32006
 O    11.44334    -2.77676    -1.31515
 C    10.26906    -2.14709    -1.31707
 C    10.43889    -0.66735    -1.30893
 H    11.41075    -3.80036    -1.33552
 H    10.83496    -0.33334    -2.30613
 H    11.23554    -0.36756    -0.58239
 C     9.12495     0.02471    -0.98854
 C     9.29869     1.50405    -0.95431
 O    10.35119     2.12006    -0.97453
 O     8.12661     2.13491    -0.90705
 H     8.15953     3.15835    -0.88210
 H     8.71790    -0.32496    -0.00169
 H     8.33568    -0.25846    -1.72967
 O     4.97941    -0.42865     0.28082
 O     6.13701     0.03501    -1.56244
 C     5.64371    -0.81675    -0.66499
 C     6.00466    -2.22449    -0.99008
 H     5.93814     1.02821    -1.40579
 H     7.10780    -2.36649    -0.83626
 H     5.85237    -2.42525    -2.08025
 C     5.20555    -3.20117    -0.14416
 C     5.57974    -4.60756    -0.46554
 O     6.24001    -4.99056    -1.41626
 O     5.10196    -5.46306     0.43756
 H     5.30866    -6.45279     0.27896
 H     4.10246    -3.06464    -0.30788
 H     5.35067    -2.99527     0.94565
 O    10.29821     1.07023     1.55860
 O    12.52250     1.06484     1.56033
 C    11.34739     1.69242     1.56321
 C    11.51030     3.17330     1.57788
 H    12.48946     0.04096     1.53253
 H    11.89649     3.51359     0.57904
 H    12.31026     3.47389     2.29984
 C    10.19558     3.85851     1.91135
 C    10.36091     5.33853     1.94497
 O    11.41137     5.95854     1.93617
 O     9.18618     5.96627     1.97765
 H     9.21584     6.98942     2.00401
 H     9.80073     3.50692     2.90220
 H     9.40032     3.56808     1.17947
 O     6.07936     3.40712     3.16573
 O     7.21193     3.87895     1.30944
 C     6.73246     3.02228     2.21060
 C     7.09176     1.61592     1.87597
 H     7.01307     4.87129     1.47367
 H     8.19799     1.47273     2.00868
 H     6.91866     1.41752     0.78759
 C     6.30875     0.63815     2.73436
 C     6.69233    -0.76751     2.42352
 O     7.35548    -1.16076     1.47891
 O     6.21481    -1.61526     3.33445
 H     6.42135    -2.60748     3.18777
 H     5.20223     0.76162     2.57647
 H     6.45731     0.85351     3.82290
 O    11.34537     4.91314     4.48268
 O    13.57071     4.91701     4.49610
 C    12.39223     5.53861     4.49789
 C    12.55424     7.01911     4.52673
 H    13.54569     3.89366     4.46996
 H    12.96074     7.36487     3.53792
 H    13.34085     7.31231     5.26664
 C    11.23743     7.70826     4.84147
 C    11.41244     9.18704     4.86890
 O    12.46647     9.80081     4.85602
 O    10.24155     9.82127     4.90232
 H    10.28093    10.84375     4.93315
 H    10.82732     7.36393     5.82920
 H    10.44844     7.41927     4.10227
 O     7.11506     7.24860     6.07164
 O     8.27292     7.72812     4.23280
 C     7.78765     6.86840     5.12777
 C     8.16980     5.46620     4.80005
 H     8.06718     8.71779     4.39446
 H     9.27316     5.33487     4.96291
 H     8.03081     5.26790     3.70724
 C     7.37491     4.47722     5.63394
 C     7.75908     3.07436     5.31042
 O     8.41784     2.68757     4.36047
 O     7.28757     2.22062     6.21938
 H     7.49642     1.23096     6.06579
 H     6.27162     4.60672     5.46439
 H     7.51104     4.67780     6.72602
 O     3.99174    -7.45874     5.40280
 O     6.21773    -7.48071     5.41612
 C     5.04633    -6.84654     5.41006
 C     5.22657    -5.36782     5.41974
 H     6.18032    -8.50414     5.39764
 H     5.63837    -5.03776     4.42750
 H     6.01550    -5.07236     6.15632
 C     3.91425    -4.66483     5.72246
 C     4.08944    -3.18528     5.73641
 O     5.14039    -2.56750     5.75524
 O     2.91499    -2.55563     5.71977
 H     2.94284    -1.53175     5.73829
 H     3.50143    -4.99610     6.71402
 H     3.12782    -4.95668     4.98223
 O    -0.19858    -5.10880     6.94394
 O     0.92771    -4.65693     5.07889
 C     0.45761    -5.50266     5.99492
 C     0.83111    -6.91125     5.68849
 H     0.72620    -3.66424     5.22969
 H     1.93297    -7.04669     5.86292
 H     0.69384    -7.12549     4.59925
 C     0.02616    -7.88431     6.53357
 C     0.39520    -9.29163     6.21294
 O     1.05442    -9.67435     5.26116
 O    -0.08256   -10.14645     7.11573
 H     0.12044   -11.13811     6.95710
 H    -1.07580    -7.74468     6.36750
 H     0.17273    -7.67795     7.62292
 O     5.08334    -3.60950     8.27411
 O     7.30957    -3.61720     8.30055
 C     6.13382    -2.99023     8.28799
 C     6.29998    -1.50988     8.30218
 H     7.27843    -4.64032     8.28030
 H     6.71607    -1.17475     7.31407
 H     7.08176    -1.21099     9.04459
 C     4.97962    -0.81815     8.59754
 C     5.14419     0.66173     8.61147
 O     6.19293     1.28416     8.63644
 O     3.96704     1.28580     8.58616
 H     3.99079     2.30910     8.60734
 H     4.56414    -1.15132     9.58666
 H     4.19845    -1.11862     7.85489
 O     0.90367    -1.27660     9.82855
 O     2.00604    -0.81411     7.95130
 C     1.54719    -1.66502     8.86823
 C     1.91366    -3.07229     8.54472
 H     1.80252     0.17787     8.10602
 H     3.01658    -3.21512     8.69994
 H     1.75821    -3.27423     7.45537
 C     1.11725    -4.04719     9.39482
 C     1.49391    -5.45501     9.08937
 O     2.15927    -5.85020     8.14699
 O     1.01226    -6.29896    10.00084
 H     1.21474    -7.29226     9.85625
 H     0.01442    -3.91440     9.22573
 H     1.26071    -3.83118    10.48337
 O     6.11960     0.22288    11.18121
 O     8.34519     0.21957    11.22280
 C     7.16796     0.84443    11.20930
 C     7.33656     2.32475    11.23820
 H     8.31689    -0.80509    11.19319
 H     7.75482     2.66726    10.25383
 H     8.11928     2.61219    11.98444
 C     6.02098     3.02131    11.54077
 C     6.19660     4.50013    11.57100
 O     7.24946     5.11441    11.59727
 O     5.02388     5.13227    11.56125
 H     5.05680     6.15503    11.59236
 H     5.60347     2.67960    12.52647
 H     5.23677     2.73683    10.79468
 O     1.91663     2.56601    12.74368
 O     3.04986     3.04168    10.88895
 C     2.58198     2.18415    11.79581
 C     2.98027     0.78332    11.47998
 H     2.83797     4.03044    11.04851
 H     4.08188     0.66441    11.66644
 H     2.85982     0.57891    10.38696
 C     2.18142    -0.20986    12.30555
 C     2.57347    -1.61170    11.98815
 O     3.23720    -1.99902    11.04184
 O     2.10433    -2.46407    12.89917
 H     2.31224    -3.45432    12.74515
 H     1.07978    -0.08335    12.12382
 H     2.30498    -0.00712    13.39876
 O    11.21657    -6.48879     1.42016
 O    13.44205    -6.50636     1.40447
 C    12.26925    -5.87404     1.41157
 C    12.44062    -4.39423     1.41780
 H    13.40736    -7.52994     1.38478
 H    12.82145    -4.06092     0.41421
 H    13.24736    -4.09527     2.13352
 C    11.13192    -3.69950     1.75735
 C    11.30122    -2.21855     1.76078
 O    12.35166    -1.59852     1.74555
 O    10.12611    -1.59040     1.77309
 H    10.15549    -0.56624     1.77945
 H    10.75032    -4.03214     2.76110
 H    10.32542    -3.99857     1.04084
 O     6.99763    -4.15184     3.00974
 O     8.11988    -3.70236     1.14120
 C     7.65159    -4.54676     2.05924
 C     8.02375    -5.95597     1.75206
 H     7.92081    -2.70928     1.29122
 H     9.12449    -6.09573     1.93238
 H     7.89636    -6.16699     0.66076
 C     7.20868    -6.92743     2.58995
 C     7.58177    -8.33482     2.27403
 O     8.24830    -8.71548     1.32709
 O     7.09803    -9.19027     3.17392
 H     7.30569   -10.18140     3.01816
 H     6.10804    -6.78907     2.41196
 H     7.34099    -6.72240     3.68146
 O    12.31034    -2.64395     4.29791
 O    14.53523    -2.65000     4.28445
 C    13.35936    -2.02268     4.29058
 C    13.51927    -0.54155     4.29755
 H    14.50414    -3.67260     4.26142
 H    13.88562    -0.20531     3.29027
 H    14.33369    -0.23940     5.00255
 C    12.21072     0.14500     4.65442
 C    12.37097     1.62659     4.66373
 O    13.41832     2.25185     4.66896
 O    11.19250     2.24904     4.66185
 H    11.21661     3.27342     4.68177
 H    11.84115    -0.19385     5.66013
 H    11.39656    -0.15452     3.94775
 O     8.08541    -0.31040     5.87865
 O     9.18422     0.14925     3.99913
 C     8.72936    -0.70076     4.91952
 C     9.10090    -2.10835     4.60148
 H     8.98044     1.14033     4.15557
 H    10.20450    -2.24640     4.75783
 H     8.95046    -2.31677     3.51206
 C     8.30470    -3.08366     5.45292
 C     8.68753    -4.49062     5.15052
 O     9.36042    -4.88267     4.21254
 O     8.20201    -5.33791     6.05652
 H     8.41248    -6.32934     5.91376
 H     7.20101    -2.95697     5.28043
 H     8.44064    -2.86486     6.54152
 O    13.35422     1.18935     7.23341
 O    15.57890     1.18559     7.22228
 C    14.40291     1.81192     7.23263
 C    14.56588     3.29302     7.24883
 H    15.55131     0.16220     7.19579
 H    14.95479     3.63141     6.25039
 H    15.36750     3.58880     7.97100
 C    13.25580     3.98706     7.58348
 C    13.42676     5.46746     7.59145
 O    14.47781     6.08597     7.59182
 O    12.25240     6.09707     7.59130
 H    12.28725     7.12054     7.60963
 H    12.86913     3.65274     8.58472
 H    12.45091     3.69074     6.86454
 O     9.11736     3.53241     8.79568
 O    10.25231     4.00435     6.94031
 C     9.78391     3.14891     7.84889
 C    10.17913     1.74655     7.53692
 H    10.03781     4.99307     7.09589
 H    11.28008     1.62283     7.72470
 H    10.06289     1.53985     6.44329
 C     9.37269     0.75907     8.36250
 C     9.75655    -0.64462     8.04392
 O    10.42654    -1.03113     7.10170
 O     9.27342    -1.49726     8.94767
 H     9.48608    -2.48755     8.79954
 H     8.27152     0.89075     8.18224
 H     9.49626     0.95915     9.45590
