  504
 
 O     0.00000     0.00000     0.00000
 O     1.99050     0.07298    -0.95530
 C     0.89955     0.69015    -0.45589
 C     1.06659     2.17218    -0.55830
 H     1.99721    -0.95808    -0.85233
 H     1.24149     2.44867    -1.64495
 H     2.00180     2.45363     0.01038
 C    -0.12823     2.93231    -0.00633
 C     0.11717     4.40867     0.00262
 O     1.17318     5.02120    -0.03496
 O    -1.05898     5.08636     0.07667
 H    -0.94315     6.10157     0.17844
 H    -0.34661     2.59540     1.05658
 H    -1.04354     2.70945    -0.62570
 O    -4.27471     2.48347     0.94415
 O    -3.08021     2.86122    -0.90770
 C    -3.60462     2.02561     0.02876
 C    -3.20628     0.61591    -0.25893
 H    -3.14269     3.87065    -0.68325
 H    -2.13521     0.48749     0.10064
 H    -3.22621     0.44818    -1.37386
 C    -4.10559    -0.39359     0.43886
 C    -3.73359    -1.79200     0.06047
 O    -3.14429    -2.19119    -0.93644
 O    -4.16589    -2.66856     0.99500
 H    -4.08008    -3.66996     0.72226
 H    -5.18863    -0.22244     0.14007
 H    -4.04899    -0.27709     1.55913
 O     1.18421     3.84931     2.84397
 O     3.41301     3.87525     2.69500
 C     2.21382     4.50527     2.75798
 C     2.39702     5.98707     2.68775
 H     3.35398     2.84313     2.62958
 H     2.56792     6.26756     1.60093
 H     3.32517     6.27018     3.26218
 C     1.18982     6.73539     3.23428
 C     1.41776     8.21427     3.24222
 O     2.46758     8.83696     3.21343
 O     0.23281     8.87884     3.30599
 H     0.33468     9.89425     3.41600
 H     0.97063     6.40180     4.29713
 H     0.27897     6.49770     2.61218
 O    -2.95101     6.30060     4.19374
 O    -1.76668     6.66316     2.33185
 C    -2.29236     5.83370     3.27401
 C    -1.91125     4.41964     2.99224
 H    -1.80120     7.67303     2.56376
 H    -0.83290     4.28953     3.32893
 H    -1.94734     4.24305     1.87859
 C    -2.80369     3.41948     3.71081
 C    -2.42345     2.01559     3.36330
 O    -1.82949     1.59968     2.37662
 O    -2.85244     1.15318     4.31281
 H    -2.75421     0.14563     4.05971
 H    -3.88652     3.57550     3.40454
 H    -2.74936     3.55951     4.82778
 O     2.48736     7.65411     6.10399
 O     4.71597     7.67517     5.94236
 C     3.51976     8.30636     6.01695
 C     3.70480     9.78900     5.95809
 H     4.65523     6.64272     5.86977
 H     3.87585    10.07592     4.87231
 H     4.63592    10.06668     6.53114
 C     2.49755    10.53443     6.51039
 C     2.73107    12.01258     6.54650
 O     3.78228    12.63173     6.55050
 O     1.54927    12.68259     6.61134
 H     1.65961    13.69764     6.72256
 H     2.26320    10.18028     7.56095
 H     1.58982    10.31383     5.87507
 O    -1.66306    10.09702     7.46766
 O    -0.46905    10.48875     5.61824
 C    -0.99635     9.64493     6.54760
 C    -0.60652     8.23492     6.25167
 H    -0.53123    11.49492     5.85491
 H     0.47019     8.10281     6.59007
 H    -0.63855     8.06795     5.13633
 C    -1.49952     7.22548     6.95712
 C    -1.11135     5.82436     6.60741
 O    -0.50300     5.40955     5.62788
 O    -1.55008     4.95917     7.54946
 H    -1.43254     3.95358     7.30393
 H    -2.58111     7.37939     6.64484
 H    -1.45420     7.35980     8.07589
 O     6.94126     0.96545    -4.31919
 O     9.17143     0.99705    -4.49925
 C     7.96983     1.62141    -4.41017
 C     8.15184     3.10497    -4.46163
 H     9.11979    -0.03542    -4.55382
 H     8.38121     3.38520    -5.53637
 H     9.04763     3.38045    -3.83193
 C     6.92489     3.86130    -3.97307
 C     7.16361     5.33884    -3.94696
 O     8.21791     5.95533    -3.93825
 O     5.98273     6.01169    -3.91739
 H     6.08695     7.02629    -3.79684
 H     6.65416     3.52584    -2.92210
 H     6.04093     3.63704    -4.63714
 O     2.71817     3.46704    -3.07985
 O     3.95935     3.84199    -4.90256
 C     3.40214     3.00839    -3.98503
 C     3.79314     1.59934    -4.28905
 H     3.93858     4.84969    -4.66434
 H     4.86624     1.46323    -3.93734
 H     3.77615     1.44662    -5.40544
 C     2.89752     0.58074    -3.60596
 C     3.30602    -0.81763    -3.93475
 O     3.96848    -1.22645    -4.87963
 O     2.81423    -1.69450    -3.02509
 H     2.97646    -2.69048    -3.26593
 H     1.81681     0.71794    -3.92439
 H     2.93056     0.73016    -2.48553
 O     8.23448     4.78187    -1.05430
 O    10.46063     4.80307    -1.27075
 C     9.26482     5.43348    -1.16652
 C     9.45141     6.91579    -1.22504
 H    10.40212     3.76967    -1.30855
 H     9.67895     7.19411    -2.30094
 H    10.34888     7.19061    -0.59782
 C     8.22424     7.67048    -0.73529
 C     8.46420     9.14706    -0.69501
 O     9.51838     9.76278    -0.67311
 O     7.28259     9.81968    -0.66738
 H     7.38435    10.83122    -0.52217
 H     7.94903     7.32563     0.31169
 H     7.34339     7.45032    -1.40466
 O     4.03660     7.28344     0.19586
 O     5.26412     7.64371    -1.63921
 C     4.71171     6.81721    -0.71227
 C     5.08876     5.40230    -1.00340
 H     5.24772     8.65497    -1.40381
 H     6.16983     5.26785    -0.67561
 H     5.04736     5.23868    -2.11921
 C     4.20249     4.39067    -0.29310
 C     4.61085     2.99110    -0.62318
 O     5.27697     2.58011    -1.56417
 O     4.11546     2.11255     0.28348
 H     4.30278     1.11781     0.04953
 H     3.12026     4.52413    -0.61335
 H     4.24441     4.53888     0.82418
 O     9.56676     8.58612     2.23824
 O    11.79346     8.61255     2.00835
 C    10.59551     9.23845     2.11841
 C    10.77407    10.72205     2.05783
 H    11.73995     7.57839     1.97468
 H    11.00442    10.99896     0.98203
 H    11.66640    11.00207     2.68914
 C     9.54118    11.47209     2.54229
 C     9.77868    12.94921     2.60013
 O    10.83132    13.56650     2.63884
 O     8.59588    13.61966     2.62325
 H     8.69577    14.62981     2.77285
 H     9.25424    11.11899     3.58280
 H     8.66751    11.25879     1.86106
 O     5.34092    11.08474     3.46985
 O     6.57532    11.46598     1.64271
 C     6.02180    10.63006     2.56114
 C     6.40356     9.21766     2.25850
 H     6.55484    12.47404     1.88731
 H     7.48239     9.07874     2.58901
 H     6.36547     9.06221     1.14160
 C     5.51289     8.20229     2.95753
 C     5.91976     6.80167     2.62800
 O     6.58210     6.38736     1.68516
 O     5.42244     5.93139     3.53866
 H     5.57914     4.93093     3.30705
 H     4.43298     8.33766     2.63046
 H     5.54746     8.34614     4.07601
 O     2.11279    -3.87849     2.56149
 O     4.34662    -3.84686     2.48411
 C     3.14477    -3.22170     2.52062
 C     3.31941    -1.73769     2.47981
 H     4.29382    -4.87736     2.38028
 H     3.48665    -1.43852     1.39764
 H     4.24617    -1.45542     3.05784
 C     2.10598    -1.01567     3.04696
 C     2.29654     0.46663     3.05061
 O     3.33517     1.11613     3.01307
 O     1.10280     1.09778     3.11750
 H     1.15729     2.12586     3.23627
 H     1.91722    -1.34864     4.11653
 H     1.18155    -1.26641     2.44739
 O    -2.15201    -1.47043     3.97286
 O    -0.93725    -1.02886     2.14204
 C    -1.43724    -1.88115     3.06569
 C    -0.98180    -3.27839     2.79124
 H    -1.13088    -0.02696     2.32289
 H     0.09911    -3.37593     3.12472
 H    -1.00953    -3.46619     1.67916
 C    -1.84689    -4.29302     3.52344
 C    -1.49406    -5.69248     3.13536
 O    -0.90996    -6.09713     2.13878
 O    -1.94384    -6.56675     4.06628
 H    -1.91522    -7.56631     3.77718
 H    -2.94097    -4.11585     3.26905
 H    -1.74316    -4.17234     4.63938
 O     3.43704    -0.06992     5.86035
 O     5.66916    -0.03677     5.74935
 C     4.46787     0.58768     5.79302
 C     4.63522     2.07113     5.73125
 H     5.61343    -1.07004     5.67688
 H     4.79957     2.36272     4.64558
 H     5.55996     2.36690     6.30529
 C     3.41539     2.78919     6.28975
 C     3.60220     4.27169     6.28931
 O     4.63874     4.92333     6.26775
 O     2.40410     4.90026     6.33773
 H     2.45714     5.92731     6.47038
 H     3.22362     2.45967     7.36054
 H     2.49729     2.52991     5.68807
 O    -0.78902     2.35356     7.25495
 O     0.36759     2.77931     5.38789
 C    -0.10670     1.92896     6.33086
 C     0.33069     0.52777     6.05724
 H     0.17329     3.78063     5.57818
 H     1.41329     0.41874     6.38276
 H     0.28815     0.33396     4.94612
 C    -0.54315    -0.47213     6.79953
 C    -0.18305    -1.87811     6.44485
 O     0.41728    -2.29866     5.46365
 O    -0.63768    -2.73579     7.38669
 H    -0.59253    -3.74360     7.12451
 H    -1.63406    -0.30323     6.52759
 H    -0.45185    -0.32963     7.91398
 O     4.73795     3.73085     9.11141
 O     6.97045     3.76271     9.00191
 C     5.76951     4.38762     9.04837
 C     5.94088     5.87139     8.99562
 H     6.91483     2.73033     8.92742
 H     6.10371     6.16844     7.91107
 H     6.86820     6.15929     9.56872
 C     4.72643     6.59142     9.56280
 C     4.91776     8.07412     9.58009
 O     5.95147     8.72951     9.56172
 O     3.71852     8.69947     9.64102
 H     3.77771     9.71856     9.83164
 H     4.53168     6.25499    10.62957
 H     3.80553     6.34459     8.95928
 O     0.44756     6.14516    10.48934
 O     1.66500     6.61443     8.67155
 C     1.16625     5.74383     9.58362
 C     1.62333     4.35015     9.29748
 H     1.45586     7.60914     8.87613
 H     2.70807     4.25089     9.61595
 H     1.57804     4.16330     8.18549
 C     0.76536     3.33474    10.03732
 C     1.13887     1.93323     9.67956
 O     1.75832     1.51678     8.70829
 O     0.67083     1.07020    10.61003
 H     0.74458     0.06371    10.35550
 H    -0.32851     3.49296     9.77007
 H     0.85851     3.47392    11.15250
 O     9.23256    -2.94616    -1.39946
 O    11.47344    -2.88664    -1.41512
 C    10.25923    -2.28035    -1.41224
 C    10.40442    -0.79384    -1.44494
 H    11.44169    -3.92028    -1.47330
 H    10.63186    -0.48958    -2.51546
 H    11.28242    -0.49555    -0.80150
 C     9.14938    -0.08813    -0.95143
 C     9.32852     1.39598    -0.94443
 O    10.36404     2.04956    -0.93929
 O     8.12958     2.02478    -0.92307
 H     8.18181     3.05278    -0.77522
 H     8.91075    -0.41699     0.11021
 H     8.26412    -0.35562    -1.59617
 O     4.94481    -0.49580     0.00895
 O     6.13913    -0.06436    -1.83372
 C     5.63383    -0.91757    -0.91252
 C     6.05713    -2.32044    -1.20679
 H     5.97787     0.93809    -1.63244
 H     7.11860    -2.45928    -0.82687
 H     6.07458    -2.47960    -2.32340
 C     5.12904    -3.32892    -0.54467
 C     5.53614    -4.73005    -0.86874
 O     6.20891    -5.13999    -1.80525
 O     5.03464    -5.59710     0.04336
 H     5.18499    -6.59685    -0.18638
 H     4.06260    -3.17419    -0.90541
 H     5.12768    -3.18668     0.57448
 O    10.52812     0.86344     1.88651
 O    12.76701     0.91229     1.82770
 C    11.55738     1.52526     1.84652
 C    11.70997     3.01029     1.79742
 H    12.72419    -0.12252     1.78540
 H    11.93254     3.30566     0.72380
 H    12.59357     3.30977     2.43308
 C    10.45856     3.72082     2.29203
 C    10.64510     5.20353     2.30937
 O    11.68336     5.85224     2.32344
 O     9.44850     5.83618     2.33046
 H     9.50303     6.86218     2.49240
 H    10.21580     3.38636     3.35113
 H     9.57372     3.46140     1.64371
 O     6.25769     3.32173     3.27125
 O     7.43786     3.74373     1.41741
 C     6.94092     2.89519     2.34933
 C     7.36220     1.49030     2.06363
 H     7.27539     4.74769     1.61670
 H     8.42809     1.35710     2.43315
 H     7.36513     1.32185     0.94833
 C     6.44239     0.48555     2.74196
 C     6.85254    -0.91784     2.43393
 O     7.52650    -1.33826     1.50194
 O     6.35570    -1.77658     3.35505
 H     6.50851    -2.77983     3.13632
 H     5.37376     0.63053     2.38472
 H     6.44664     0.64009     3.85949
 O    11.86472     4.66016     5.15953
 O    14.10500     4.72588     5.09661
 C    12.88925     5.32815     5.11824
 C    13.03028     6.81512     5.07162
 H    14.07555     3.69189     5.05858
 H    13.25447     7.11126     3.99789
 H    13.90848     7.11888     5.71119
 C    11.77378     7.52054     5.56284
 C    11.95781     9.00433     5.60130
 O    12.99472     9.65434     5.63315
 O    10.76025     9.63503     5.62207
 H    10.81442    10.65971     5.78469
 H    11.51923     7.17589     6.61475
 H    10.89638     7.26963     4.90082
 O     7.58084     7.12735     6.54567
 O     8.75651     7.56888     4.69234
 C     8.25987     6.71134     5.61691
 C     8.67767     5.30764     5.31580
 H     8.59820     8.57057     4.90695
 H     9.74302     5.16704     5.68127
 H     8.67684     5.14831     4.19911
 C     7.75594     4.29946     5.98705
 C     8.16769     2.89676     5.67862
 O     8.84577     2.47634     4.74912
 O     7.66482     2.03673     6.59490
 H     7.82013     1.03359     6.37711
 H     6.68905     4.44389     5.62418
 H     7.75445     4.45148     7.10517
 O     4.27933    -7.79259     5.59456
 O     6.51557    -7.79908     5.49697
 C     5.31862    -7.15439     5.55437
 C     5.52916    -5.67289     5.54064
 H     6.44174    -8.81350     5.39252
 H     5.73532    -5.35596     4.47007
 H     6.44342    -5.41637     6.15055
 C     4.32133    -4.92722     6.08850
 C     4.53159    -3.44645     6.08285
 O     5.57362    -2.80418     6.04110
 O     3.34206    -2.80464     6.15427
 H     3.40797    -1.77634     6.26857
 H     4.11883    -5.24885     7.15780
 H     3.39899    -5.16852     5.48420
 O    -0.04210    -5.39744     6.97819
 O     1.27996    -4.91311     5.24213
 C     0.72788    -5.79306     6.11104
 C     1.20724    -7.18189     5.82798
 H     1.05313    -3.91880     5.43509
 H     2.29048    -7.25737     6.16109
 H     1.18340    -7.36015     4.71478
 C     0.35922    -8.20978     6.56087
 C     0.68565    -9.61702     6.18189
 O     1.23656   -10.06304     5.18581
 O     0.23100   -10.46743     7.14187
 H     0.17511   -11.46504     6.86052
 H    -0.73981    -8.03218     6.32438
 H     0.47462    -8.09109     7.67705
 O     5.61050    -3.99075     8.88006
 O     7.84520    -3.99627     8.75899
 C     6.64920    -3.35196     8.82369
 C     6.85266    -1.87007     8.79957
 H     7.76764    -5.01329     8.67101
 H     7.06263    -1.55846     7.72798
 H     7.76039    -1.60338     9.41437
 C     5.63444    -1.13128     9.33393
 C     5.83742     0.35009     9.33032
 O     6.87700     0.99600     9.29695
 O     4.64413     0.98731     9.39119
 H     4.70553     2.01513     9.50853
 H     5.42211    -1.45450    10.40140
 H     4.72181    -1.37887     8.71878
 O     1.34170    -1.57282    10.26361
 O     2.59558    -1.11426     8.47023
 C     2.07401    -1.98210     9.37141
 C     2.53122    -3.37811     9.09085
 H     2.39021    -0.11571     8.66717
 H     3.61842    -3.46556     9.40800
 H     2.48582    -3.56467     7.97935
 C     1.67903    -4.38887     9.84235
 C     1.99708    -5.80385     9.48684
 O     2.55490    -6.26800     8.50221
 O     1.53004    -6.63607    10.45529
 H     1.46710    -7.63918    10.19325
 H     0.58051    -4.21081     9.60601
 H     1.80133    -4.25434    10.95594
 O     6.89869    -0.17724    12.14708
 O     9.13296    -0.19134    12.01639
 C     7.93985     0.45742    12.08787
 C     8.15006     1.93899    12.06668
 H     9.05011    -1.20823    11.92651
 H     8.35060     2.25069    10.99290
 H     9.06713     2.19674    12.67034
 C     6.94214     2.68469    12.61598
 C     7.15061     4.16599    12.61753
 O     8.19229     4.80903    12.58412
 O     5.96019     4.80621    12.68725
 H     6.02724     5.83468    12.79648
 H     6.73639     2.36164    13.68340
 H     6.02125     2.44582    12.00854
 O     2.54792     2.21294    13.47103
 O     3.88319     2.71104    11.74857
 C     3.33081     1.82486    12.61365
 C     3.82107     0.43777    12.34047
 H     3.64755     3.70189    11.94828
 H     4.90708     0.37224    12.66424
 H     3.78675     0.24533    11.22971
 C     2.98542    -0.58835    13.08963
 C     3.32950    -1.99852    12.74014
 O     3.91721    -2.45784    11.77012
 O     2.85028    -2.83523    13.69823
 H     2.79964    -3.83926    13.43526
 H     1.88480    -0.43049    12.84774
 H     3.09734    -0.44916    14.20408
 O    11.34011    -6.84702     1.72453
 O    13.56908    -6.85409     1.55412
 C    12.37592    -6.20774     1.65326
 C    12.59090    -4.72731     1.64571
 H    13.49622    -7.87329     1.51492
 H    12.84696    -4.41403     0.58531
 H    13.47050    -4.47282     2.30691
 C    11.36149    -3.97997     2.13806
 C    11.57130    -2.50009     2.12785
 O    12.61651    -1.86233     2.13139
 O    10.38245    -1.85302     2.13665
 H    10.45538    -0.82114     2.24688
 H    11.11996    -4.29519     3.20231
 H    10.46792    -4.23191     1.49794
 O     7.16880    -4.41274     3.08181
 O     8.38818    -3.95030     1.26684
 C     7.86287    -4.82217     2.15968
 C     8.27952    -6.22143     1.83655
 H     8.22759    -2.95074     1.49139
 H     9.35292    -6.35621     2.18773
 H     8.26902    -6.36303     0.71855
 C     7.37431    -7.23586     2.51825
 C     7.73729    -8.64729     2.19048
 O     8.38587    -9.09849     1.25670
 O     7.20267    -9.48884     3.11493
 H     7.20566   -10.49374     2.85439
 H     6.29697    -7.07473     2.19185
 H     7.40879    -7.09863     3.63819
 O    12.65389    -3.04743     4.97401
 O    14.88332    -3.06354     4.80889
 C    13.69378    -2.41283     4.90337
 C    13.91241    -0.93311     4.89427
 H    14.80707    -4.08359     4.77767
 H    14.16633    -0.61968     3.83346
 H    14.79533    -0.68171     5.55265
 C    12.68447    -0.18552     5.38988
 C    12.89817     1.29399     5.39495
 O    13.94245     1.93126     5.42169
 O    11.70896     1.94133     5.38986
 H    11.78124     2.97141     5.50813
 H    12.43724    -0.51046     6.44982
 H    11.79272    -0.42718     4.74356
 O     8.48691    -0.59012     6.33836
 O     9.69474    -0.13996     4.51230
 C     9.17628    -1.00562     5.41553
 C     9.58758    -2.40849     5.10250
 H     9.53191     0.86204     4.73128
 H    10.66655    -2.53977     5.43610
 H     9.55494    -2.56204     3.98618
 C     8.69184    -3.41461     5.80796
 C     9.05029    -4.83078     5.49786
 O     9.69855    -5.29563     4.57040
 O     8.51326    -5.65980     6.43224
 H     8.50175    -6.66791     6.18192
 H     7.61090    -3.26002     5.49010
 H     8.73924    -3.26248     6.92516
 O    13.95547     0.76761     8.28856
 O    16.18001     0.75406     8.06613
 C    14.99183     1.40330     8.18556
 C    15.20831     2.88368     8.16134
 H    16.10475    -0.26632     8.05056
 H    15.45026     3.18635     7.09418
 H    16.09705     3.13874     8.80873
 C    13.98564     3.63566     8.66448
 C    14.20643     5.11443     8.68674
 O    15.25386     5.74680     8.72729
 O    13.02116     5.76661     8.68147
 H    13.09906     6.79751     8.79480
 H    13.73438     3.30299     9.72033
 H    13.09275     3.40735     8.01418
 O     9.78319     3.20617     9.61625
 O    10.99095     3.67965     7.79582
 C    10.47454     2.80292     8.69054
 C    10.89227     1.40372     8.36629
 H    10.82335     4.67728     8.02842
 H    11.96923     1.27194     8.70511
 H    10.86687     1.25703     7.24899
 C     9.99442     0.39116     9.05985
 C    10.35864    -1.02354     8.75165
 O    11.00929    -1.49037     7.82617
 O     9.82131    -1.85177     9.68612
 H     9.80966    -2.86021     9.43772
 H     8.91600     0.54265     8.73178
 H    10.02956     0.54109    10.17841
