  256
 
 S     0.00000     0.00000     0.00000
 S    -3.57107     2.54769     1.34592
 S    -3.37374     4.54081     1.49327
 S    -4.56538     1.93864    -0.29545
 S    -3.38808     1.56726    -1.88070
 S    -1.53183     4.29412    -2.57557
 S    -3.11149     3.15924    -3.06772
 S    -1.70130     5.26634     0.65885
 S    -1.90604     5.77099    -1.27402
 S     0.23642     1.99303     0.10332
 S     0.05187     3.04862     3.30752
 S     1.22828     2.61841     1.73819
 S    -1.71739    -0.66117     0.79199
 S    -1.60204    -1.11741     2.74408
 S    -0.31669     1.47790     4.49823
 S    -1.94109     0.41378     3.99050
 S    -7.79936     0.98268     6.43100
 S    -6.38810     0.97902     7.86454
 S    -3.58990     2.53106     6.82884
 S    -8.25063     2.80457     5.71140
 S    -5.45524     4.37240     4.68349
 S    -4.50670     0.78092     7.18788
 S    -3.83582     3.22748     4.96316
 S    -7.11707     3.37380     4.15951
 S    -8.77850     0.28992     2.57146
 S    -9.47614    -1.98151     4.96154
 S    -9.73145    -1.40767     3.05285
 S    -6.90504     0.02460     1.89701
 S    -5.49654     0.00363     3.33384
 S    -6.17261    -2.30653     5.68330
 S    -5.09557    -1.82445     4.06252
 S    -7.92212    -3.20554     5.27716
 S     6.90373    -3.09512     3.65121
 S     3.21929    -0.53976     4.96852
 S     3.43200     1.45056     5.12649
 S     2.22274    -1.13506     3.32625
 S     3.40059    -1.52789     1.74693
 S     5.31030     1.17248     1.08237
 S     3.72329     0.05847     0.56710
 S     5.11462     2.16594     4.30546
 S     4.93277     2.66218     2.36861
 S     7.13825    -1.10456     3.77983
 S     7.00173    -0.08544     7.00038
 S     8.15008    -0.50231     5.41048
 S     5.21044    -3.77118     4.48240
 S     5.37311    -4.23833     6.42727
 S     6.65216    -1.65859     8.19233
 S     5.02775    -2.72689     7.69510
 S    -0.93658    -2.10389    10.06682
 S     0.48138    -2.12891    11.49649
 S     3.27708    -0.58028    10.44938
 S    -1.37765    -0.27761     9.35458
 S     1.42031     1.27573     8.31116
 S     2.35878    -2.32914    10.81066
 S     3.03393     0.12026     8.58486
 S    -0.25173     0.28909     7.79563
 S    -1.90065    -2.75868     6.20697
 S    -2.62509    -5.04977     8.57070
 S    -2.87390    -4.45054     6.66930
 S    -0.03475    -3.04453     5.52329
 S     1.38237    -3.06557     6.95226
 S     0.67805    -5.37342     9.30151
 S     1.77512    -4.89029     7.69446
 S    -1.06666    -6.27229     8.87739
 S     5.83921    -8.29477    -3.05442
 S     2.19344    -5.72885    -1.67531
 S     2.40618    -3.73536    -1.54040
 S     1.21558    -6.34231    -3.32541
 S     2.40313    -6.74053    -4.89321
 S     4.30826    -4.04594    -5.58854
 S     2.71567    -5.15979    -6.08871
 S     4.09912    -3.03998    -2.36269
 S     3.93030    -2.55346    -4.30268
 S     6.02981    -6.29759    -2.94975
 S     5.78458    -5.22526     0.24990
 S     6.98641    -5.63859    -1.30652
 S     4.13847    -8.99259    -2.25300
 S     4.28182    -9.44272    -0.30348
 S     5.46346    -6.79363     1.45815
 S     3.88769    -7.92321     0.94477
 S    -1.98940    -7.15967     3.64952
 S    -0.58330    -7.12906     5.08806
 S     2.22878    -5.64904     3.96734
 S    -2.42667    -5.36099     2.86858
 S     0.38677    -3.89346     1.73893
 S     1.29696    -7.36629     4.42391
 S     1.98138    -5.05793     2.06524
 S    -1.30662    -4.86831     1.27844
 S    -2.92851    -7.95202    -0.39886
 S    -3.59633   -10.32261     1.90740
 S    -3.88579    -9.66002     0.03437
 S    -1.05403    -8.20513    -1.06878
 S     0.35101    -8.21951     0.36716
 S    -0.29861   -10.62685     2.62661
 S     0.80024   -10.05304     1.05405
 S    -2.02102   -11.53787     2.13772
 S    12.74973   -11.39435     0.59604
 S     8.97540    -8.81876     1.94270
 S     9.20823    -6.82872     2.08660
 S     7.99953    -9.42023     0.28966
 S     9.19164    -9.83224    -1.27023
 S    11.14936    -7.16538    -1.93373
 S     9.54626    -8.25455    -2.45512
 S    10.91632    -6.14924     1.28582
 S    10.77713    -5.66468    -0.65671
 S    12.93597    -9.39787     0.72255
 S    12.72263    -8.36489     3.93656
 S    13.90621    -8.75713     2.36349
 S    11.07465   -12.10892     1.43391
 S    11.26178   -12.57070     3.37601
 S    12.43122    -9.93553     5.14829
 S    10.85848   -11.07586     4.64906
 S     4.87998   -10.24808     7.25725
 S     6.29255   -10.24079     8.69223
 S     9.10022    -8.76757     7.55389
 S     4.45931    -8.44573     6.47770
 S     7.27586    -7.00326     5.32105
 S     8.16855   -10.48273     8.01844
 S     8.86019    -8.18207     5.64914
 S     5.57034    -7.96533     4.87713
 S     3.94009   -10.99113     3.26431
 S     3.24755   -13.38177     5.53927
 S     2.96747   -12.69764     3.67178
 S     5.80757   -11.26095     2.58525
 S     7.22423   -11.27744     4.01104
 S     6.54510   -13.67619     6.27325
 S     7.66455   -13.10715     4.71175
 S     4.82925   -14.58940     5.76914
 S     9.91927     3.54078    -8.46301
 S     6.35902     6.09138    -7.09321
 S     6.59029     8.08170    -6.93978
 S     5.37014     5.49927    -8.74499
 S     6.54446     5.12359   -10.33237
 S     8.46103     7.81250   -10.99778
 S     6.86161     6.71479   -11.51322
 S     8.28008     8.78473    -7.76371
 S     8.09972     9.29056    -9.69782
 S    10.17179     5.53061    -8.35406
 S     9.97555     6.56019    -5.13718
 S    11.15332     6.14838    -6.70972
 S     8.20511     2.88353    -7.65639
 S     8.32056     2.40959    -5.70819
 S     9.61060     4.99123    -3.94227
 S     7.98269     3.92574    -4.44252
 S     2.08638     4.46576    -1.96556
 S     3.48516     4.48781    -0.51925
 S     6.29143     6.03070    -1.53868
 S     1.62738     6.28580    -2.68584
 S     4.42234     7.86839    -3.68527
 S     5.36982     4.28264    -1.18235
 S     6.04400     6.72627    -3.40525
 S     2.76528     6.86931    -4.22774
 S     1.08325     3.69958    -5.84349
 S     0.39364     1.39924    -3.47787
 S     0.16918     1.97264    -5.38683
 S     2.97818     3.49005    -6.47481
 S     4.35630     3.50907    -5.00689
 S     3.67440     1.18789    -2.66657
 S     4.78631     1.69806    -4.25353
 S     1.97564     0.22158    -3.12472
 S    16.82424     0.44628    -4.81511
 S    13.16137     3.01457    -3.49788
 S    13.40331     5.00216    -3.33462
 S    12.16485     2.43010    -5.14530
 S    13.33235     2.03824    -6.73238
 S    15.27394     4.71291    -7.39152
 S    13.67322     3.62250    -7.91470
 S    15.08924     5.70406    -4.16583
 S    14.90731     6.19980    -6.10155
 S    17.07387     2.43460    -4.68199
 S    16.92831     3.43100    -1.45231
 S    18.07840     3.03169    -3.04540
 S    15.13480    -0.22849    -3.97278
 S    15.29771    -0.71245    -2.03084
 S    16.58058     1.85853    -0.25779
 S    14.95473     0.78615    -0.74687
 S     8.95280     1.37471     1.68191
 S    10.35863     1.37565     3.12277
 S    13.16567     2.90756     2.08615
 S     8.50535     3.20084     0.97097
 S    11.30608     4.75996    -0.05376
 S    12.23980     1.16415     2.45114
 S    12.91789     3.60182     0.21868
 S     9.63416     3.77779    -0.58076
 S     7.96521     0.64846    -2.19691
 S     7.25863    -1.67517     0.14243
 S     7.03532    -1.07420    -1.75901
 S     9.85424     0.42103    -2.84005
 S    11.24284     0.43888    -1.38319
 S    10.53808    -1.87973     0.95863
 S    11.66617    -1.36888    -0.61691
 S     8.84555    -2.84943     0.48519
 S    15.76527    -4.73566   -11.49943
 S    12.13111    -2.16768   -10.09768
 S    12.38249    -0.17728    -9.96218
 S    11.15761    -2.76721   -11.75595
 S    12.33923    -3.16924   -13.32814
 S    14.30459    -0.52245   -14.00421
 S    12.68742    -1.59267   -14.52202
 S    14.09321     0.48670   -10.77720
 S    13.95103     0.97215   -12.71947
 S    15.97859    -2.74147   -11.38992
 S    15.74177    -1.68413    -8.18177
 S    16.93780    -2.09693    -9.74316
 S    14.06939    -5.42704   -10.67988
 S    14.21517    -5.88591    -8.73132
 S    15.40867    -3.24614    -6.96781
 S    13.82570    -4.37209    -7.47477
 S     7.90089    -3.68129    -4.73811
 S     9.29665    -3.63489    -3.29087
 S    12.10998    -2.15199    -4.39872
 S     7.45567    -1.87952    -5.50978
 S    10.26268    -0.39815    -6.62617
 S    11.17823    -3.87039    -3.95129
 S    11.86134    -1.55774    -6.30033
 S     8.57264    -1.37498    -7.09682
 S     6.91820    -4.56585    -8.79699
 S     6.24411    -6.99022    -6.54816
 S     6.00533    -6.31200    -8.42002
 S     8.81609    -4.74726    -9.42125
 S    10.18980    -4.73727    -7.95314
 S     9.52039    -7.16488    -5.72122
 S    10.66129    -6.55900    -7.25074
 S     7.85740    -8.14495    -6.27117
 S    22.67364    -7.83459    -7.85592
 S    18.92581    -5.24896    -6.50483
 S    19.19246    -3.26167    -6.36279
 S    17.94782    -5.83920    -8.16133
 S    19.12573    -6.25276    -9.73205
 S    21.11747    -3.62262   -10.40156
 S    19.49586    -4.68280   -10.92573
 S    20.90460    -2.60587    -7.17930
 S    20.76568    -2.12316    -9.12184
 S    22.88181    -5.84173    -7.72239
 S    22.68655    -4.82121    -4.50048
 S    23.86018    -5.21780    -6.07988
 S    21.00367    -8.54493    -7.00100
 S    21.19396    -9.01408    -5.05971
 S    22.37862    -6.38710    -3.28532
 S    20.79890    -7.52259    -3.78039
 S    14.77207    -6.77412    -1.12035
 S    16.17497    -6.75113     0.32370
 S    18.98616    -5.28362    -0.80739
 S    14.34524    -4.96859    -1.88935
 S    17.15862    -3.52019    -3.04038
 S    18.05150    -6.99730    -0.34585
 S    18.74313    -4.69927    -2.71233
 S    15.45237    -4.47921    -3.48908
 S    13.79467    -7.60475    -5.12396
 S    13.09994   -10.04997    -2.90608
 S    12.86939    -9.34959    -4.77091
 S    15.68586    -7.80158    -5.76249
 S    17.07185    -7.79621    -4.30616
 S    16.37352   -10.21288    -2.06800
 S    17.53102    -9.61529    -3.58879
 S    14.71812   -11.19928    -2.62863
