  448
 
 O     0.00000     0.00000     0.00000
 O    -7.56614    -4.24985     4.44726
 O    -2.15021    -5.92189    -0.06458
 O     5.33951    -1.69047    -4.50822
 O    -1.11749    -1.64701     1.41943
 O    -9.97245    -4.12924     4.84164
 O    -1.04714    -4.24203    -1.45492
 O     7.75770    -1.72338    -4.93407
 O     5.77135     1.69862    -1.06207
 O    -3.61158    -1.69663     0.45763
 O    -7.95184    -7.56266     0.95332
 O     1.46168    -4.17648    -0.56931
 N     4.14157    -0.69077    -1.27127
 N    -5.55439    -0.80514     2.48733
 N    -6.29417    -5.07662     1.17184
 N     3.22592    -3.99543    -2.85983
 O    -4.74030    -4.95707     3.55642
 O     2.36033    -4.94961    -5.25964
 O     2.64165    -1.08550    -3.63628
 O    -4.61531    -0.78927     5.23806
 S     0.17350    -0.99552     1.10410
 S    -8.87864    -3.74302     3.92682
 S    -2.33029    -4.91058    -1.15842
 S     6.68251    -2.15654    -4.01868
 O     1.37073    -2.00411     0.99627
 O    -8.95583    -2.24914     3.46346
 O    -3.53416    -3.91356    -1.04952
 O     6.79785    -3.64715    -3.56101
 O    -8.00026    -6.41089     6.28973
 O    -2.77414     0.75718    -0.22348
 O   -10.23709    -6.51522     1.88302
 O     0.64454    -6.64286     0.11980
 O     0.90109    -0.44632     2.39274
 O    -9.18254    -4.11415     2.42506
 O    -3.04085    -5.46182    -2.45234
 O     6.98268    -1.78532    -2.51132
 O     1.37497    -4.53365    -7.12432
 O    -3.56579    -5.61387     5.24262
 O    -3.43942    -1.57015     6.87955
 O     1.39122    -0.40862    -5.26173
 O     3.93391    -4.38534    -7.28469
 O    -2.31461    -4.00087     3.66352
 O    -5.99227    -1.58568     7.29705
 O     0.22568    -2.01281    -3.57745
 S     2.72000    -4.05692    -6.49726
 S    -3.21385    -5.17445     3.76701
 S    -4.89221    -1.85763     6.34491
 S     1.08865    -0.83006    -3.79663
 O     0.54280     0.25709    -2.91840
 O    -5.06979    -3.26238     5.84887
 O    -2.61846    -6.27009     2.93316
 O     2.84076    -2.60441    -6.12573
Tb    -0.89852     1.43253    -1.57364
Tb    -5.93721    -5.37202     5.61780
Tb    -1.21570    -7.35054     1.47161
Tb     3.74743    -0.54344    -5.72912
 O    -1.60394    -0.85965    -1.98928
 O   -10.95178    -0.69106     2.63683
 O    -4.25408    -1.80684    -2.50222
 O   -12.09360    -1.46431     5.17525
 O     4.14275     1.20446    -4.16691
 O    -2.26543    -1.42415     3.81986
 O    -6.27493    -7.19650     4.12737
 O     0.06131    -4.55032    -3.86704
 H     5.71886     2.15332    -1.92428
 H    -2.76463    -1.78429     0.92759
 H    -7.88479    -7.99554     1.81937
 H     0.58426    -4.12472    -0.99666
 H     3.58439    -0.70044    -2.15056
 H    -5.07689    -0.99524     3.38190
 H    -5.69273    -5.19892     2.00475
 H     2.87892    -4.56501    -3.67209
 H     3.54319    -0.56430    -0.44907
 H    -6.29833    -1.49262     2.30476
 H    -5.76509    -5.21169     0.30070
 H     3.21358    -3.00327    -3.12179
 H     4.81071     0.08718    -1.29801
 H    -4.87932    -0.87006     1.71671
 H    -7.04053    -5.77607     1.18896
 H     2.61525    -4.14842    -2.05018
 H     4.66089    -1.57615    -1.18967
 H    -5.95488     0.14609     2.50450
 H    -6.71113    -4.13193     1.18336
 H     4.17915    -4.26023    -2.59654
 H    -8.83039    -6.05412     6.74683
 H    -3.19425    -0.14601    -0.04454
 H    -9.40287    -6.86647     1.42391
 H     1.07012    -5.74683    -0.07365
 H     5.69212     2.41997    -0.39422
 H    -3.66445    -2.49311    -0.12311
 H    -7.88283    -8.29809     0.29914
 H     1.48382    -3.40287     0.04191
 H    -8.35578    -7.38077     6.15599
 H    -3.39184     1.29988     0.40690
 H    -9.89293    -5.54558     2.01000
 H     1.26604    -7.19841    -0.51589
 H   -12.29217    -2.44770     4.94152
 H    -4.68611    -1.17320    -1.82255
 H   -10.69612     0.25315     2.94840
 H    -1.12827    -1.54528    -2.59122
 H     3.48955     1.87201    -3.70759
 H    -2.37374    -2.45262     3.83026
 H    -5.60693    -7.87483     3.72785
 H     0.17735    -3.52316    -3.85976
 H    -2.22547    -1.48099    -1.52671
 H   -11.85841    -0.74284     3.03774
 H    -3.62358    -1.16714    -2.92646
 H   -11.16081    -1.42313     4.83904
 H     4.94008     1.79102    -3.92711
 H    -1.82189    -1.44455     2.89869
 H    -7.08273    -7.75183     3.84359
 H    -0.37513    -4.54390    -2.95147
 O    -1.23584     7.47865     4.05941
 O    -8.76369     3.28168     8.59713
 O    -3.34393     1.59064     4.02557
 O     4.22684     5.83690    -0.46363
 O    -2.32412     5.81756     5.47788
 O   -11.17125     3.44483     8.97911
 O    -2.17953     3.22721     2.61617
 O     6.63987     5.65686    -0.84580
 O     4.57718     9.21218     3.05591
 O    -4.83538     5.82404     4.56027
 O    -9.07554    -0.10823     5.07703
 O     0.31677     3.29690     3.53675
 N     2.89051     6.76046     2.81259
 N    -6.83676     6.75539     6.70514
 N    -6.86160     1.83089     5.15392
 N     2.21259     2.48196     1.44294
 O    -5.92969     2.54015     7.68937
 O     1.20655     2.53799    -1.13705
 O     1.42749     6.53696     0.40801
 O    -5.74061     6.61232     9.30330
 S    -1.03874     6.49238     5.17003
 S   -10.06597     3.80801     8.06409
 S    -3.48012     2.60254     2.92091
 S     5.52428     5.30976     0.06507
 O     0.17003     5.49278     5.06767
 O   -10.11630     5.29797     7.57920
 O    -4.66003     3.62324     3.02468
 O     5.56294     3.82141     0.56360
 O    -9.20768     1.09359    10.39336
 O    -3.97894     8.27051     3.87868
 O   -11.35555     0.99930     5.97082
 O    -0.53937     0.85465     4.23524
 O    -0.34141     7.03248     6.46991
 O   -10.39895     3.42214     6.57506
 O    -4.20770     2.04928     1.63564
 O     5.83668     5.69868     1.56124
 O     0.23123     3.01913    -2.99342
 O    -4.76498     1.84866     9.36719
 O    -4.60535     5.99423    11.02786
 O     0.25038     7.26813    -1.24686
 O     2.82788     3.11834    -3.08305
 O    -3.49141     3.48171     7.83479
 O    -7.17020     5.94233    11.37390
 O    -1.01013     5.61217     0.31233
 S     1.58760     3.45945    -2.34401
 S    -4.40110     2.31866     7.91141
 S    -6.03535     5.62783    10.47473
 S    -0.10015     6.77585     0.21543
 O    -0.67689     7.84236     1.09776
 O    -6.17019     4.18228    10.08593
 O    -3.82926     1.24209     7.02878
 O     1.69672     4.92079    -2.00379
Tb    -2.11487     8.94503     2.51165
Tb    -7.13729     2.12786     9.74419
Tb    -2.41473     0.17630     5.57532
Tb     2.61643     6.99039    -1.64625
 O    -2.79393     6.65753     2.02841
 O   -12.14393     6.82870     6.72574
 O    -5.45675     5.73120     1.53056
 O   -13.33336     6.05798     9.26826
 O     2.98333     8.76877    -0.10806
 O    -3.41181     6.07931     7.90251
 O    -7.48494     0.28314     8.27617
 O    -1.10105     3.03056     0.18008
 H     4.51805     9.67767     2.20081
 H    -3.99206     5.72714     5.03530
 H    -9.05630    -0.57557     5.93151
 H    -0.54051     3.35880     3.07913
 H     2.30119     6.82689     1.96124
 H    -6.38165     6.55338     7.61355
 H    -6.72963     2.20974     6.11647
 H     1.73587     2.61761     0.52091
 H     2.33240     6.85995     3.67456
 H    -7.61166     6.10418     6.51773
 H    -6.07783     1.21257     4.93487
 H     2.99867     3.12689     1.55261
 H     3.57346     7.52160     2.80859
 H    -6.15563     6.64148     5.95177
 H    -7.73347     1.29406     5.10338
 H     1.54726     2.65171     2.20398
 H     3.37997     5.85821     2.82285
 H    -7.19369     7.72010     6.70433
 H    -6.88937     2.58202     4.45630
 H     2.55065     1.51338     1.50168
 H   -10.03913     1.45637    10.85128
 H    -4.39706     7.36519     4.06429
 H   -10.51501     0.65402     5.52695
 H    -0.10794     1.75840     4.05912
 H     4.51976     9.93115     3.72510
 H    -4.86998     5.05312     3.95520
 H    -9.04523    -0.82646     4.40034
 H     0.33266     4.09027     4.12897
 H    -9.55694     0.12717    10.25548
 H    -4.60032     8.81660     4.49843
 H   -11.01358     1.97716     6.12036
 H     0.07841     0.31416     3.59439
 H   -13.54319     5.08939     8.99007
 H    -5.94323     6.39507     2.15154
 H   -11.92763     7.79113     7.00104
 H    -2.34635     6.01672     1.36286
 H     2.31728     9.43474     0.32719
 H    -3.52693     5.05841     7.93064
 H    -6.81402    -0.40094     7.89673
 H    -0.98526     4.05740     0.15387
 H    -3.35899     6.00116     2.51643
 H   -13.05813     6.76361     7.10801
 H    -4.78798     6.35434     1.14462
 H   -12.39654     6.10101     8.94316
 H     3.77681     9.34733     0.16680
 H    -2.98278     6.05079     6.97380
 H    -8.28427    -0.27520     7.98333
 H    -1.52480     3.04678     1.10090
 O     3.73745    -3.26975     4.45997
 O    -3.82741    -7.49243     8.91600
 O     1.59845    -9.15147     4.41293
 O     9.06304    -4.93565    -0.03180
 O     2.60109    -4.91236     5.87812
 O    -6.24091    -7.37902     9.29885
 O     2.68491    -7.47092     3.00374
 O    11.47292    -4.99989    -0.45621
 O     9.47486    -1.53242     3.41146
 O     0.09219    -4.94870     4.95758
 O    -4.24355   -10.84671     5.42637
 O     5.19442    -7.44328     3.89696
 N     7.06600    -3.04346     3.34194
 N    -1.85410    -3.99066     7.03839
 N    -2.57342    -8.31139     5.67035
 N     6.96817    -7.14749     1.68026
 O    -1.02885    -8.19562     8.06210
 O     6.06427    -8.15063    -0.76679
 O     6.26753    -4.32050     0.78083
 O    -0.80713    -4.14755     9.69951
 S     3.89708    -4.26624     5.57883
 S    -5.13692    -6.98213     8.39373
 S     1.40594    -8.14493     3.31987
 S    10.40046    -5.41588     0.47166
 O     5.09618    -5.27111     5.46135
 O    -5.23024    -5.48866     7.93022
 O     0.20459    -7.14478     3.42074
 O    10.48699    -6.91277     0.92541
 O    -4.30168    -9.66414    10.76953
 O     0.93312    -2.49742     4.28297
 O    -6.50185    -9.75001     6.35995
 O     4.37321    -9.90000     4.61021
 O     4.60815    -3.73831     6.87364
 O    -5.43200    -7.35379     6.89020
 O     0.68820    -8.71123     2.03536
 O    10.74093    -5.05941     1.96501
 O     5.08818    -7.76784    -2.64179
 O     0.14048    -8.91879     9.72531
 O     0.33508    -4.82437    11.40317
 O     5.13087    -3.42660    -0.83049
 O     7.65189    -7.60492    -2.77266
 O     1.41869    -7.28326     8.20323
 O    -2.23519    -4.84713    11.75752
 O     3.79199    -5.09901     0.64425
 S     6.42151    -7.26910    -2.01003
 S     0.49446    -8.44126     8.26147
 S    -1.10706    -5.15211    10.85092
 S     4.74879    -3.98048     0.58710
 O     4.24935    -2.90777     1.51993
 O    -1.25586    -6.59134    10.44279
 O     1.07547    -9.51528     7.39097
 O     6.52454    -5.80679    -1.65424
Tb     2.80365    -1.82188     2.93438
Tb    -2.22660    -8.64000    10.11758
Tb     2.50365   -10.59925     5.95145
Tb     7.48479    -3.77382    -1.24561
 O     2.07693    -4.08966     2.44592
 O    -7.24254    -3.95597     7.10610
 O    -0.54514    -5.05745     1.93783
 O    -8.45676    -4.68142     9.59961
 O     7.80699    -1.93372     0.23364
 O     1.51994    -4.69303     8.31142
 O    -2.58441   -10.42097     8.58282
 O     3.69884    -7.68985     0.54189
 H     9.50674    -1.07712     2.54814
 H     0.93675    -5.04894     5.42829
 H    -4.16524   -11.27077     6.29724
 H     4.30949    -7.39590     3.48563
 H     6.98370    -3.65368     2.51927
 H    -1.38625    -4.18074     7.94493
 H    -1.99601    -8.44905     6.52081
 H     6.65258    -7.73286     0.87652
 H     6.26236    -2.40566     3.38412
 H    -2.55941    -4.70430     6.82419
 H    -2.02435    -8.46462     4.81513
 H     6.91912    -6.15731     1.41828
 H     7.93591    -2.49859     3.27531
 H    -1.16035    -4.01143     6.28695
 H    -3.33999    -8.98837     5.66847
 H     6.35689    -7.31990     2.48625
 H     7.12111    -3.58710     4.22445
 H    -2.29969    -3.05848     7.06154
 H    -2.96205    -7.35533     5.66867
 H     7.92718    -7.37486     1.96473
 H    -5.13342    -9.31932    11.22851
 H     0.51302    -3.40750     4.45855
 H    -5.66944   -10.11479     5.90102
 H     4.80131    -9.00415     4.41931
 H     9.46171    -0.80665     4.08334
 H     0.04712    -5.72941     4.35636
 H    -4.18511   -11.58837     4.78067
 H     5.21810    -6.67758     4.52055
 H    -4.64753   -10.64374    10.64327
 H     0.30110    -1.96432     4.91113
 H    -6.14772    -8.78253     6.47695
 H     4.99965   -10.45527     3.98123
 H    -8.71052    -5.60092     9.23447
 H    -0.97502    -4.41221     2.60819
 H    -6.99995    -3.01349     7.43120
 H     2.47327    -4.72768     1.74864
 H     7.14412    -1.20844     0.53724
 H     1.39543    -5.71603     8.33285
 H    -1.92095   -11.08231     8.14418
 H     3.75469    -6.66832     0.48389
 H     1.47620    -4.73279     2.91155
 H    -8.18830    -3.97779     7.40872
 H     0.05996    -4.41598     1.48003
 H    -7.53249    -4.62531     9.23425
 H     8.62003    -1.38384     0.52633
 H     1.94473    -4.71612     7.38523
 H    -3.38762   -10.99335     8.31583
 H     3.29888    -7.67493     1.47637
 O     2.50279     4.26779     8.55208
 O    -5.00353     0.01984    13.03263
 O     0.38340    -1.67513     8.50201
 O     7.90232     2.57270     4.05543
 O     1.40372     2.60920     9.95753
 O    -7.41924     0.08763    13.41365
 O     1.50796    -0.04834     7.06281
 O    10.31919     2.52317     3.63886
 O     8.31006     5.96212     7.53373
 O    -1.09992     2.56561     9.02886
 O    -5.40831    -3.33176     9.51786
 O     4.00046     0.07737     7.98926
 N     6.67255     3.61215     7.32302
 N    -3.05037     3.50516    11.13793
 N    -3.75509    -0.86577     9.80235
 N     5.75178     0.36087     5.76331
 O    -2.22222    -0.81431    12.12947
 O     5.01429    -0.84487     3.18067
 O     5.10738     3.16007     4.89644
 O    -2.02371     3.38507    13.73718
 S     2.69365     3.27265     9.65815
 S    -6.32414     0.51033    12.51382
 S     0.20914    -0.67209     7.40068
 S     9.24362     2.10876     4.55873
 O     3.88842     2.25830     9.53808
 O    -6.44271     2.00261    12.06052
 O    -0.96313     0.35937     7.50103
 O     9.35066     0.61401     5.00962
 O    -5.46732    -2.14230    14.87131
 O    -0.24963     5.02158     8.37283
 O    -7.67272    -2.25452    10.46544
 O     3.19201    -2.38516     8.69652
 O     3.40025     3.78465    10.96339
 O    -6.60860     0.14140    11.00332
 O    -0.53866    -1.23199     6.12693
 O     9.53771     2.47097     6.06309
 O     3.76773    -0.06171     1.59384
 O    -1.00588    -1.22271    13.85403
 O    -0.94336     2.77779    15.50185
 O     3.95871     4.02651     3.28096
 O     6.29594    -0.00683     1.07642
 O     0.13401     0.29343    12.10969
 O    -3.52700     2.73682    15.76128
 O     2.64630     2.36652     4.76818
 S     5.22770     0.24203     2.06860
 S    -0.67539    -0.92440    12.36046
 S    -2.35908     2.41445    14.90932
 S     3.58399     3.51229     4.71442
 O     3.05789     4.57109     5.62671
 O    -2.48732     0.96851    14.53157
 O    -0.00779    -2.04425    11.60146
 O     5.42437     1.62523     2.61823
Tb     1.60432     5.71799     7.00542
Tb    -3.38578    -1.11952    14.22884
Tb     1.33520    -3.08267    10.05792
Tb     6.30976     3.73304     2.86530
 O     0.90873     3.43323     6.52731
 O    -8.42142     3.56526    11.22965
 O    -1.75075     2.46503     6.05707
 O    -9.59999     2.82847    13.75007
 O     6.63966     5.49886     4.42064
 O     0.27423     2.85650    12.35976
 O    -3.71985    -2.95146    12.73997
 O     2.64115    -0.20678     4.67080
 H     8.26757     6.41131     6.66988
 H    -0.25394     2.47906     9.50535
 H    -5.33939    -3.75939    10.38787
 H     3.11143     0.10679     7.58682
 H     6.06000     3.61368     6.49762
 H    -2.58712     3.29779    12.04579
 H    -3.18673    -1.02580    10.66445
 H     5.56922    -0.31059     5.00578
 H     6.13251     3.61414     8.20967
 H    -3.79944     2.83277    10.94093
 H    -3.19083    -0.98628     8.95794
 H     5.62297     1.31773     5.40487
 H     7.25133     4.46101     7.32228
 H    -2.36115     3.43346    10.38472
 H    -4.51682    -1.54723     9.76585
 H     5.09365     0.18938     6.53795
 H     7.28410     2.78817     7.30402
 H    -3.43522     4.46159    11.16169
 H    -4.15437     0.08613     9.82552
 H     6.71048     0.26579     6.13948
 H    -6.29498    -1.77973    15.33073
 H    -0.66313     4.11547     8.55696
 H    -6.84549    -2.61014     9.99721
 H     3.61808    -1.48631     8.50823
 H     8.23557     6.68928     8.19836
 H    -1.12860     1.78514     8.43516
 H    -5.35318    -4.06872     8.86765
 H     4.01703     0.85078     8.61225
 H    -5.81345    -3.11009    14.75689
 H    -0.87472     5.56448     8.99618
 H    -7.31611    -1.28190    10.58838
 H     3.81555    -2.93611     8.06639
 H    -9.81230     1.86099    13.47382
 H    -2.17096     3.10058     6.74592
 H    -8.17246     4.50864    11.54117
 H     1.31289     2.79395     5.84196
 H     5.98388     6.18568     4.84582
 H     0.09470     1.83856    12.33634
 H    -3.04003    -3.61201    12.33772
 H     2.67316     0.82481     4.63224
 H     0.31352     2.79491     7.00343
 H    -9.35086     3.52789    11.58072
 H    -1.14133     3.11520     5.61544
 H    -8.66981     2.88146    13.40360
 H     7.44490     6.08238     4.67753
 H     0.74123     2.82298    11.44984
 H    -4.51672    -3.50726    12.44932
 H     2.20668    -0.20411     5.60124
