  212
 
Tb     0.00000     0.00000     0.00000
 O     2.50444     0.00000     0.00000
 O     0.78842     2.22726     0.00000
 O     0.76207    -0.02236    -2.25453
 O     0.87229    -2.24815    -0.06712
 O     0.84075    -0.05146     2.22151
 O    -1.65214    -1.05175     1.57530
 O    -1.65831    -1.56272    -1.03645
 O    -1.68397     1.07374    -1.55053
 O    -1.67893     1.57610     1.07098
 C    -2.14409    -2.32807     1.16463
 C    -2.66664    -2.23876    -0.23169
 C    -2.18916    -1.12707    -2.33614
 C    -2.74777     0.27356    -2.15478
 C    -2.18624     2.34304    -1.11060
 C    -2.73681     2.20448     0.27787
 C    -2.16753     1.12261     2.38808
 C    -2.70711    -0.28858     2.27694
 H    -1.26091    -2.99558     1.28834
 H    -2.91853    -2.70972     1.87020
 H    -3.60655    -1.64952    -0.30616
 H    -2.81631    -3.24082    -0.68278
 H    -1.30883    -1.20063    -3.00202
 H    -2.96065    -1.83360    -2.70048
 H    -3.63796     0.30595    -1.49413
 H    -2.98964     0.73917    -3.12994
 H    -1.29590     3.00711    -1.18799
 H    -2.94575     2.73174    -1.82250
 H    -3.63754     1.56097     0.33548
 H    -2.94703     3.18485     0.74888
 H    -1.25955     1.22192     3.01642
 H    -2.92811     1.82944     2.77026
 H    -3.63711    -0.36621     1.68036
 H    -2.83759    -0.76687     3.26677
Tb    -0.85945    -5.76706     4.26777
 O    -3.36213    -5.67424     4.28254
 O    -1.56477    -3.51211     4.27217
 O    -1.63511    -5.76092     2.01778
 O    -1.62567     1.97168     5.78977
 O    -1.68841    -4.17810    -3.62055
 O     0.76184    -6.87949     5.83341
 O     0.73367    -7.39005     3.22173
 O     0.85398    -4.75629     2.70721
 O     0.88302    -4.25439     5.32865
 C     1.20372    -8.17312     5.41998
 C     1.72098    -8.10308     4.02060
 C     1.27263    -6.97423     1.91888
 C     1.88382    -5.59528     2.09679
 C     1.40553    -3.50653     3.14403
 C     1.95877    -3.66556     4.52925
 C     1.36224    -4.72581     6.64290
 C     1.84849    -6.15601     6.52874
 H     0.29683    -8.80731     5.54804
 H     1.96646    -8.58374     6.12199
 H     2.68202    -7.54974     3.94029
 H     1.82978    -9.11030     3.56909
 H     0.38661    -7.01426     1.25775
 H     2.01476    -7.70960     1.55052
 H     2.77818    -5.59556     2.75233
 H     2.13639    -5.13962     1.11917
 H     0.53968    -2.80997     3.07362
 H     2.17321    -3.14557     2.42665
 H     2.83548    -4.34160     4.58231
 H     2.20750    -2.69324     4.99859
 H     0.46286    -4.59355     7.27735
 H     2.15130    -4.04780     7.01948
 H     2.77180    -6.26840     5.92757
 H     1.96575    -6.63856     7.51823
Tb     9.42772     2.47636     0.39404
 O    11.93039     2.38354     0.37927
 O    10.13304     0.33141    -0.30167
 O    10.20338     3.16888    -1.74673
 O    10.19394    -5.35258    -0.56110
 O    10.25668     1.80481     2.51688
 O     7.80643     3.04790     2.22763
 O     7.83460     4.34387    -0.09659
 O     7.71428     1.99988    -1.40317
 O     7.68525     0.70911     0.93302
 C     7.36455     4.40596     2.23615
 C     6.84729     4.77373     0.88415
 C     7.29564     4.35297    -1.46415
 C     6.68445     2.98690    -1.72304
 C     7.16274     0.67626    -1.37582
 C     6.60950     0.39749    -0.00966
 C     7.20602     0.74933     2.32868
 C     6.71978     2.14434     2.66407
 H     8.27086     4.96891     2.55618
 H     6.59965     4.57832     3.02925
 H     5.88592     4.27310     0.63578
 H     6.73684     5.87121     0.76709
 H     8.18146     4.59794    -2.07907
 H     6.55098     5.16529    -1.58536
 H     5.78921     2.78476    -1.10003
 H     6.42931     2.85634    -2.79243
 H     8.02760     0.03621    -1.66167
 H     6.39273     0.55604    -2.16806
 H     5.73263     1.02428     0.24972
 H     6.36009    -0.67226     0.13481
 H     8.10564     0.42648     2.89007
 H     6.41732    -0.01239     2.47655
 H     5.79594     2.43726     2.12704
 H     6.60053     2.29755     3.75366
Tb     8.56827    -3.29070     4.66181
 O     6.06383    -3.29070     4.66181
 O     7.77985    -5.40796     3.97050
 O     7.80620    -2.56968     2.52557
 O     7.69598    -1.13275     5.29579
 O     7.72752    -2.32183    -3.32517
 O    10.22041    -2.77984     6.48575
 O    10.22658    -1.48346     4.16159
 O    10.25224    -3.83015     2.85458
 O    10.24720    -5.12137     5.19070
 C    10.71236    -1.43908     6.49151
 C    11.23491    -1.09060     5.13644
 C    10.75743    -1.49419     2.79087
 C    11.31604    -2.88194     2.52854
 C    10.75451    -5.17331     2.87881
 C    11.30507    -5.47254     4.24173
 C    10.73580    -5.09909     6.58351
 C    11.27538    -3.72310     6.91586
 H     9.82897    -0.84258     6.81537
 H    11.48647    -1.29521     7.28113
 H    12.17556    -1.62683     4.88272
 H    11.38437     0.00205     5.01893
 H     9.87831    -1.21742     2.17946
 H    11.52984    -0.70974     2.66440
 H    12.20662    -3.11768     3.14618
 H    11.55849    -3.02075     1.45678
 H     9.86391    -5.78095     2.60068
 H    11.51295    -5.32264     2.08076
 H    12.20621    -4.87956     4.49721
 H    11.51513    -6.55106     4.38411
 H     9.82808    -5.38696     7.15125
 H    11.49664    -5.88925     6.72705
 H    12.20606    -3.46369     6.37420
 H    11.40645    -3.57729     8.00573
Cl     3.41781    -6.83923    -1.03156
Cl    -4.34523    -2.52180     4.84086
Cl    12.91350    -0.78650    -0.06844
Cl     4.96129    -6.42208     4.22024
Cl    -0.51443    -4.96634    -0.78012
Cl    -0.34486    -0.79596     5.06890
Cl     8.91313    -2.49788    -0.38734
Cl     9.08270     1.67250     5.46168
Cl     3.69903     0.31204    -2.84835
Cl    -4.56111    -5.31784     1.44124
Cl    13.12938     2.92663    -2.43232
Cl     4.86923    -2.70324     1.85728
 O     3.41407    -3.56926    -0.80691
 O    -4.21899     0.74576     5.06512
 O    12.78725    -3.96229    -0.86945
 O     5.15420     0.35273     5.00258
 O     3.48411    -0.03507     2.76383
 O    -4.32611    -4.06382    -3.06265
 O    12.89438     1.52301     3.01175
 O     5.08415    -2.50574    -2.81473
 H     3.13447     0.21749     0.74624
 H     3.15180     0.07842    -0.77140
 H     0.37059     3.15741     0.04779
 H     1.81196     2.58535     0.11492
 H     1.74093     0.03245    -2.64112
 H     0.30358     0.06120    -3.17203
 H     1.81923    -2.59923    -0.23173
 H     0.40619    -3.16677    -0.11339
 H     1.82798    -0.02618     2.56027
 H     0.40920    -0.16827     3.14898
 H    -4.00383    -5.47308     3.52826
 H    -3.98497    -5.52048     5.04907
 H    -1.11099    -2.59885     4.30565
 H    -2.57227    -3.11510     4.40481
 H    -1.17751    -5.70361     1.09800
 H    -2.61251    -5.66980     1.63631
 H    -1.19387     1.03742     5.73914
 H    -2.58774     1.65810     5.63384
 H    -1.25254    -4.31266    -2.69714
 H    -2.67022    -4.11219    -3.27365
 H    12.57689     2.49208    -0.38930
 H    12.54757     1.94211     1.03177
 H    11.14103    -0.08486    -0.30670
 H     9.68022    -0.54884    -0.55137
 H    11.18084     3.19254    -2.14049
 H     9.74704     3.40612    -2.63702
 H     9.76286    -4.45392    -0.29722
 H    11.15103    -4.99584    -0.63042
 H    11.23956     1.63623     2.82675
 H     9.82178     1.64380     3.43618
 H     5.43233    -3.82195     5.23169
 H     5.42039    -3.04115     3.92415
 H     8.20427    -6.30753     3.73676
 H     6.75988    -5.78773     3.96116
 H     8.27149    -2.32554     1.64115
 H     6.83347    -2.53843     2.12141
 H     8.16122    -0.24238     5.52657
 H     6.74315    -0.75994     5.27329
 H     8.15762    -2.50337    -2.40825
 H     6.73772    -2.45398    -3.01226
 H     3.96842    -3.39565    -0.02075
 H     3.31829    -4.53839    -0.83954
 H    -4.10188    -0.22104     5.07366
 H    -4.80570     0.93894     5.82224
 H    12.72409    -3.04406    -0.55134
 H    13.32083    -4.42935    -0.19708
 H     5.34391     1.26848     5.27355
 H     4.54555     0.00484     5.68309
 H     4.01811     0.31799     3.49508
 H     3.85556    -0.92377     2.60827
 H    -4.73476    -4.94501    -3.16652
 H    -4.83520    -3.66008    -2.33779
 H    13.30966     2.39659     3.14491
 H    13.40976     0.93307     3.58732
 H     4.74702    -1.59150    -2.77148
 H     4.54267    -2.99334    -2.17100
