  256
 
 S     0.00000     0.00000     0.00000
 O     1.45389     0.00000     0.00000
 O    -0.32703     1.54217     0.00000
 O    -0.57760    -0.56363    -1.20900
 C    -1.86665     3.37491     0.00000
 C    -1.74466     1.90480     0.00000
 H    -2.75528     3.65258     0.00000
 H    -1.51890     3.73130    -0.67200
 H    -2.35438     1.45641    -0.69100
 O    -0.57760    -0.56363     1.20900
 H    -2.35438     1.45641     0.69100
 H    -1.51890     3.73130     0.67200
 S    -5.80891    -6.71536     0.00000
 O    -6.53598    -7.97394     0.00000
 O    -4.30964    -7.20347     0.00000
 O    -6.00904    -5.93419    -1.20900
 C    -1.95285    -6.78634     0.00000
 C    -3.28711    -6.15753     0.00000
 H    -1.26820    -6.15608     0.00000
 H    -1.81855    -7.26644    -0.67200
 H    -3.37191    -5.40505    -0.69100
 O    -6.00904    -5.93419     1.20900
 H    -3.37191    -5.40505     0.69100
 H    -1.81855    -7.26644     0.67200
 S     2.48173    -6.53109     0.00000
 O     1.75550    -5.27170     0.00000
 O     1.30949    -7.58514     0.00000
 O     3.25807    -6.74884    -1.20900
 C     0.49232    -9.83502     0.00000
 C     1.70379    -8.99313     0.00000
 H     0.69550   -10.74236     0.00000
 H     0.01028    -9.71131    -0.67200
 H     2.39831    -9.29722    -0.69100
 O     3.25807    -6.74884     1.20900
 H     2.39831    -9.29722     0.69100
 H     0.01028    -9.71131     0.67200
 S    -1.71682    -4.22988     3.50900
 O    -3.17071    -4.22988     3.50900
 O    -1.38979    -5.77204     3.50900
 O    -1.14002    -3.66565     2.30100
 C     0.14984    -7.60478     3.50900
 C     0.02645    -6.13490     3.50900
 H     1.03766    -7.88187     3.50900
 H    -0.19872    -7.96059     2.83800
 H     0.63676    -5.68570     2.81900
 O    -1.14002    -3.66565     4.71800
 H     0.63676    -5.68570     4.20000
 H    -0.19872    -7.96059     4.18100
 S     4.09209     2.48548     3.50900
 O     4.81836     3.74466     3.50900
 O     2.59282     2.97360     3.50900
 O     4.29222     1.70432     2.30100
 C     0.23522     2.55705     3.50900
 C     1.57029     1.92765     3.50900
 H    -0.44862     1.92620     3.50900
 H     0.10174     3.03656     2.83800
 H     1.65369     1.17496     2.81900
 O     4.29222     1.70432     4.71800
 H     1.65369     1.17496     4.20000
 H     0.10174     3.03656     4.18100
 S     7.00326    -5.90323     3.50900
 O     7.73007    -7.16181     3.50900
 O     8.17609    -4.84837     3.50900
 O     6.22611    -5.68488     2.30100
 C     8.99325    -2.59849     3.50900
 C     7.78098    -3.43978     3.50900
 H     8.78927    -1.69056     3.50900
 H     9.47530    -2.72219     2.83800
 H     7.08727    -3.13628     2.81900
 O     6.22611    -5.68488     4.71800
 H     7.08727    -3.13628     4.20000
 H     9.47530    -2.72219     4.18100
 O     3.30986    -0.87947     1.82000
 O     0.95954    -1.25053     3.50900
 H     2.71560    -0.65004     1.30000
 H     3.70030    -0.12796     1.91100
 H     0.41390    -1.12735     2.84700
Tb     3.12711    -2.54906     3.50900
 O     4.47973    -3.54208     1.82000
 O     1.58872    -3.22467     1.82000
 O     3.30986    -0.87947    -1.82000
 O     4.47973    -3.54208    -1.82000
 O     1.58872    -3.22467    -1.82000
 O     5.33364    -1.32159     3.50900
 O     3.08513    -5.07411     3.50900
 H     0.41390    -1.12735     4.17100
 H     4.97541    -3.14280     1.30000
 H     4.93572    -4.25652     1.91100
 H     1.68672    -3.85419     1.30000
 H     0.74229    -3.26174     1.91100
 H     2.71560    -0.65004    -1.30000
 H     3.70030    -0.12796    -1.91200
 H     4.97541    -3.14280    -1.30000
 H     4.93572    -4.25652    -1.91200
 H     1.68672    -3.85419    -1.30000
 H     0.74229    -3.26174    -1.91200
 H     5.71377    -0.91082     2.84700
 H     5.71377    -0.91082     4.17100
 H     3.25064    -5.60805     2.84700
 H     3.25064    -5.60805     4.17100
 O    -5.02748    -3.34982    -1.68900
 O    -2.67636    -2.97935     0.00000
 H    -4.43242    -3.57984    -2.21000
 H    -5.41712    -4.10192    -1.59800
 H    -2.13072    -3.10253    -0.66200
Tb    -4.84393    -1.68081     0.00000
 O    -6.19736    -0.68720    -1.68900
 O    -3.30554    -1.00521    -1.68900
 O    -5.02748    -3.34982     1.68900
 O    -6.19736    -0.68720     1.68900
 O    -3.30554    -1.00521     1.68900
 O    -7.05046    -2.90829     0.00000
 O    -4.80276     0.84482     0.00000
 H    -2.13072    -3.10253     0.66200
 H    -6.69303    -1.08649    -2.21000
 H    -6.65254     0.02665    -1.59800
 H    -3.40412    -0.37649    -2.21000
 H    -2.45991    -0.96755    -1.59800
 H    -4.43242    -3.57984     2.20900
 H    -5.41712    -4.10192     1.59800
 H    -6.69303    -1.08649     2.20900
 H    -6.65254     0.02665     1.59800
 H    -3.40412    -0.37649     2.20900
 H    -2.45991    -0.96755     1.59800
 H    -7.43059    -3.31905    -0.66200
 H    -7.43059    -3.31905     0.66200
 H    -4.96827     1.37877    -0.66200
 H    -4.96827     1.37877     0.66200
 S     0.00000     0.00000    -7.01900
 O     1.45390     0.00000    -7.01900
 O    -0.32703     1.54217    -7.01900
 O    -0.57760    -0.56363    -8.22800
 C    -1.86665     3.37491    -7.01900
 C    -1.74466     1.90480    -7.01900
 H    -2.75528     3.65258    -7.01900
 H    -1.51890     3.73130    -7.69100
 H    -2.35438     1.45641    -7.71000
 O    -0.57760    -0.56363    -5.81000
 H    -2.35438     1.45641    -6.32800
 H    -1.51890     3.73130    -6.34700
 S    -5.80891    -6.71536    -7.01900
 O    -6.53598    -7.97394    -7.01900
 O    -4.30964    -7.20347    -7.01900
 O    -6.00904    -5.93419    -8.22800
 C    -1.95285    -6.78634    -7.01900
 C    -3.28711    -6.15753    -7.01900
 H    -1.26820    -6.15608    -7.01900
 H    -1.81855    -7.26644    -7.69100
 H    -3.37191    -5.40505    -7.71000
 O    -6.00904    -5.93419    -5.81000
 H    -3.37191    -5.40505    -6.32800
 H    -1.81855    -7.26644    -6.34700
 S     2.48173    -6.53109    -7.01900
 O     1.75550    -5.27170    -7.01900
 O     1.30949    -7.58514    -7.01900
 O     3.25807    -6.74884    -8.22800
 C     0.49232    -9.83502    -7.01900
 C     1.70379    -8.99313    -7.01900
 H     0.69550   -10.74236    -7.01900
 H     0.01028    -9.71131    -7.69100
 H     2.39831    -9.29722    -7.71000
 O     3.25807    -6.74884    -5.81000
 H     2.39831    -9.29722    -6.32800
 H     0.01028    -9.71131    -6.34700
 S    -1.71682    -4.22988    -3.51000
 O    -3.17071    -4.22988    -3.51000
 O    -1.38979    -5.77204    -3.51000
 O    -1.14002    -3.66565    -4.71800
 C     0.14984    -7.60478    -3.51000
 C     0.02645    -6.13490    -3.51000
 H     1.03766    -7.88187    -3.51000
 H    -0.19872    -7.96059    -4.18100
 H     0.63676    -5.68570    -4.20000
 O    -1.14002    -3.66565    -2.30100
 H     0.63676    -5.68570    -2.81900
 H    -0.19872    -7.96059    -2.83800
 S     4.09209     2.48548    -3.51000
 O     4.81836     3.74466    -3.51000
 O     2.59282     2.97360    -3.51000
 O     4.29222     1.70432    -4.71800
 C     0.23522     2.55705    -3.51000
 C     1.57029     1.92765    -3.51000
 H    -0.44862     1.92620    -3.51000
 H     0.10174     3.03656    -4.18100
 H     1.65369     1.17496    -4.20000
 O     4.29222     1.70432    -2.30100
 H     1.65369     1.17496    -2.81900
 H     0.10174     3.03656    -2.83800
 S     7.00326    -5.90323    -3.51000
 O     7.73007    -7.16181    -3.51000
 O     8.17609    -4.84837    -3.51000
 O     6.22611    -5.68488    -4.71800
 C     8.99325    -2.59849    -3.51000
 C     7.78098    -3.43978    -3.51000
 H     8.78928    -1.69056    -3.51000
 H     9.47530    -2.72219    -4.18100
 H     7.08727    -3.13628    -4.20000
 O     6.22611    -5.68488    -2.30100
 H     7.08727    -3.13628    -2.81900
 H     9.47530    -2.72219    -2.83800
 O     3.30986    -0.87947    -5.19900
 O     0.95954    -1.25053    -3.51000
 H     2.71560    -0.65004    -5.71900
 H     3.70030    -0.12796    -5.10800
 H     0.41390    -1.12735    -4.17200
Tb     3.12711    -2.54906    -3.51000
 O     4.47973    -3.54208    -5.19900
 O     1.58872    -3.22467    -5.19900
 O     3.30986    -0.87947    -8.83900
 O     4.47973    -3.54208    -8.83900
 O     1.58872    -3.22467    -8.83900
 O     5.33364    -1.32159    -3.51000
 O     3.08513    -5.07411    -3.51000
 H     0.41390    -1.12735    -2.84800
 H     4.97541    -3.14280    -5.71900
 H     4.93572    -4.25652    -5.10800
 H     1.68672    -3.85419    -5.71900
 H     0.74229    -3.26174    -5.10800
 H     2.71560    -0.65004    -8.31900
 H     3.70030    -0.12796    -8.93100
 H     4.97541    -3.14280    -8.31900
 H     4.93572    -4.25652    -8.93100
 H     1.68672    -3.85419    -8.31900
 H     0.74229    -3.26174    -8.93100
 H     5.71377    -0.91082    -4.17200
 H     5.71377    -0.91082    -2.84800
 H     3.25064    -5.60805    -4.17200
 H     3.25064    -5.60805    -2.84800
 O    -5.02748    -3.34982    -8.70800
 O    -2.67636    -2.97935    -7.01900
 H    -4.43242    -3.57984    -9.22900
 H    -5.41712    -4.10192    -8.61700
 H    -2.13072    -3.10253    -7.68100
Tb    -4.84393    -1.68081    -7.01900
 O    -6.19736    -0.68720    -8.70800
 O    -3.30554    -1.00521    -8.70800
 O    -5.02748    -3.34982    -5.33000
 O    -6.19736    -0.68720    -5.33000
 O    -3.30554    -1.00521    -5.33000
 O    -7.05046    -2.90829    -7.01900
 O    -4.80276     0.84482    -7.01900
 H    -2.13072    -3.10253    -6.35700
 H    -6.69303    -1.08649    -9.22900
 H    -6.65254     0.02665    -8.61700
 H    -3.40412    -0.37649    -9.22900
 H    -2.45991    -0.96755    -8.61700
 H    -4.43242    -3.57984    -4.81000
 H    -5.41712    -4.10192    -5.42100
 H    -6.69303    -1.08649    -4.81000
 H    -6.65254     0.02665    -5.42100
 H    -3.40412    -0.37649    -4.81000
 H    -2.45991    -0.96755    -5.42100
 H    -7.43059    -3.31905    -7.68100
 H    -7.43059    -3.31905    -6.35700
 H    -4.96827     1.37877    -7.68100
 H    -4.96827     1.37877    -6.35700
