   80
 
Br     0.00000     0.00000     0.00000
Br     2.50638    -2.38337    -3.71790
Br    -1.92234     3.13915     1.80787
Br     5.74077    -2.25751    -7.29195
Br    -8.89896    -4.53451     0.30155
Br    -6.42755    -6.76520    -3.19320
Br   -10.81542    -1.42148     2.11057
Br    -3.17208    -6.64365    -6.76640
Te     0.24944     2.17564    -1.54419
Te     2.48937    -0.03707    -5.02726
Te    -2.15347     0.95641     3.34790
Te     5.77043    -4.60080    -5.97214
Te    -8.66709    -2.35708    -1.24610
Te    -6.45173    -4.42462    -4.51027
Te   -11.06814    -3.59546     3.65335
Te    -3.15722    -8.99504    -5.45568
Br     4.95540     0.03941    -4.85285
Br    -2.21870     2.31514    -1.46214
Br     3.30774    -4.62706    -6.15223
Br     0.31020     0.79736     3.23613
Br    -3.98872    -4.38889    -4.34235
Br   -11.13123    -2.20828    -1.14049
Br    -5.62266    -9.04381    -5.64866
Br    -8.60038    -3.74349     3.57536
Br     1.14494     3.34920     0.44146
Br     2.29342    -1.34702    -7.11960
Br    -3.08515    -0.20170     1.37465
Br     5.98130    -3.26105    -3.90296
Br    -7.73023    -1.19516     0.72343
Br    -6.67645    -5.73941    -6.59282
Br   -11.96823    -4.77565     1.67287
Br    -2.97642    -7.66605    -3.37269
Br     3.05346     2.56186    -3.12110
Br    -0.27751     1.72995    -4.70968
Br     5.15628    -7.15786    -7.84655
Br     8.57418    -6.27512    -6.04289
Br    -5.80911    -1.89874    -2.61509
Br    -9.25730    -2.74446    -4.42424
Br    -3.35688    -4.78711   -11.54982
Br    -0.03324    -3.91894    -9.95630
Br    -9.29692    -1.84695    -7.76036
Br    -5.51824     1.37474    -1.82380
Br     0.14618    -4.89033    -6.64306
Br   -13.86257    -0.59496     0.35153
Br    -0.83536    -4.15362    -3.80954
Br     3.05681    -0.85740     1.74907
Br     8.61859    -7.15415    -2.71078
Br    -5.30585    -2.79137     3.91466
Br   -11.41136    -0.05948    -5.34442
Br    -3.37542    -0.03301    -4.35813
Br     2.10113    -6.69258    -9.13406
Br   -15.94292     1.00300     2.84035
Br    -2.76151    -2.34405    -1.30920
Br     5.10725    -2.48397    -0.75125
Br    10.73965    -8.94155    -5.12484
Br    -7.45946    -1.40310     6.44982
Te    -9.01350    -0.42107    -5.76652
Te    -5.78377     0.39104    -4.07198
Te    -0.26921    -6.25987    -8.64614
Te   -13.54347     0.60364     2.47903
Te    -0.39508    -2.78274    -1.81051
Te     2.71669    -2.03664    -0.38637
Te     8.34059    -8.59949    -4.69307
Te    -5.04764    -1.80466     6.16082
Br    -9.04662     1.77789    -7.27743
Br    -5.47944     2.71179    -5.32315
Br    -0.31688    -8.45786    -7.12915
Br   -13.77712    -1.71044     3.79265
Br    -0.34501    -0.58491    -3.32832
Br     2.95408     0.27483    -1.69695
Br     8.38115   -10.79106    -3.17675
Br    -5.34577    -4.12870     7.41162
Br    -6.18829    -2.23604    -6.04511
Br    -8.72072     0.02395    -2.46485
Br    -3.03746    -4.33517    -8.13982
Br   -10.66433     0.87107     0.66058
Br     2.36364    -4.69021    -2.34277
Br    -0.15759    -2.29233     1.44939
Br     5.50452    -6.78301    -4.43412
Br    -2.10203    -1.42533     4.56832
