   81
 
Te     0.00000     0.00000     0.00000
Te    -2.47185    -3.66707     1.04364
Te    -1.32321    -2.00717     2.20565
Te     3.68024     5.26325     0.12311
Te     1.15918     1.64300     1.17622
Te     2.32516     3.29268     2.33731
Te     7.36050    10.54443     0.18592
Te     4.86860     6.90192     1.27799
Te     6.06035     8.54094     2.42632
Te     3.46164    -2.37979    -1.75253
Te     0.94289    -6.00047    -0.70290
Te     2.03787    -4.28311     0.44661
Te     7.13389     2.89548    -1.68222
Te     4.56982    -0.67805    -0.59197
Te     5.69670     1.01988     0.55034
Te    10.83505     8.15863    -1.56341
Te     8.26706     4.57858    -0.51882
Te     9.41038     6.25939     0.63249
Te     6.74470    -4.85168    -3.68296
Te     4.28175    -8.52201    -2.58368
Te     5.35294    -6.78213    -1.46363
Te    10.42518     0.43464    -3.58970
Te     7.88889    -3.18985    -2.49712
Te     9.00062    -1.48467    -1.36307
Te    14.13827     5.67301    -3.46178
Te    11.58944     2.07093    -2.38952
Te    12.71119     3.76191    -1.24503
Te    -2.65429     2.28421    -3.45097
Te    -4.96867    -1.14674    -1.31413
Te    -3.78484     0.56598    -2.35261
Te     1.06301     7.53324    -3.37087
Te    -1.31899     4.17601    -1.19299
Te    -0.10336     5.84994    -2.25890
Te     4.70520    12.83682    -3.26656
Te     2.39520     9.41376    -1.11431
Te     3.57152    11.12204    -2.16801
Te     0.29120    -0.46086    -5.31041
Te    -2.00646    -4.24227    -4.28752
Te    -0.70278    -2.68502    -3.14501
Te     4.00061     4.79969    -5.24142
Te     1.60306     1.08726    -4.16443
Te     2.94874     2.62111    -3.04301
Te     7.67477    10.07812    -5.14082
Te     5.31188     6.34494    -4.09196
Te     6.64164     7.88492    -2.96170
Te     4.18706    -2.20139    -7.10319
Te     2.07653    -5.74435    -4.95410
Te     3.11194    -3.95748    -6.02795
Te     7.89796     3.06003    -7.00828
Te     5.68308    -0.42970    -4.87327
Te     6.77720     1.32857    -5.93385
Te    11.52999     8.37643    -6.88199
Te     9.40695     4.81344    -4.77897
Te    10.46047     6.60245    -5.82686
Te    -5.43656     4.57159    -6.69429
Te    -7.51340     0.97923    -4.59238
Te    -6.47405     2.76469    -5.66395
Te    -1.73229     9.82189    -6.61382
Te    -3.84699     6.26908    -4.48549
Te    -2.78843     8.03466    -5.56763
Te     1.89724    15.13728    -6.50739
Te    -0.13526    11.51702    -4.41393
Te     0.89314    13.30654    -5.48425
Te    -2.71281     1.31656    -8.76393
Te    -5.05410    -2.39882    -7.74982
Te    -3.82643    -0.78381    -6.59307
Te     0.96264     6.58340    -8.65057
Te    -1.42077     2.90598    -7.65514
Te    -0.15565     4.48140    -6.48371
Te     4.65858    11.87013    -8.56547
Te     2.27836     8.16688    -7.56182
Te     3.55554     9.73951    -6.39713
Te     0.62265    -1.02279   -10.65469
Te    -1.73233    -4.76293    -9.65374
Te    -0.47030    -3.19164    -8.47362
Te     4.30900     4.26248   -10.52799
Te     1.91978     0.55286    -9.53769
Te     3.20413     2.10250    -8.35440
Te     7.95433     9.46842   -10.37968
Te     5.64363     5.82838    -9.44211
Te     6.96675     7.44015    -8.38904
