  224
 
Te     0.00000     0.00000     0.00000
Te    -4.68438    -0.49987    -1.31113
Te    -2.21754    -3.29196     1.47844
Te     1.12803    -4.37687    -1.23009
 F    -1.36270    -0.40658    -1.07862
 F    -5.15093     0.13162     0.32393
 F    -0.83269    -2.91361     2.56240
 F     1.58055    -5.00235    -2.86585
 F     1.40483     0.43487     1.11731
 F    -4.25351    -1.13012    -2.95921
 F    -3.60766    -3.75560     0.37880
 F     0.67698    -3.74297     0.41582
 F    -0.84051    -0.75377     1.39607
 F    -5.99401     0.51731    -2.05786
 F    -1.34451    -4.84920     0.95076
 F     2.40747    -3.11710    -1.34985
 F    -1.35905    -2.56487     0.08770
 F     2.40932    -5.38297    -0.47513
 F    -0.84195     1.50835     0.52641
 F    -5.99998    -1.75377    -1.18664
 F     0.83895    -1.54333    -0.44211
 F    -3.46149     0.82239    -1.47854
 F    -3.04961    -4.18643     2.86490
 F    -0.11819    -3.28364    -1.99046
 F    -3.03813    -1.79166     1.91797
 F    -0.12817    -5.70583    -1.06220
 F     0.84527     0.86735    -1.36809
 F    -3.45967    -1.59053    -0.55429
Te     1.38992     1.55168     4.02191
Te    -3.32609     1.04632     2.70707
Te    -0.85147    -1.76675     5.50303
Te     2.46577    -2.81862     2.78242
 F     0.00296     1.14091     2.93849
 F    -3.78199     1.67609     4.34076
 F     0.53809    -1.36268     6.58860
 F     2.94568    -3.45190     1.15251
 F     2.76331     1.98142     5.13936
 F    -2.87897     0.41549     1.05949
 F    -2.23144    -2.20578     4.39610
 F     2.04724    -2.18312     4.43294
 F     0.52269     0.79096     5.42044
 F    -4.62607     2.06351     1.95528
 F     0.01512    -3.28886     4.97760
 F     3.78804    -1.55957     2.66717
 F     0.01579    -1.01240     4.10019
 F     3.77728    -3.83848     3.54713
 F     0.52255     3.06156     4.55092
 F    -4.62801    -0.20547     2.83289
 F     2.20919     0.00787     3.58188
 F    -2.09231     2.36597     2.54167
 F    -1.67408    -2.62668     6.86786
 F     1.25191    -1.73133     2.02650
 F    -1.67244    -0.23335     5.93553
 F     1.25860    -4.13751     2.95755
 F     2.21436     2.41489     2.66123
 F    -2.08859    -0.03967     3.46234
Te     0.04694     6.81120    -2.62370
Te    -4.68561     6.31996    -3.94595
Te    -2.22301     3.46792    -1.12649
Te     1.18453     2.40166    -3.83888
 F    -1.37533     6.38886    -3.71619
 F    -5.14586     6.94136    -2.28804
 F    -0.82476     3.88552    -0.04654
 F     1.58224     1.79919    -5.46168
 F     1.39229     7.24152    -1.52650
 F    -4.24803     5.67649    -5.57085
 F    -3.59786     3.04624    -2.23254
 F     0.68100     3.06744    -2.17944
 F    -0.84053     6.04289    -1.22273
 F    -5.97673     7.31703    -4.67747
 F    -1.35078     1.96130    -1.65999
 F     2.41290     3.67973    -3.95287
 F    -1.35169     4.23056    -2.53347
 F     2.41638     1.42261    -3.08295
 F    -0.84029     8.31967    -2.10631
 F    -5.99413     5.04479    -3.80023
 F     0.84070     5.25893    -3.06126
 F    -3.46103     7.61273    -4.09446
 F    -3.04132     2.61982     0.22827
 F    -0.13079     3.54113    -4.61796
 F    -3.03483     5.01794    -0.69020
 F    -0.11239     1.10236    -3.66724
 F     0.83941     7.66478    -3.98924
 F    -3.46194     5.20904    -3.16882
Te     1.40224     8.36081     1.39503
Te    -3.34655     7.85631     0.09156
Te    -0.85568     5.01839     2.90160
Te     2.51080     3.97631     0.17932
 F     0.00058     7.93950     0.30810
 F    -3.77489     8.48435     1.72521
 F     0.54319     5.43619     3.97451
 F     2.94542     3.34358    -1.44931
 F     2.76523     8.79200     2.50867
 F    -2.87265     7.22254    -1.55850
 F    -2.22852     4.59643     1.78565
 F     2.04974     4.61406     1.83115
 F     0.52877     7.59136     2.80026
 F    -4.62345     8.87384    -0.66806
 F     0.01877     3.51260     2.36382
 F     3.78220     5.23068     0.06468
 F     0.02263     5.78456     1.48079
 F     3.77741     2.96153     0.93667
 F     0.52577     9.86581     1.91690
 F    -4.62097     6.58702     0.21866
 F     2.21254     6.80680     0.96620
 F    -2.08587     9.18026    -0.08083
 F    -1.67227     4.17385     4.24678
 F     1.26395     5.08140    -0.59118
 F    -1.66412     6.57247     3.32606
 F     1.25016     2.64447     0.35327
 F     2.21280     9.21902     0.03562
 F    -2.07793     6.75074     0.85922
Te     7.75475    -0.87544    -2.29557
Te     3.04620    -1.38473    -3.62073
Te     5.52990    -4.23456    -0.81836
Te     8.87791    -5.26272    -3.53480
 F     6.38512    -1.30203    -3.38176
 F     2.57745    -0.75208    -1.96127
 F     6.90630    -3.79833     0.27004
 F     9.34011    -5.89559    -5.17819
 F     9.16421    -0.46255    -1.20215
 F     3.48512    -2.01671    -5.24292
 F     4.14084    -4.64874    -1.92436
 F     8.42770    -4.63888    -1.89824
 F     6.90618    -1.64664    -0.90318
 F     1.74692    -0.37148    -4.35403
 F     6.37936    -5.72494    -1.33754
 F    10.17231    -4.00605    -3.66560
 F     6.38065    -3.45228    -2.21353
 F    10.17424    -6.27466    -2.78989
 F     6.90839     0.60965    -1.77468
 F     1.74355    -2.64108    -3.49038
 F     8.59409    -2.44464    -2.74906
 F     4.27834    -0.07040    -3.77305
 F     4.69948    -5.07830     0.54920
 F     7.63913    -4.17558    -4.30091
 F     4.69097    -2.66106    -0.37523
 F     7.64621    -6.58686    -3.37538
 F     8.59534    -0.03130    -3.67028
 F     4.27982    -2.47674    -2.84583
Te     9.15485     0.64581     1.72403
Te     4.42066     0.16433     0.43129
Te     6.88681    -2.66771     3.20726
Te    10.24244    -3.71953     0.47203
 F     7.74748     0.24517     0.62805
 F     3.95397     0.78710     2.04319
 F     8.28187    -2.25693     4.29581
 F    10.70628    -4.35073    -1.15742
 F    10.52145     1.08891     2.82992
 F     4.85877    -0.47929    -1.24466
 F     5.51209    -3.10081     2.09906
 F     9.79322    -3.07984     2.14183
 F     8.26924    -0.10445     3.12342
 F     3.11167     1.17801    -0.34451
 F     7.75228    -4.17796     2.68505
 F    11.54764    -2.45961     0.35469
 F     7.75253    -1.90448     1.79979
 F    11.54119    -4.73000     1.23525
 F     8.27520     2.17841     2.25794
 F     3.11424    -1.09468     0.52697
 F     9.95027    -0.87030     1.28255
 F     5.64890     1.47773     0.24673
 F     6.07254    -3.52134     4.56969
 F     9.00970    -2.62585    -0.27693
 F     6.07085    -1.12617     3.64070
 F     9.00969    -5.02917     0.64980
 F     9.96398     1.52170     0.35170
 F     5.64619    -0.92660     1.16717
Te     7.77339     5.91888    -4.92734
Te     3.06507     5.41087    -6.22418
Te     5.55051     2.57961    -3.42837
Te     8.88407     1.54345    -6.19603
 F     6.37995     5.50121    -6.00839
 F     2.58915     6.05488    -4.58823
 F     6.90106     2.99649    -2.35077
 F     9.34220     0.90215    -7.77567
 F     9.15765     6.34622    -3.82892
 F     3.49095     4.78782    -7.86719
 F     4.12431     2.15347    -4.54670
 F     8.42173     2.17468    -4.48673
 F     6.91147     5.15667    -3.52584
 F     1.75053     6.44169    -6.98801
 F     6.38025     1.07377    -3.95974
 F    10.17382     2.78371    -6.27480
 F     6.38296     3.34270    -4.83109
 F    10.18573     0.51203    -5.39484
 F     6.90875     7.42652    -4.40462
 F     1.75411     4.16205    -6.10247
 F     8.59481     4.36745    -5.36495
 F     4.28534     6.73886    -6.39640
 F     4.69351     1.71980    -2.06128
 F     7.64999     2.61411    -6.90404
 F     4.69908     4.13556    -2.99073
 F     7.63773     0.20280    -5.98054
 F     8.59571     6.77166    -6.29605
 F     4.27455     4.33469    -5.46725
Te     9.14301     7.46645    -0.89618
Te     4.42431     6.96259    -2.20410
Te     6.89419     4.12812     0.59044
Te    10.25382     3.08827    -2.12579
 F     7.75234     7.04766    -1.98445
 F     3.95954     7.59818    -0.57319
 F     8.26782     4.54902     1.68287
 F    10.70301     2.44973    -3.76629
 F    10.52450     7.89369     0.19958
 F     4.86364     6.33168    -3.85148
 F     5.48975     3.70128    -0.52444
 F     9.80297     3.71555    -0.48550
 F     8.28217     6.70585     0.49402
 F     3.12584     7.98145    -2.96554
 F     7.75444     2.62846     0.07220
 F    11.54265     4.33120    -2.25331
 F     7.75603     4.89175    -0.80810
 F    11.54237     2.06492    -1.38505
 F     8.27912     8.97390    -0.38094
 F     3.12684     5.70480    -2.08513
 F     9.96652     5.91616    -1.33942
 F     5.65446     8.28393    -2.37722
 F     6.06446     3.27855     1.95693
 F     9.01338     4.17360    -2.88968
 F     6.06682     5.69682     1.03545
 F     9.00596     1.75868    -1.95911
 F     9.96856     8.32182    -2.27570
 F     5.65150     5.87627    -1.44595
