  104
 
Te     0.00000     0.00000     0.00000
Te    -6.16479    -0.05190    -0.18130
Te    -3.11298    -4.68050     0.00550
Te    -3.03950     4.62999    -0.15381
 O     0.60174    -0.60012    -1.65784
 O    -4.53095    -0.87083     0.20629
 O    -0.55283     0.57381     1.69019
 O    -7.83920     0.68922    -0.54401
 O     1.50253     1.07016     0.38023
 O    -6.95393    -1.58663    -0.93102
 O    -1.48849    -1.08976    -0.37766
 O    -5.33490     1.47638     0.54846
 O    -6.86479    -0.63078     1.45920
 O    -0.73076     1.58306    -0.70274
 O    -5.40224     0.55083    -1.78865
 O     0.71993    -1.56745     0.74628
 O    -2.59901    -4.10301    -1.69677
 O    -2.27277     3.21969     0.80391
 O    -3.65549    -5.28810     1.68958
 O    -3.81178     6.02811    -1.12544
 O    -4.60065     3.69049    -0.58374
 O    -2.21608    -3.31444     0.91239
 O    -1.49525     5.56368     0.33423
 O    -3.97622    -6.07401    -0.89216
 O    -3.88783     5.02546     1.47212
 O    -4.55423    -3.50762    -0.28485
 O    -2.20359     4.23696    -1.78884
 O    -1.74247    -5.93242     0.24348
 H    -8.13864     1.65876    -0.42383
 H    -1.35378     0.26256     2.22322
 H    -4.29658    -1.85551     0.11918
 H     1.38178    -0.24701    -2.20044
 H     1.91521     1.12027     1.30283
 H    -7.56602    -1.53648    -1.73801
 H    -1.87099    -1.15348    -1.31955
 H    -4.75246     1.43093     1.37589
 H     1.20219    -1.58057     1.63997
 H    -5.92123     0.56908    -2.66708
 H    -1.22625     1.61260    -1.59078
 H    -6.30034    -0.62763     2.30989
 H    -1.80338    -4.40001    -2.24492
 H    -1.58679     2.54147     0.48089
 H    -4.44453    -4.96535     2.23741
 H    -4.48190     6.72013    -0.80035
 H    -4.56018    -6.79607    -0.46736
 H    -1.28877     6.54593     0.16415
 H    -1.63824    -2.58991     0.48711
 H    -4.74316     2.68373    -0.47738
 H    -3.39182     5.06196     2.35738
 H    -5.11123    -3.52722    -1.13298
 H    -2.69490     4.22258    -2.67387
 H    -0.89128    -5.87688     0.74265
Te    -0.66027    -4.79232     4.24353
Te    -6.83460    -4.84910     4.07448
Te    -3.78362    -9.47107     4.26298
Te    -3.70598    -0.16325     4.10564
 O    -0.06777    -5.40336     2.58682
 O    -5.20427    -5.67259     4.46582
 O    -1.18658    -4.21095     5.94018
 O    -8.50857    -4.10807     3.71020
 O     0.85797    -3.73992     4.61406
 O    -7.63785    -6.38181     3.33364
 O    -2.17180    -5.85358     3.87664
 O    -6.00522    -3.31760     4.79928
 O    -7.53647    -5.41745     5.71947
 O    -1.37897    -3.19945     3.54787
 O    -6.08111    -4.25539     2.46036
 O     0.04633    -6.37010     4.98239
 O    -3.27152    -8.89840     2.55877
 O    -2.93998    -1.58371     5.05036
 O    -4.29341   -10.08171     5.95574
 O    -4.48145     1.22574     3.12482
 O    -5.26722    -1.10255     3.67101
 O    -2.90682    -8.08703     5.16307
 O    -2.17255     0.77954     4.60482
 O    -4.64960   -10.86058     3.36372
 O    -4.56178     0.22029     5.73012
 O    -5.23898    -8.31509     3.96975
 O    -2.87481    -0.56107     2.46802
 O    -2.39993   -10.71172     4.49014
 H    -8.81161    -3.14020     3.83905
 H    -1.98572    -4.51300     6.48107
 H    -4.97912    -6.65901     4.38952
 H     0.71106    -5.05102     2.04047
 H     1.27408    -3.69241     5.53512
 H    -8.24254    -6.33444     2.52320
 H    -2.55047    -5.91966     2.93235
 H    -5.41710    -3.36253     5.62355
 H     0.52525    -6.39427     5.87693
 H    -6.61245    -4.25085     1.58654
 H    -1.86692    -3.15657     2.65702
 H    -6.97085    -5.41515     6.56743
 H    -2.47757    -9.19517     2.01144
 H    -2.24946    -2.25361     4.72246
 H    -5.07902    -9.76544     6.51305
 H    -5.14886     1.92216     3.44547
 H    -5.22755   -11.59010     3.78096
 H    -1.97393     1.76380     4.43091
 H    -2.32954    -7.36223     4.73717
 H    -5.41223    -2.10857     3.77724
 H    -4.07577     0.25870     6.61859
 H    -5.78453    -8.33908     3.11296
 H    -3.37627    -0.57136     1.58743
 H    -1.54908   -10.65374     4.98662
