  320
 
Au     0.00000     0.00000     0.00000
Au     6.31518    -0.42123     1.79309
Au    -0.71216   -15.32243     2.33426
Au     2.15199     2.99266    -0.21497
 C     0.80714    -0.61886    -2.11489
 C    -0.75416    -1.90248     0.30540
 C     7.38607    -1.86532     2.55581
 C     6.39298    -1.85669    -0.38723
 C     0.86517   -16.68095     1.54328
 C     0.18140   -13.54776     1.74570
 C     1.65552     4.82181    -0.58168
 C     2.60940     2.67395    -2.13561
 O     5.17613    -0.40746     1.40290
 O     6.69770     1.19924     0.29947
 O     2.90131     2.48595     0.57971
 O     0.76484     1.29322    -0.10474
Au     3.87275    -0.36239     6.06436
Au    -1.24280     1.31019     4.14740
Au    -6.43501   -14.04553     7.55627
Au     7.66298     1.88380     5.72123
 C     4.14859    -1.18561     4.23897
 C     2.79179     1.16059     5.23001
 C    -2.97448     1.96090     3.35668
 C    -0.60440     0.65275     2.17046
 C    -6.03309   -14.01993     5.44496
 C    -4.93959   -13.13652     8.80875
 C     9.99303     1.31662     6.02742
 C     6.91206     0.71765     3.31800
 O    -0.50957     0.49976     4.62126
 O     0.49555     2.65604     4.48609
 O     8.02130     2.83702     5.05051
 O     7.21018     0.88996     6.28146
Au    -2.01246    -8.23396     1.33519
Au     1.93211   -11.28685     1.44534
Au     2.09574    -7.97917    -0.26868
Au    -1.94344    -4.56752     0.67893
 C    -2.65775    -7.49288     3.52845
 C    -1.75416   -10.17685     1.97042
 C     3.31410   -12.51778     2.26632
 C     1.61188   -10.73874     3.36101
 C     2.45290    -6.85262     1.46347
 C     1.73715    -6.57171    -1.78321
 C    -3.60950    -3.66780    -0.02721
 C    -2.35228    -3.94743     2.72379
 O     1.07437   -11.43173     0.62211
 O     2.14763    -9.30574     0.47875
 O    -0.80294    -4.49865     1.01809
 O    -1.96244    -6.78161     0.95602
Au     1.50640   -10.59861     5.90541
Au    -3.38808    -6.86651     5.44341
Au    -2.90552    -3.21223     4.93438
Au     2.89830    -7.30610     5.64229
 C     0.38433    -9.69027     7.55675
 C     0.59440   -12.39381     6.01706
 C    -5.27899    -7.09574     5.03158
 C    -3.46088    -6.45408     7.58777
 C    -3.95785    -2.48227     6.96987
 C    -2.03225    -1.29636     4.66576
 C     4.49706    -7.13977     6.78398
 C     1.74236    -6.24739     6.83144
 O    -2.47552    -7.54275     5.81931
 O    -0.69830    -7.02931    -3.17421
 O     2.90371    -7.20473     4.44486
 O     4.96078   -11.70184    -2.61629
Au    -5.25431     2.55606     2.33810
Au   -12.43721     4.01335     2.85195
Au   -12.35088     0.36089     2.89338
Au    -6.46167    -0.89644     2.97732
 C    -6.08015     3.23435     4.45254
 C    -5.17606     4.48158     1.52842
 C   -13.96298     5.19809     2.05390
 C   -12.97970     4.45105     4.88575
 C   -12.34530    -0.34009     4.94485
 C   -11.62031    -1.60778     2.33051
 C    -5.08691    -2.10342     3.73272
 C    -7.30779    -0.49245     4.98164
 O   -11.35790     3.86234     3.32686
 O    -9.98933    -0.60537    -5.13816
 O    -7.54004    -0.56609     2.58942
 O    -2.94445    -1.26448    -5.59864
Au    -5.47960     5.88257    -0.79232
Au    -4.03912     1.05425    -1.75756
Au    -5.39619    -2.33572    -1.17327
Au   -10.85056     2.29517    -0.97629
 C    -7.39428     5.43475    -1.34349
 C    -4.78543     4.33248    -1.92779
 C    -2.19463     0.80998    -1.05410
 C    -4.67941     1.75808     0.16270
 C    -6.05163    -1.55661     0.93432
 C    -7.00488    -3.77935    -1.22683
 C   -11.52484     1.13323     0.88802
 C   -11.43887     4.40340     1.05210
 O    -4.87070     1.72721    -2.28616
 O    -4.67600    -1.05447    -1.35777
 O   -12.01211     2.46342    -1.32493
 O    -9.66119     2.25188    -0.69563
Au   -10.43128    -3.60443     2.41169
Au   -13.77429    -5.13603     2.47926
Au    -7.16863     9.42993     1.19022
Au    -1.53321     8.54688     1.55759
 C    -8.55494    -2.79664     2.67952
 C   -10.78773    -3.40638     4.96870
 C   -15.50046    -4.24717     1.96710
 C   -13.94145    -6.17405     0.77939
 C    -6.21835     7.48973     0.27270
 C    -6.18645     8.68422     3.31888
 C    -0.66150     6.89362     2.13266
 C    -0.21637     8.95984     0.11322
 O   -13.38000    -5.27112     3.59975
 O   -14.21959    -7.29532     3.47878
 O   -10.78866    -8.95615     4.15196
 O   -11.73736    -4.34175     2.32253
Au    -8.98334    -4.91685    -1.66780
Au    -6.41455    -8.93858     0.16026
Au    -3.18554     6.31436    -2.90379
Au    -6.24078    10.34997    -4.53028
 C   -10.59928    -6.07670    -1.88560
 C    -9.71847    -4.30726     0.23560
 C    -4.26225    -8.55649     0.66195
 C    -6.67132   -10.27839    -2.22981
 C    -1.57820     5.10728    -3.06742
 C    -2.91416     6.57374    -0.82571
 C    -4.81473     7.59761    -2.76993
 C    -5.47394     8.78321    -6.06713
 O    -6.72726    -7.86548    -0.34295
 O    -6.38767   -10.04326     0.68292
 O   -13.41266    -6.49849    -1.99204
 O   -15.29681    -7.90260    -1.33211
 H     1.71018    -0.83142    -1.54678
 H     0.00517    -1.34775    -2.07880
 H     0.57947     0.43699    -2.28439
 H     0.15185    -2.45328     0.55425
 H    -1.20911    -2.17558    -0.64185
 H    -1.46032    -1.79231     1.11937
 H     8.36717    -1.89715     2.07033
 H     6.84645    -2.80732     2.39172
 H     7.53951    -1.71939     3.63373
 H     7.34207    -2.17451     0.03663
 H     5.49031    -2.34122    -0.02739
 H     6.33084    -0.81554    -0.72039
 H     1.53594   -16.58856     2.38411
 H     0.12402   -17.46846     1.55760
 H     0.98163   -15.99818     0.70972
 H     1.15560   -13.72980     2.18139
 H    -0.45591   -12.79933     2.21902
 H     0.12728   -13.55230     0.65919
 H     2.50001     5.37241    -1.02681
 H     0.82818     4.85903    -1.30170
 H     1.35437     5.33061     0.34148
 H     2.51806     1.57606    -2.22307
 H     3.56453     3.16031    -2.33375
 H     5.12594    -1.67087     4.27234
 H     3.33227    -1.91316     4.13057
 H     4.05702    -0.38259     3.50647
 H     2.10197     1.48411     6.03072
 H     2.22839     0.75116     4.37465
 H     3.56369     1.88449     4.93353
 H    -3.45135     1.04557     2.96045
 H    -2.69787     2.68820     2.58889
 H    -3.52779     2.39545     4.19518
 H     0.25063     0.02232     2.40501
 H    -1.54339     0.17737     1.90823
 H    -0.39196     1.63692     1.74052
 H    -4.99230   -13.75265     5.37739
 H    -6.32562   -15.06094     5.33123
 H    -6.75486   -13.26864     5.14748
 H    -4.05639   -13.55447     8.32382
 H    -5.37189   -13.61518     9.70414
 H    -5.04325   -12.06014     8.68896
 H    10.06921     0.25296     5.86645
 H     9.74816     1.61362     7.03013
 H    10.03202     1.93702     5.13938
 H     7.98841     0.55388     3.41150
 H     6.69666     1.74328     2.99959
 H    -1.57337    -7.40419     3.57132
 H    -3.07502    -8.49722     3.51393
 H    -3.15158    -6.75404     2.88504
 H    -0.77460   -10.47479     1.60781
 H    -1.80899   -10.18236     3.05636
 H    -2.55807   -10.75844     1.52313
 H     4.21821   -11.92105     2.38277
 H     3.42137   -13.30311     1.52045
 H     2.88036   -12.84083     3.20848
 H     2.60503   -10.55335     3.79594
 H     1.02341   -11.57921     3.74660
 H     1.02729    -9.80861     3.32211
 H     3.53070    -6.88385     1.59585
 H     1.90788    -7.39600     2.23234
 H     2.06711    -5.85752     1.26663
 H     1.40862    -7.21716    -2.60485
 H     0.98683    -5.97559    -1.25876
 H     2.64052    -6.00931    -1.98965
 H    -3.18110    -2.96532    -0.76193
 H    -4.21640    -4.48147    -0.43358
 H    -4.04070    -3.18670     0.85413
 H    -1.57115    -4.45611     3.28658
 H    -2.25746    -2.88085     2.58331
 H     1.29451    -9.42407     8.07426
 H    -0.15661   -10.59710     7.77690
 H    -0.11169    -8.92476     6.97555
 H     1.15744   -13.10579     5.41334
 H     0.57556   -12.70358     7.06678
 H    -0.42196   -12.24285     5.64339
 H    -5.39500    -7.98840     4.41325
 H    -5.85356    -7.17843     5.95536
 H    -5.61053    -6.20621     4.48173
 H    -2.61431    -6.87322     8.13385
 H    -4.38217    -7.02229     7.71708
 H    -3.51366    -5.36078     7.56718
 H    -3.02709    -1.92963     6.99062
 H    -3.98219    -3.58117     7.01614
 H    -4.76575    -2.05948     6.39250
 H    -1.49543    -1.22615     5.60808
 H    -1.41518    -1.48480     3.79668
 H    -2.91429    -0.68963     4.55181
 H     4.31503    -7.70769     7.70868
 H     5.30056    -7.58375     6.17814
 H     4.66830    -6.07666     7.03285
 H     1.07822    -5.67807     6.17110
 H     1.22814    -6.99402     7.47661
 H    -5.22904     3.90805     4.45828
 H    -5.91668     2.15322     4.55031
 H    -6.93270     3.54900     3.85434
 H    -4.28840     4.48557     0.90072
 H    -6.16300     4.47922     1.05292
 H    -5.10502     5.19603     2.34844
 H   -13.32765     6.07850     1.88519
 H   -14.27104     4.61709     1.18560
 H   -14.71183     5.24701     2.84376
 H   -12.15113     5.06259     5.19621
 H   -13.00382     3.41208     5.19486
 H   -13.92826     4.93618     4.74827
 H   -11.28277    -0.50941     5.06275
 H   -13.02802    -1.18178     4.96053
 H   -12.72100     0.53468     5.46881
 H   -10.61610    -1.20244     2.49101
 H   -12.21042    -2.11098     3.09950
 H   -11.94177    -1.76293     1.30510
 H    -4.76017    -1.57318     4.63119
 H    -4.30591    -2.20448     2.97451
 H    -5.52676    -3.08171     3.97620
 H    -6.52811     0.21383     5.28159
 H    -7.24207    -1.50621     5.36241
 H    -7.76269     6.32822    -1.85757
 H    -7.92473     5.23674    -0.40715
 H    -7.35767     4.56602    -2.00487
 H    -3.74497     4.12791    -1.66560
 H    -5.47806     3.56258    -1.57178
 H    -4.96278     4.55256    -2.98760
 H    -2.39709     0.26081    -0.12147
 H    -1.69089     0.21841    -1.82857
 H    -1.71661     1.78520    -0.89410
 H    -3.88072     2.47654     0.33220
 H    -4.62243     0.82220     0.73187
 H    -5.69433     2.12046     0.00058
 H    -5.03613    -1.15617     0.86973
 H    -6.19273    -2.61587     1.13743
 H    -6.81171    -1.03880     0.35300
 H    -6.64821    -4.25483    -2.13882
 H    -6.85181    -4.33665    -0.30507
 H    -7.72845    -2.95430    -1.22903
 H   -11.53256     0.16643     0.42001
 H   -10.66378     1.40012     1.48255
 H   -12.43594     1.71062     0.92845
 H   -10.50915     3.85110     1.05928
 H   -11.22122     5.47086     1.04240
 H    -7.90370    -3.65403     2.84786
 H    -8.42894    -2.31056     1.71409
 H    -8.69755    -2.18763     3.56582
 H   -10.48957    -2.47622     4.47703
 H    -9.96616    -3.98651     5.39774
 H   -11.55629    -4.03673     4.51010
 H   -15.28630    -3.57571     1.12096
 H   -16.18273    -5.07964     1.74785
 H   -15.84032    -3.67400     2.83711
 H   -12.90454    -6.33694     0.48002
 H   -14.43920    -7.09027     1.11618
 H   -14.50906    -5.52722     0.12443
 H    -5.29064     7.99365     0.59229
 H    -6.77614     6.94664     1.04629
 H    -6.78314     7.94554    -0.56031
 H    -5.80618     9.69164     3.09938
 H    -5.56111     7.86972     2.95581
 H    -7.25441     8.45397     3.37966
 H     0.41345     7.06592     2.22689
 H    -0.85468     6.11877     1.38639
 H    -1.07417     6.60328     3.10232
 H     0.53722     9.62088     0.54665
 H    -0.77302     9.45312    -0.67621
 H   -10.71952    -6.29072    -2.94969
 H   -10.37910    -6.96426    -1.28342
 H   -11.43938    -5.47541    -1.50805
 H    -8.80993    -4.56592     0.78738
 H   -10.59412    -4.95224     0.38832
 H    -9.91666    -3.26222    -0.02390
 H    -3.84350    -9.20714    -0.08701
 H    -4.33884    -8.92005     1.67680
 H    -4.20013    -7.48653     0.48983
 H    -5.59559   -10.17454    -2.17562
 H    -7.10328   -10.90563    -1.46460
 H    -7.19627    -9.36829    -2.47614
 H    -0.86344     5.65392    -3.68006
 H    -1.22322     4.91360    -2.05532
 H    -1.94431     4.20110    -3.55747
 H    -1.86174     6.87470    -0.90539
 H    -2.98832     5.63267    -0.28263
 H    -3.52250     7.39387    -0.44905
 H    -4.84238     8.13431    -1.82091
 H    -4.51601     8.29286    -3.56083
 H    -5.72416     7.05138    -3.02777
 H    -4.46527     9.17753    -6.02072
 H    -6.08685     9.04524    -6.91170
 H     1.84238     3.13419    -2.77238
 H     6.31564     0.35936     4.15433
 H    -3.35304    -4.37225     2.84775
 H     2.33230    -5.57815     7.46988
 H    -8.28155    -0.07966     4.72992
 H   -12.14979     4.15118     0.28185
 H     0.23251     8.01469    -0.19400
 H    -5.82427     8.04200    -5.36695
