   82
 
Tc     0.00000     0.00000     0.00000
Tc    -4.98232    -5.11880     5.89640
 O    -4.03444    -1.07843     5.89640
 O    -6.31839    -2.19068     6.44700
 O    -5.54549    -1.61369     3.67464
 O    -3.42401    -3.13609     3.80947
 O    -3.92536    -6.44128     7.13548
 O    -3.67391    -5.94869     4.56481
 O    -6.34636    -4.83920     7.35873
 O    -6.17256    -6.78902     5.62580
 O    -5.98217    -4.25320     4.52055
 O    -3.83982    -3.73343     6.57035
 O    -4.42685     0.64543     7.21817
 O    -6.82912    -0.62961     7.92854
 O    -4.79158    -0.58234     1.85195
 O    -2.89813    -2.71420     1.70246
 O    -2.43576    -8.09315     7.02831
 O    -2.33528    -7.69814     4.29371
 O    -8.24694    -5.61616     8.18601
 O    -7.85648    -7.88554     6.56506
 C    -4.73669    -0.42428     6.75477
 C    -6.07189    -1.10347     7.10607
 C    -4.71890    -1.46337     2.69268
 C    -3.58644    -2.51530     2.67901
 C    -3.10405    -7.21475     6.52282
 C    -3.00953    -6.96963     5.00103
 C    -7.29771    -5.71921     7.42829
 C    -7.13003    -6.92426     6.48108
Tc    -4.86705    -2.86240     5.20869
Tc     0.11568     2.25585    -0.68698
 O    -0.83265    -1.78502    -0.68574
 O     1.45089    -0.67222    -1.23706
 O     0.67885    -1.24926     1.53478
 O    -1.44222     0.27258     1.40067
 O    -0.94129     3.57833    -1.92607
 O    -1.19274     3.08574     0.64460
 O     1.48012     1.97569    -2.14859
 O     1.30624     3.92690    -0.41593
 O     1.11509     1.38975     0.69012
 O    -1.02641     0.86992    -1.36021
 O    -0.43980    -3.50838    -2.00875
 O     1.96289    -2.23389    -2.71840
 O    -0.07474    -2.27978     3.35791
 O    -1.96852    -0.14875     3.50696
 O    -2.43133     5.22970    -1.81765
 O    -2.53136     4.83519     0.91571
 O     3.38071     2.75266    -2.97588
 O     2.98931     5.02347    -1.35467
 C    -0.12963    -2.43784    -1.54491
 C     1.20565    -1.76003    -1.89593
 C    -0.14775    -1.39958     2.51673
 C    -1.27979    -0.34820     2.53113
 C    -1.76259     4.35180    -1.31341
 C    -1.85670     4.10613     0.20911
 C     2.43107     2.85626    -2.21887
 C     2.26379     4.06076    -1.27094
 K     2.89547     0.99882     9.46887
 K    -3.39483     2.14409     2.28100
 K    -3.55446     2.10854     9.27282
 K     3.05552     1.03382     2.47778
 K     1.06560     2.89597     5.59186
 K    -1.56496     0.24694     6.15802
 K    -7.48569     0.40047     2.96855
 K     2.61945    -3.26398     2.24159
 O    -1.72482    -0.44007     8.87750
 H    -2.28778    -0.78960     9.23040
 H    -1.42745     0.08425     9.49364
 O     1.22588     3.58242     2.87310
 H     1.78757     3.93256     2.51999
 H     0.92810     3.05866     2.25624
 O    -1.07385    -2.45925     6.15223
 H    -0.75257    -2.77146     5.35036
 H    -1.71683    -2.62520     6.19240
 O    -3.79206    -0.40342    -0.94164
 H    -4.11366    -0.09204    -0.14022
 H    -3.14982    -0.23775    -0.98298
 O     4.67779     1.54795     7.47898
 H     4.67098     0.85898     6.97509
 H     4.26084     2.22061     6.98557
 O    -5.17673     1.59441     4.27162
 H    -5.17033     2.28393     4.77479
 H    -4.76063     0.92180     4.76555
