  224
 
Bi     0.00000     0.00000     0.00000
Bi    11.16119     0.00000     0.00000
Cl     5.28160     6.03927     0.00000
Cl     6.43780     3.77731     2.49412
Cl     5.33281     2.57009    -0.74517
Cl     8.75541     6.29584     1.32468
Cl     9.20909     2.22427     0.07679
Cl     7.71552     4.80148    -2.73461
Cl     9.80682    -1.46130    -1.53273
Cl    12.89529    -1.83938     0.21160
Cl     9.90643    -1.05703     1.97009
Cl    13.02499     1.36360     1.95211
Cl    12.41403     0.73306    -2.58147
Bi    13.05740     1.32693    -5.36825
Cl    14.84824    -0.50452    -5.31702
Cl    13.69248     1.75783    -7.80985
Cl    14.79702     2.96466    -4.57184
Cl    11.37442    -0.76109    -6.64170
Cl    10.92074     3.31048    -5.39381
Bi     8.96936     5.53535    -5.31667
Cl    10.32302     6.99604    -3.78429
Cl     7.23426     7.37393    -5.52768
Cl    10.22312     6.59157    -7.28617
Cl     7.10485     4.17115    -7.26913
Bi     7.07216     4.20761     0.05217
Bi    -1.47151     6.23455    -5.69923
Bi     1.83770     1.40046    -5.37106
Cl    -2.91223     8.35196    -5.76761
Cl    -0.85108     6.68187    -8.14170
Cl     0.45396     7.64460    -4.89494
Cl    -3.81318     4.95100    -6.99630
Cl     0.04826     3.74888    -5.58743
Cl    -2.26529     5.82248    -2.91743
Cl     3.49143     2.49442    -3.82749
Cl     3.30195    -0.66899    -5.46334
Cl     3.18081     2.34897    -7.33691
Cl     0.18970    -0.22835    -7.31544
Cl     0.79378     0.41207    -2.78180
Cl     1.44072    -2.11741     0.06837
Cl    -0.62043    -0.44732     2.44247
Cl    -1.92547    -1.41005    -0.80429
Cl     2.34167     1.28355     1.29707
Cl    -1.51977     2.48567    -0.11180
Bi    -3.30921     4.83408    -0.32817
Cl    -4.96295     3.74013    -1.87174
Cl    -4.77347     6.90354    -0.23589
Cl    -4.65232     3.88558     1.63768
Cl    -1.66121     6.46290     1.61621
 N    -1.00364    -7.19767     8.23148
 N    -2.91418    -5.97163     5.52810
 C    -2.15329    -6.73495     7.67450
 C    -3.07079    -6.11295     8.48374
 C    -2.80670    -5.96782     9.84266
 C    -1.62695    -6.47118    10.37860
 C    -0.72151    -7.08196     9.54041
 C    -2.36941    -6.96818     6.25021
 C    -2.04597    -8.13443     5.61031
 C    -2.30125    -8.31665     4.23963
 C    -2.86878    -7.23935     3.55478
 C    -3.17021    -6.08651     4.22402
 N    -5.07167    -1.59619    -0.38947
 N    -5.97529     0.61558     2.20860
 C    -5.31327    -0.35808     0.11465
 C    -5.71711     0.63330    -0.74420
 C    -5.87104     0.35355    -2.09901
 C    -5.59524    -0.92050    -2.58032
 C    -5.20159    -1.89740    -1.69368
 C    -5.08449    -0.14032     1.53942
 C    -4.02527    -0.66388     2.23090
 C    -3.83709    -0.39964     3.59908
 C    -4.80065     0.39371     4.22776
 C    -5.85067     0.89159     3.50683
 N     4.51312    -0.46085    -0.24388
 N     6.42365    -1.68689     2.45949
 C     5.66348    -0.92297     0.31344
 C     6.58055    -1.54537    -0.49709
 C     6.31645    -1.69050    -1.85601
 C     5.13743    -1.18654    -2.39159
 C     4.23098    -0.57656    -1.55282
 C     5.87916    -0.69014     1.73645
 C     5.55644     0.47671     2.37669
 C     5.81101     0.65833     3.74703
 C     6.37825    -0.41917     4.43281
 C     6.67996    -1.57181     3.76264
 N    -0.42515     4.94462     8.04108
 N     0.47847     2.73285     5.44301
 C    -0.18327     3.70671     7.53602
 C     0.22057     2.71533     8.39487
 C     0.37422     2.99488     9.75062
 C     0.09870     4.26913    10.23099
 C    -0.29495     5.24603     9.34434
 C    -0.41205     3.48895     6.11125
 C    -1.47155     4.01231     5.42070
 C    -1.65872     3.74887     4.05194
 C    -0.69545     2.95532     3.42420
 C     0.35413     2.45704     4.14384
 N    -7.39058    -0.68250     7.69822
 N    -6.67688    -2.78043     4.98644
 C    -7.21663    -1.90365     7.14964
 C    -6.81884    -2.95678     7.92612
 C    -6.54676    -2.71972     9.28813
 C    -6.69193    -1.47978     9.80785
 C    -7.11775    -0.45609     8.98775
 C    -7.50417    -2.00178     5.71488
 C    -8.54979    -1.34192     5.05910
 C    -8.67976    -1.51573     3.69602
 C    -7.82737    -2.34128     3.00234
 C    -6.80755    -2.97569     3.65904
 N    -1.19654    -5.04104     0.04913
 N     0.63532    -6.05561     2.85556
 C    -0.05214    -5.43312     0.64753
 C     0.92487    -6.05817    -0.07830
 C     0.67938    -6.32772    -1.43931
 C    -0.49173    -5.96048    -2.00846
 C    -1.43464    -5.31138    -1.23942
 C     0.05842    -5.11815     2.07473
 C    -0.39946    -3.93905     2.67474
 C    -0.24489    -3.79679     4.03842
 C     0.37474    -4.76877     4.78734
 C     0.81255    -5.91781     4.18564
 N     1.89404     4.03113    -0.04755
 N     1.18035     6.12907     2.66423
 C     1.71981     5.25208     0.50197
 C     1.32230     6.30541    -0.27546
 C     1.05023     6.06835    -1.63746
 C     1.19539     4.82841    -2.15718
 C     1.62122     3.80472    -1.33708
 C     2.00763     5.35041     1.93579
 C     3.05325     4.69056     2.59157
 C     3.18322     4.86436     3.95464
 C     2.33083     5.68991     4.64833
 C     1.31073     6.32412     3.99256
 N     4.70602    -2.61748     7.93846
 N     2.87444    -1.60271     5.13109
 C     3.56161    -2.22540     7.34007
 C     2.58489    -1.60015     8.06496
 C     2.83109    -1.33000     9.42631
 C     4.00148    -1.69784     9.99512
 C     4.94411    -2.34714     9.22702
 C     3.45106    -2.54037     5.91286
 C     3.90993    -3.71867     5.31226
 C     3.75464    -3.86152     3.94824
 C     3.13574    -2.88895     3.19966
 C     2.69692    -1.74071     3.80195
 H    -0.32145    -7.65517     7.62674
 H    -3.14015    -5.09410     5.99637
 H    -4.00263    -5.73408     8.06395
 H    -3.52470    -5.45965    10.48636
 H    -1.42199    -6.38368    11.44557
 H     0.21768    -7.46901     9.93565
 H    -1.57963    -8.94060     6.17663
 H    -2.06738    -9.25420     3.73523
 H    -3.07119    -7.31827     2.48665
 H    -3.62394    -5.25335     3.68729
 H    -4.77763    -2.33272     0.25199
 H    -6.77693     0.99179     1.70240
 H    -5.91659     1.63620    -0.36672
 H    -6.20775     1.13343    -2.78203
 H    -5.68909    -1.14298    -3.64324
 H    -4.99659    -2.90817    -2.04641
 H    -3.31107    -1.30047     1.70863
 H    -2.97980    -0.79508     4.14385
 H    -4.71534     0.61541     5.29156
 H    -6.59299     1.52030     3.99856
 H     3.83058    -0.00388     0.36087
 H     6.64896    -2.56482     1.99164
 H     7.51241    -1.92461    -0.07769
 H     7.03410    -2.19918    -2.49969
 H     4.93308    -1.27259    -3.45880
 H     3.29137    -0.19038    -1.94790
 H     5.09126     1.28349     1.81029
 H     5.57691     1.59587     4.25132
 H     6.57993    -0.34058     5.50110
 H     7.13448    -2.40480     4.29895
 H    -0.71990     5.68110     7.39989
 H     1.27958     2.35608     5.94964
 H     0.42038     1.71255     8.01723
 H     0.71021     2.21495    10.43393
 H     0.19279     4.49202    11.29380
 H    -0.49961     6.25693     9.69691
 H    -2.18648     4.64768     5.94346
 H    -2.51515     4.14525     3.50649
 H    -0.78098     2.73356     2.36043
 H     1.09637     1.82854     3.65173
 H    -7.73661     0.08191     7.11827
 H    -5.90874    -3.24798     5.46785
 H    -6.71478    -3.95533     7.50166
 H    -6.21760    -3.53995     9.92608
 H    -6.47555    -1.29218    10.85956
 H    -7.23320     0.54839     9.39495
 H    -9.24349    -0.70723     5.61050
 H    -9.47081    -0.99003     3.16125
 H    -7.96325    -2.49051     1.93119
 H    -6.11653    -3.62431     3.12063
 H    -1.89345    -4.52869     0.58970
 H     0.95569    -6.91779     2.41465
 H     1.87014    -6.34072     0.38508
 H     1.43701    -6.83481    -2.03678
 H    -0.68710    -6.17445    -3.05924
 H    -2.38388    -5.01546    -1.68604
 H    -0.86599    -3.15372     2.08000
 H    -0.62019    -2.89914     4.52981
 H     0.51722    -4.62485     5.85836
 H     1.29349    -6.70359     4.76818
 H     2.24045     3.26664     0.53205
 H     0.41245     6.59691     2.18272
 H     1.21857     7.30412     0.14870
 H     0.72107     6.88858    -2.27541
 H     0.97901     4.64082    -3.20889
 H     1.73667     2.80025    -1.74428
 H     3.74696     4.05587     2.04017
 H     3.97427     4.33866     4.48942
 H     2.46721     5.83926     5.71940
 H     0.61939     6.97208     4.53135
 H     5.40293    -3.12983     7.39789
 H     2.55468    -0.74011     5.57162
 H     1.63959    -1.31776     7.60152
 H     2.07409    -0.82190    10.02371
 H     4.19670    -1.48397    11.04595
 H     5.89312    -2.64335     9.67394
 H     4.37796    -4.50336     5.90667
 H     4.12869    -4.75975     3.45693
 H     2.99461    -3.03178     2.12832
 H     2.21470    -0.95545     3.21977
