  224
 
Mn     0.00000     0.00000     0.00000
 F    -5.17729     3.76914    -6.41913
 F    -3.14167     4.28339    -6.85542
 O    -5.41937     2.66340    -4.27439
 H    -6.26506     2.42239    -4.72119
 H    -5.22086     2.00740    -3.56444
 F    -3.15473     3.24789    -3.90771
 F    -3.42968     1.51015    -5.13418
 O    -1.52019     2.93188    -5.63105
 H    -1.16417     2.20739    -5.06365
 H    -1.00608     3.76078    -5.46049
Mn    -3.72138     3.21546    -5.59429
Mn    -1.34806    -5.67440    -9.94259
 F    -1.29341    -6.66091   -11.40623
 F    -2.55753    -4.40878    -9.76439
 O    -3.45122    -6.51556   -10.50363
 H    -3.39318    -7.30572   -11.10340
 H    -4.00661    -6.76248    -9.71892
 F    -0.52161    -4.36038    -9.11812
 F    -1.09284    -7.32217    -9.36442
 O     0.97299    -5.43791   -10.54170
 H     1.65132    -5.94254   -10.05338
 H     1.28049    -4.51825   -10.67360
Mn     4.87791    -4.52225    -7.84741
 F     4.97210    -3.27735    -6.57431
 F     6.59162    -4.41417    -7.40026
 O     5.08463    -5.59585    -5.89285
 H     5.31868    -4.97115    -5.14766
 H     5.81585    -6.30326    -5.91744
 F     4.06470    -4.38971    -9.40023
 F     3.88226    -5.96932    -7.96739
 O     5.80830    -2.70889    -8.75877
 H     5.32345    -2.24909    -9.47301
 H     6.30924    -2.05943    -8.22036
 F     1.71451     0.17853     0.35550
 F     0.49091     1.42146    -0.89139
 O     0.39656    -1.73956     1.40085
 H     1.10669    -1.54950     2.06915
 H     0.63270    -2.57931     0.92849
 F    -0.85005    -1.44477    -0.60499
 F    -1.35275    -0.26533     1.12345
 O    -1.87594     0.79296    -0.85329
 H    -2.69432     0.29279    -0.59305
 H    -1.90517     0.98087    -1.81780
 N     2.66015     5.37207     1.98658
 C     1.52773     4.40037     1.85868
 C     4.07838     4.89327     1.92572
 H     1.32368     4.26894     0.76970
 H     1.80648     3.42164     2.30269
 H     0.62084     4.79538     2.36138
 H     4.47299     5.13368     0.91188
 H     4.68396     5.41719     2.69487
 H     4.13850     3.79282     2.08515
 C     1.88579     5.28029     5.81319
 C     2.38445     6.84264     2.09386
 H     2.71063     5.87893     6.14875
 H     0.88754     5.67328     5.85082
 H     2.05872     4.29435     5.42223
 H     3.11380     7.31511     2.78362
 H     2.49745     7.27644     1.07247
 H     1.35461     7.02108     2.46384
 N     4.63247    -2.81763    -2.23374
 C     3.85457    -3.99361    -2.89378
 C     6.16355    -2.99446    -2.43538
 H     3.98362    -3.93398    -3.99107
 H     4.24696    -4.95349    -2.50116
 H     2.77800    -3.90077    -2.64463
 H     6.38500    -2.97805    -3.52139
 H     6.69061    -2.16045    -1.92707
 H     6.47767    -3.96543    -2.00323
 C     4.31807    -2.79365    -0.71894
 C     4.18262    -1.47420    -2.86568
 H     4.87816    -1.96381    -0.23942
 H     3.22721    -2.63290    -0.58214
 H     4.60875    -3.76731    -0.27236
 H     4.72048    -0.64014    -2.36810
 H     4.42631    -1.48850    -3.94811
 H     3.08896    -1.35415    -2.72388
 N    -3.62334     3.22035     1.86073
 C    -3.30484     4.53680     2.52074
 C    -6.61732     3.55760     2.47376
 H    -3.55073     4.49207     3.60075
 H    -3.88339     5.34768     2.03453
 H    -2.21495     4.71382     2.38650
 H    -6.40676     3.63665     3.52270
 H    -6.72867     2.58976     2.02200
 H    -6.65791     4.44291     1.86771
 C    -3.87833     3.14425     0.38846
 C    -3.60851     1.96133     2.66286
 H    -4.65887     2.38476     0.17316
 H    -2.91766     2.83884    -0.09869
 H    -4.19706     4.13202    -0.00282
 H    -4.26089     1.18863     2.20387
 H    -3.93925     2.16415     3.70234
 H    -2.55328     1.59272     2.67153
 N     0.77094    -0.91157    -5.93762
 C     1.39206     0.37542    -5.31361
 C    -0.78147    -0.84832    -5.86003
 H     1.06455     0.45594    -4.25865
 H     1.05252     1.25415    -5.89614
 H     2.49719     0.29637    -5.35945
 H    -1.08416    -0.77229    -4.79724
 H    -1.20118    -1.76911    -6.31316
 H    -1.13509     0.04151    -6.42110
 C     1.20365    -1.02104    -7.41727
 C     1.27645    -2.16355    -5.17109
 H     0.76291    -1.93864    -7.86221
 H     2.31130    -1.07394    -7.47128
 H     0.84446    -0.12687    -7.97101
 H     0.82838    -3.07202    -5.62255
 H     0.97578    -2.07817    -4.10768
 H     2.38310    -2.21304    -5.25077
Mn    -2.14719    -4.89350     3.16700
 F    -7.07532    -1.95461    -3.41239
 F    -7.42846    -0.31070    -2.06425
 O    -7.70757    -2.49488    -1.28135
 H    -8.58517    -2.42875    -1.73323
 H    -7.50350    -3.43576    -1.09332
 F    -4.44238    -0.49964    -2.22387
 F    -5.00029    -2.11837    -0.90811
 O    -4.50538    -2.71632    -3.10012
 H    -3.89702    -3.19596    -2.48102
 H    -3.98286    -2.28114    -3.80971
Mn    -5.99785    -1.34555    -2.13959
Mn    -4.26045   -10.19409    -5.16919
 F    -5.77976   -10.28108    -6.06653
 F    -4.06556    -9.08446    -6.52127
 O    -5.69685   -11.46440    -4.02275
 H    -6.25919   -12.11025    -4.50106
 H    -5.34982   -11.87182    -3.19450
 F    -3.96400    -9.94747    -3.43861
 F    -3.24685   -11.55903    -4.65284
 O    -2.26162    -9.28194    -4.90396
 H    -1.67427    -9.65673    -4.20037
 H    -1.72715    -9.11457    -5.71358
Mn     2.25362    -8.93039    -4.11653
 F     3.22421    -7.74849    -3.19084
 F     3.96961    -9.15408    -4.62458
 O     3.17292   -10.01623    -2.45795
 H     3.09782    -9.59175    -1.56512
 H     4.12561   -10.25376    -2.61350
 F     0.86958    -8.76667    -5.19038
 F     1.05830   -10.05204    -3.49261
 O     2.68691    -7.21446    -5.39922
 H     2.42925    -7.29029    -6.34341
 H     3.57272    -6.75113    -5.33853
 F    -1.38117    -4.08090     4.55704
 F    -0.41520    -4.63032     2.73707
 O    -0.96689    -6.43428     4.23546
 H    -0.13199    -6.16464     4.67964
 H    -1.45995    -7.06076     4.81303
 F    -3.56052    -4.52882     2.19538
 F    -3.10482    -6.36840     3.17828
 O    -1.97358    -2.78115     2.65008
 H    -2.53969    -2.46390     1.90459
 H    -1.06182    -2.37981     2.53550
 N    -0.39285     1.33222     5.21147
 C    -1.26217     0.16140     4.88818
 C     1.07677     1.13290     5.43888
 H    -1.22264     0.00215     3.78425
 H    -0.89160    -0.75446     5.39846
 H    -2.31028     0.35789     5.19679
 H     1.59285     1.29410     4.46555
 H     1.43970     1.86833     6.18733
 H     1.27665     0.10098     5.79646
 C    -1.01745     1.07375     8.17690
 C    -0.97553     2.71648     5.25178
 H    -0.35655     1.90882     8.31321
 H    -2.07045     1.24163     8.05689
 H    -0.61897     0.08017     8.10112
 H    -0.41064     3.34410     5.97255
 H    -0.89008     3.14521     4.22796
 H    -2.04176     2.67395     5.55391
 N     1.89674    -7.80849     1.07712
 C     1.23102    -9.10676     0.50908
 C     3.44856    -7.87979     0.96976
 H     1.34205    -9.11518    -0.59052
 H     1.72771    -9.98546     0.96428
 H     0.15455    -9.09855     0.77107
 H     3.73478    -7.92554    -0.09868
 H     3.88301    -6.97006     1.43256
 H     3.80398    -8.78389     1.50555
 C     1.50820    -7.66178     2.56195
 C     1.38702    -6.56685     0.30442
 H     1.99652    -6.76051     2.98663
 H     0.40168    -7.55798     2.65054
 H     1.84581    -8.56466     3.11561
 H     1.83296    -5.65167     0.74842
 H     1.69148    -6.65774    -0.75857
 H     0.28097    -6.51952     0.38704
 N    -6.31158    -1.11395     4.40020
 C    -6.00753     0.14943     5.15562
 C    -9.16317    -0.89719     5.38940
 H    -6.25195     0.01638     6.22923
 H    -6.59033     0.99589     4.73855
 H    -4.91775     0.34456     5.03843
 H    -8.90752    -0.94537     6.42958
 H    -9.27035    -1.80240     4.82190
 H    -9.24647     0.05327     4.89746
 C    -6.74704    -1.05175     2.96928
 C    -6.10764    -2.44389     5.05632
 H    -7.39008    -1.92275     2.72087
 H    -5.82612    -1.08434     2.33999
 H    -7.30205    -0.11027     2.77550
 H    -6.81353    -3.19349     4.64092
 H    -6.25087    -2.35878     6.15319
 H    -5.06005    -2.76333     4.83712
 N    -2.40629    -5.94656    -2.34203
 C    -1.77491    -4.73617    -1.58644
 C    -3.94060    -6.00614    -2.12149
 H    -2.09180    -4.76936    -0.52339
 H    -2.09983    -3.78844    -2.05068
 H    -0.67039    -4.81070    -1.65342
 H    -4.15617    -5.99163    -1.03261
 H    -4.32929    -6.95012    -2.56412
 H    -4.42608    -5.14394    -2.61755
 C    -2.10539    -5.84849    -3.86433
 C    -1.78385    -7.25075    -1.78913
 H    -2.46918    -6.77568    -4.36169
 H    -1.01030    -5.75083    -4.00833
 H    -2.62622    -4.96616    -4.28194
 H    -2.23419    -8.12114    -2.31455
 H    -1.99733    -7.32089    -0.70208
 H    -0.68755    -7.23561    -1.96298
