  264
 
Pt     0.00000     0.00000     0.00000
Br     2.28806     0.58651    -1.07856
Br    -0.07065     2.21916     1.05926
Br    -2.10668     0.81780    -1.19528
Pt    -2.52357     2.28859     0.85358
Br    -2.44939     4.86750     0.57879
Br    -4.95936     2.29142     0.59257
Br    -0.00833    -2.19495    -1.09174
 C     1.63511    -1.35813    -4.55438
 C     2.93117    -1.30496    -5.34340
 C     0.74594     0.72802    -5.63144
 C     1.14910     1.59686    -4.45358
 C    -0.73859    -0.81864    -4.32720
 C    -1.99164    -0.13559    -4.84380
 C     0.16317    -1.44363    -6.58307
 C    -0.12021    -2.92757    -6.43150
 N     0.45363    -0.72427    -5.27316
 C    -1.09483    -7.01304    -4.94490
 C    -2.42190    -7.02713    -4.20797
 C    -0.21012    -9.05372    -3.77120
 C    -0.61835    -9.92690    -4.94386
 C     1.29701    -7.49090    -5.02131
 C     2.55588    -8.05204    -4.38714
 C     0.25399    -6.83487    -2.84132
 C     0.52148    -5.34978    -3.02747
 N     0.05796    -7.59744    -4.14293
 H     1.76654    -0.83727    -3.57320
 H     1.37208    -2.41417    -4.31259
 H     3.30902    -0.28269    -5.47639
 H     3.72128    -1.86165    -4.81574
 H     2.85637    -1.76615    -6.33529
 H    -0.15680     1.14442    -6.13470
 H     1.54789     0.73946    -6.40792
 H     0.41881     1.59340    -3.63496
 H     2.12250     1.31455    -4.03219
 H     1.26020     2.64665    -4.78307
 H    -0.43338    -0.36941    -3.34993
 H    -0.93687    -1.89611    -4.12453
 H    -1.93300     0.95774    -4.76233
 H    -2.87069    -0.45268    -4.25886
 H    -2.22683    -0.37936    -5.89797
 H    -0.71896    -0.92085    -7.08301
 H     1.02428    -1.28397    -7.27073
 H    -0.99557    -3.13492    -5.80371
 H     0.73301    -3.49152    -6.03472
 H    -0.34001    -3.36690    -7.42045
 H    -0.82662    -5.96949    -5.23284
 H    -1.17477    -7.59024    -5.90254
 H    -2.42638    -6.39312    -3.31216
 H    -2.74069    -8.03364    -3.91051
 H    -3.21922    -6.63192    -4.85531
 H    -1.00013    -9.07481    -2.98381
 H     0.70402    -9.45926    -3.28255
 H    -1.66155    -9.76655    -5.24618
 H    -0.54271   -10.99148    -4.66727
 H     0.00573    -9.78534    -5.85090
 H     1.44419    -6.42234    -5.29672
 H     1.07003    -8.02754    -5.99528
 H     2.76093    -7.64358    -3.38767
 H     2.53775    -9.14599    -4.30880
 H     3.43627    -7.79255    -5.00078
 H    -0.64581    -6.98706    -2.20239
 H     1.10143    -7.31344    -2.28771
 H     0.74642    -4.89444    -2.04790
 H     1.39425    -5.14553    -3.66010
 H    -0.33933    -4.80502    -3.43466
Pt    -3.89189    -4.37008     6.07890
Br    -1.62012    -3.76321     4.97650
Br    -3.96025    -2.16598     7.16708
Br    -6.02551    -3.56111     4.92462
Pt    -6.41164    -2.06750     6.96410
Br    -6.28462     0.50228     6.62195
Br    -8.84553    -2.03667     6.68755
Br    -3.89203    -6.55306     4.96199
 C    -2.20169    -5.65453     1.53942
 C    -0.89042    -5.62250     0.77395
 C    -3.09269    -3.60334     0.39589
 C    -2.78761    -2.68690     1.56648
 C    -4.58761    -5.14653     1.69896
 C    -5.83219    -4.46290     1.16250
 C    -3.62130    -5.79633    -0.52520
 C    -3.87180    -7.28445    -0.36157
 N    -3.37372    -5.05081     0.77942
 C    -4.98273   -11.38722     1.15662
 C    -6.30360   -11.41160     1.90438
 C    -4.08167   -13.43013     2.31361
 C    -4.49621   -14.30309     1.14309
 C    -2.58992   -11.85909     1.05323
 C    -1.32498   -12.43290     1.66401
 C    -3.61670   -11.21835     3.24896
 C    -3.38934    -9.72565     3.07555
 N    -3.81976   -11.97316     1.94404
 H    -2.09119    -5.10051     2.50436
 H    -2.46430    -6.70315     1.81148
 H    -0.52029    -4.60315     0.60374
 H    -0.10473    -6.14704     1.34000
 H    -0.94113    -6.12923    -0.19696
 H    -3.97333    -3.22849    -0.17807
 H    -2.24320    -3.59397    -0.32814
 H    -3.57411    -2.67501     2.33049
 H    -1.84221    -2.93579     2.06511
 H    -2.67294    -1.64740     1.20695
 H    -4.30535    -4.69985     2.68427
 H    -4.79171    -6.22424     1.89363
 H    -6.71782    -4.77401     1.74048
 H    -6.05667    -4.71234     0.10615
 H    -5.77343    -3.36930     1.23580
 H    -4.50508    -5.29932    -1.04400
 H    -2.75052    -5.62606    -1.19848
 H    -4.72944    -7.50769     0.28439
 H    -2.99852    -7.82873     0.02002
 H    -4.10420    -7.73249    -1.34358
 H    -4.72155   -10.34043     0.87454
 H    -5.07019   -11.95612     0.19493
 H    -6.28878   -10.82955     2.83447
 H    -6.64339   -12.42567     2.14751
 H    -7.09541   -10.96072     1.28594
 H    -4.86822   -13.45283     3.10473
 H    -3.16493   -13.83512     2.79760
 H    -5.53794   -14.13315     0.84106
 H    -4.43084   -15.36714     1.42552
 H    -3.87123   -14.16979     0.23669
 H    -2.44130   -10.78732     0.79135
 H    -2.82932   -12.38077     0.07423
 H    -1.11536   -12.05555     2.67424
 H    -1.33817   -13.52926     1.70649
 H    -0.44877   -12.14984     1.05448
 H    -4.50304   -11.39777     3.90054
 H    -2.74964   -11.68230     3.78398
 H    -3.14262    -9.27890     4.05388
 H    -2.54461    -9.49193     2.41594
 H    -4.27630    -9.19515     2.70712
Pt     5.85602     3.92753     2.48385
Br     8.15148     4.52690     1.42726
Br     5.79212     6.13616     3.56974
Br     3.74808     4.76240     1.30593
Pt     3.34040     6.21740     3.36673
Br     3.40442     8.79317     3.05980
Br     0.90485     6.22740     3.10415
Br     5.84050     1.74420     1.36823
 C     7.47866     2.53611    -2.06967
 C     8.79072     2.57355    -2.83319
 C     6.63960     4.62265    -3.18597
 C     7.04364     5.50221    -2.01612
 C     5.11311     3.11978    -1.87816
 C     3.86978     3.79785    -2.42510
 C     6.03193     2.44524    -4.11470
 C     5.69341     0.97505    -3.94241
 N     6.31694     3.18069    -2.81192
 C     4.75082    -3.18547    -2.56315
 C     3.42343    -3.23115    -1.82879
 C     5.66658    -5.21596    -1.39840
 C     5.26738    -6.09318    -2.57217
 C     7.14895    -3.63076    -2.64686
 C     8.41894    -4.16922    -2.01507
 C     6.10716    -2.98972    -0.46363
 C     6.37588    -1.50491    -0.65564
 N     5.91430    -3.75489    -1.76543
 H     7.59681     3.05685    -1.08651
 H     7.19933     1.48332    -1.83151
 H     9.18222     3.59118    -2.96368
 H     9.56506     2.01094    -2.28799
 H     8.73177     2.10775    -3.82384
 H     5.75069     5.04923    -3.70531
 H     7.45242     4.60801    -3.95124
 H     6.25940     5.60732    -1.25680
 H     7.95146     5.15054    -1.51067
 H     7.28048     6.52133    -2.37861
 H     5.41037     3.59118    -0.90921
 H     4.90425     2.04931    -1.65020
 H     2.97775     3.47312    -1.86470
 H     3.66340     3.55607    -3.48668
 H     3.91961     4.89046    -2.33821
 H     5.17922     2.98488    -4.64648
 H     6.91511     2.56053    -4.78297
 H     4.78099     0.81213    -3.35547
 H     6.50625     0.39448    -3.48923
 H     5.50650     0.51839    -4.93027
 H     4.99900    -2.13507    -2.84325
 H     4.68163    -3.75623    -3.52554
 H     3.41357    -2.62549    -0.91350
 H     3.11336    -4.24922    -1.56322
 H     2.62377    -2.82255    -2.46491
 H     4.87834    -5.25076    -0.60972
 H     6.58746    -5.61109    -0.91437
 H     4.22471    -5.93900    -2.87865
 H     5.34849    -7.15667    -2.29414
 H     5.89378    -5.94933    -3.47700
 H     7.27960    -2.56037    -2.92495
 H     6.92666    -4.17390    -3.61827
 H     8.63417    -3.73441    -1.02892
 H     8.41043    -5.26092    -1.91055
 H     9.28974    -3.91789    -2.64598
 H     5.20637    -3.14024     0.17358
 H     6.95433    -3.46547     0.09344
 H     6.58009    -1.03807     0.32304
 H     7.26171    -1.30657    -1.27223
 H     5.52344    -0.96539    -1.08638
Pt     1.95961    -0.46368     8.54348
Br     4.24075     0.16473     7.46603
Br     1.88354     1.73282     9.64389
Br    -0.16630     0.36064     7.38360
Pt    -0.56449     1.85486     9.41971
Br    -0.42690     4.41854     9.03957
Br    -2.99565     1.91380     9.12966
Br     1.97825    -2.64275     7.41774
 C     3.65882    -1.76102     3.96737
 C     4.96830    -1.65270     3.20488
 C     2.72162     0.27468     2.83349
 C     3.00802     1.20368     3.99968
 C     1.26794    -1.27233     4.17033
 C     0.00552    -0.62095     3.63449
 C     2.19859    -1.93599     1.93713
 C     1.90709    -3.41429     2.12609
 N     2.46407    -1.17450     3.22944
 C     0.86731    -7.55643     3.57038
 C    -0.46379    -7.63049     4.29569
 C     1.82862    -9.56853     4.73719
 C     1.43341   -10.45438     3.56914
 C     3.27448    -7.94686     3.49321
 C     4.56209    -8.42142     4.14019
 C     2.20203    -7.33888     5.67923
 C     2.43159    -5.84675     5.50161
 N     2.03996    -8.10195     4.37268
 H     3.75098    -1.23785     4.95159
 H     3.43501    -2.82781     4.20007
 H     5.30835    -0.61543     3.08725
 H     5.77011    -2.18178     3.74400
 H     4.93270    -2.11011     2.20892
 H     1.83429     0.63012     2.25727
 H     3.57042     0.29447     2.10934
 H     2.18001     1.27561     4.71501
 H     3.90744     0.92076     4.56052
 H     3.19767     2.22692     3.62516
 H     1.55624    -0.80030     5.14210
 H     1.08501    -2.34855     4.39278
 H    -0.87095    -0.94025     4.22183
 H    -0.21987    -0.88534     2.58421
 H     0.04281     0.47450     3.69413
 H     1.32693    -1.42834     1.40797
 H     3.07418    -1.80088     1.26320
 H     1.01896    -3.60206     2.74149
 H     2.75079    -3.96961     2.55426
 H     1.70253    -3.88070     1.14632
 H     1.09444    -6.49971     3.29630
 H     0.81533    -8.12630     2.60612
 H    -0.48649    -7.04856     5.22562
 H    -0.76710    -8.65738     4.53180
 H    -1.26205    -7.21119     3.66367
 H     1.05137    -9.62208     5.53601
 H     2.76517    -9.94255     5.20828
 H     0.38336   -10.32333     3.27695
 H     1.53989   -11.51542     3.84835
 H     2.04352   -10.29845     2.65583
 H     3.36562    -6.87725     3.19594
 H     3.07863    -8.51363     2.53124
 H     4.76536    -7.94223     5.10811
 H     4.59105    -9.50695     4.28739
 H     5.42299    -8.16796     3.49616
 H     1.29750    -7.51680     6.30544
 H     3.05452    -7.79497     6.24423
 H     2.64763    -5.39013     6.48267
 H     3.29707    -5.61709     4.86762
 H     1.55644    -5.32153     5.09947
