  104
 
Cr     0.00000     0.00000     0.00000
Cl     2.35607     0.00000     0.00000
Cl     0.00688     2.34963     0.00000
Cl     0.02396    -0.03928     2.37123
Cl    -0.08685    -2.35445    -0.00952
Cl    -2.34829     0.07973     0.00032
Cl     0.02879    -0.01545    -2.37145
Cr    -4.75519    -6.45679     1.75674
Cl    -5.13257    -4.55513     3.09439
Cl    -2.85921    -6.97764     3.04313
Cl    -3.44468    -5.13500     0.28765
Cl    -6.64767    -6.00461     0.42817
Cl    -4.31042    -8.36588     0.46009
Cl    -6.11908    -7.72447     3.22562
Cl     1.84169    -5.01601     4.53796
Cl    -0.50006    -7.68581    -2.79032
 N    -0.26746    -0.81715     6.78620
 C     0.41405    -1.79312     5.97874
 C    -1.31050    -0.09461     6.07855
 H    -0.24905    -2.63806     5.79310
 H    -0.86494     0.49314     5.27597
 N    -2.36640    -2.82190     2.28328
 C    -1.41296    -3.54229     3.08388
 C    -3.04714    -1.75593     2.99815
 H    -0.54341    -2.91155     3.26865
 H    -3.64766    -2.18289     3.80139
 N    -1.51872    -2.78622    -3.02232
 C    -2.87362    -2.45743    -2.67010
 C    -1.17046    -4.17649    -2.78437
 H    -3.55577    -2.90502    -3.39289
 H    -1.22207    -4.38626    -1.71599
 N    -5.35844    -6.48892    -2.53411
 C    -5.63845    -5.12138    -2.87956
 C    -3.98292    -6.88717    -2.77930
 H    -5.16310    -4.45919    -2.15593
 H    -3.77571    -6.83885    -3.84833
 N     3.84390    -3.83203     2.61242
 C     2.88738    -2.96766     1.87644
 C     4.78278    -3.09032     3.46947
 H     4.38414    -4.36533     1.93115
 H     3.31061    -4.47278     3.20016
 H     5.70192    -3.66495     3.58380
 H     4.33118    -2.92872     4.44827
 H     3.43722    -2.30001     1.21310
 H     5.01055    -2.12799     3.01106
 H     2.30913    -2.37792     2.58773
 N     3.67715    -3.97150    -2.64397
 C     2.85160    -2.98687    -1.90051
 C     2.89788    -4.87881    -3.50169
 H     4.19292    -4.53387    -1.96712
 H     4.33475    -3.45972    -3.23223
 H     3.56930    -5.58999    -3.98285
 H     2.37565    -4.29971    -4.26327
 H     2.16682    -3.51452    -1.23661
 H     2.17157    -5.41869    -2.89416
 H     2.28071    -2.38431    -2.60698
 N    -0.93301    -7.34302     0.21344
 C    -0.50016    -8.71067     0.59540
 C     0.00181    -6.28397     0.62306
 H    -1.83686    -7.15920     0.64895
 H    -1.03137    -7.30929    -0.80125
 H    -0.40272    -5.31246     0.33914
 H     0.96185    -6.43601     0.12980
 H    -0.42651    -8.77861     1.68079
 H     0.13910    -6.31859     1.70383
 H     0.47278    -8.92115     0.15133
 N    -0.83944    -7.22857    -5.79128
 C     0.50978    -7.70991    -6.18071
 C    -1.93387    -8.12201    -6.20023
 H    -0.99157    -6.31674    -6.22235
 H    -0.86542    -7.13328    -4.77607
 H    -2.84694    -7.54142    -6.33185
 H    -2.09192    -8.87841    -5.43148
 H     0.57057    -7.78146    -7.26666
 H    -1.67383    -8.60832    -7.14043
 H     0.68604    -8.69179    -5.74146
 H     0.41935    -0.14233     7.12281
 H    -0.69087    -1.29648     7.58078
 H     0.70214    -1.34189     5.02927
 H     1.30552    -2.13898     6.50197
 H    -2.02230    -0.80439     5.65706
 H    -1.82681     0.56951     6.77172
 H    -1.87500    -2.41311     1.48841
 H    -3.06743    -3.48197     1.94672
 H    -1.10231    -4.44369     2.55561
 H    -1.87066    -3.81753     4.03406
 H    -3.69457    -1.21261     2.30987
 H    -2.30991    -1.07253     3.41954
 H    -1.38720    -2.58722    -4.01404
 H    -0.89209    -2.19922    -2.47173
 H    -2.99786    -1.37454    -2.67550
 H    -3.09422    -2.84350    -1.67491
 H    -0.15837    -4.36403    -3.14298
 H    -1.86965    -4.82225    -3.31562
 H    -5.97036    -7.09119    -3.08477
 H    -5.55814    -6.61719    -1.54211
 H    -5.24852    -4.91105    -3.87546
 H    -6.71599    -4.95732    -2.86914
 H    -3.30969    -6.21448    -2.24794
 H    -3.83138    -7.90698    -2.42556
 H     2.21347    -3.59039     1.28809
 H     3.50111    -2.33883    -1.31206
 H    -1.22892    -9.43647     0.23454
 H     1.26339    -7.00990    -5.81996
