  152
 
Se     0.00000     0.00000     0.00000
Se   -12.77426    -1.04778    10.62499
 C    -8.41010    -0.31223    10.62499
 C    -9.77386    -0.55206    10.49938
 C   -10.36509    -0.68604     9.21885
 C   -11.75814    -0.89044     9.06000
 C   -12.33683    -0.96449     7.78320
 H    -7.99334    -0.25427    11.55554
 H   -13.36903    -0.98251     7.72137
 C    -7.61252    -0.20123     9.49937
 C    -9.55253    -0.57295     8.07209
 C   -11.53464    -0.85285     6.65108
 C    -8.16602    -0.32829     8.23027
 H    -6.60564    -0.06114     9.59711
 C   -10.15030    -0.66667     6.79089
 H   -11.93753    -0.78328     5.70112
Se    -7.14664    -0.09748     6.65394
Se    -9.00996    -0.52389     5.31249
Se   -10.93054    -0.62410    11.99408
Se    -1.92058    -0.10021     6.68159
Se    -3.76430    -0.52389     5.31249
 C     0.59986     0.21166     5.31249
 C    -0.76390    -0.02817     5.18689
 C    -1.35514    -0.16215     3.90635
 C    -2.74818    -0.36655     3.74751
 C    -3.32687    -0.44060     2.47070
 H     1.01662     0.26962     6.24305
 H    -4.35907    -0.45862     2.40888
 C     1.39744     0.32266     4.18688
 C    -0.54257    -0.04906     2.75960
 C    -2.52468    -0.32896     1.33859
 C     0.84393     0.19560     2.91778
 H     2.40432     0.46275     4.28462
 C    -1.14034    -0.14278     1.47840
 H    -2.92757    -0.25939     0.38863
Se     1.86331     0.42641     1.34145
Se    -9.90489     5.99149    13.37323
Se    -8.04158     5.31127    14.60554
 C    -9.43902     6.44554    10.56234
 C    -8.88551     6.07303    11.78218
 C    -7.49900     5.80119    11.88942
 C    -6.90123     5.45902    13.12764
 C    -5.51690     5.24912    13.22839
 H   -10.44590     6.60202    10.49385
 H    -5.11401     5.13179    14.17363
 C    -8.64143     6.55654     9.43673
 C    -6.68644     5.91428    10.74267
 C    -4.71471     5.36077    12.09627
 C    -7.27767     6.29680     9.51306
 H    -9.05820     6.79515     8.53542
 C    -5.29340     5.68279    10.85852
 H    -3.68251     5.33102    12.15339
Se    -6.12100     6.51811     8.03308
Se    -4.27728     5.83516     9.29305
Se    -7.90202     7.00029     3.14351
Se    -6.03870     6.32007     4.37582
 C    -7.43614     7.45434     0.33262
 C    -6.88264     7.08183     1.55246
 C    -5.49613     6.80999     1.65970
 C    -4.89836     6.46782     2.89792
 C    -3.51402     6.25792     2.99867
 H    -8.44302     7.61082     0.26413
 H    -3.11113     6.14059     3.94391
 C    -6.63856     7.56534    -0.79300
 C    -4.68357     6.92308     0.51294
 C    -2.71183     6.36957     1.86655
 C    -5.27480     7.30560    -0.71666
 H    -7.05532     7.80395    -1.69431
 C    -3.29052     6.69159     0.62880
 H    -1.67963     6.33982     1.92367
Se    -4.11812     7.52691    -2.19664
Se    -2.27440     6.84396    -0.93667
Se    -9.62454     2.83461     5.18731
Se    -7.78082     3.25829     6.55641
 C   -12.14498     2.52274     6.55641
 C   -10.78121     2.76257     6.68201
 C   -10.18998     2.89655     7.96255
 C    -8.79694     3.10095     8.12139
 C    -8.21825     3.17500     9.39820
 H   -12.56174     2.46478     5.62585
 H    -7.18605     3.19302     9.46003
 C   -12.94256     2.41174     7.68202
 C   -11.00255     2.78346     9.10931
 C    -9.02044     3.06335    10.53031
 C   -12.38905     2.53880     8.95113
 H   -13.94944     2.27165     7.58429
 C   -10.40478     2.87718    10.39050
 H    -8.61755     2.99379    11.48027
Se   -13.40843     2.30799    10.52746
Se   -11.54512     2.73440    11.86890
Se    -0.61458     3.35850    -0.12518
Se     1.22914     3.78218     1.24392
 C    -3.13502     3.04663     1.24392
 C    -1.77126     3.28646     1.36952
 C    -1.18002     3.42044     2.65006
 C     0.21302     3.62484     2.80890
 C     0.79171     3.69889     4.08571
 H    -3.55178     2.98867     0.31336
 H     1.82391     3.71691     4.14753
 C    -3.93260     2.93563     2.36953
 C    -1.99259     3.30735     3.79681
 C    -0.01048     3.58725     5.21782
 C    -3.37910     3.06269     3.63863
 H    -4.93948     2.79554     2.27179
 C    -1.39482     3.40107     5.07801
 H     0.39241     3.51768     6.16778
Se    -4.39848     2.83188     5.21496
Se    -2.53516     3.25829     6.55641
Se    -3.64310    -4.26589     8.72540
Se    -5.50642    -3.58567     7.49308
 C    -4.10898    -4.71994    11.53629
 C    -4.66248    -4.34743    10.31645
 C    -6.04899    -4.07559    10.20920
 C    -6.64676    -3.73342     8.97099
 C    -8.03110    -3.52352     8.87024
 H    -3.10210    -4.87642    11.60478
 H    -8.43399    -3.40619     7.92499
 C    -4.90656    -4.83094    12.66190
 C    -6.86155    -4.18868    11.35596
 C    -8.83329    -3.63517    10.00235
 C    -6.27032    -4.57120    12.58556
 H    -4.48980    -5.06955    13.56321
 C    -8.25460    -3.95719    11.24010
 H    -9.86548    -3.60542     9.94523
Se    -7.42700    -4.79251    14.06554
Se    -9.27072    -4.10956    12.80557
Se    -1.64023    -3.25709    -1.50432
Se    -3.50354    -2.57687    -2.73664
 C    -2.10610    -3.71114     1.30657
 C    -2.65961    -3.33863     0.08673
 C    -4.04611    -3.06679    -0.02052
 C    -4.64388    -2.72462    -1.25874
 C    -6.02822    -2.51472    -1.35949
 H    -1.09922    -3.86762     1.37505
 H    -6.43111    -2.39739    -2.30473
 C    -2.90368    -3.82214     2.43218
 C    -4.85868    -3.17988     1.12624
 C    -6.83041    -2.62636    -0.22737
 C    -4.26745    -3.56240     2.35584
 H    -2.48692    -4.06075     3.33349
 C    -6.25172    -2.94839     1.01038
 H    -7.86261    -2.59661    -0.28449
Se    -5.42412    -3.78371     3.83582
Se    -7.26785    -3.10076     2.57585
Cl    -1.25577     9.04641    -3.48226
Cl    -3.25865     8.03761     6.74746
Cl    -8.28647     8.06793     6.44003
Cl     0.72349     8.59182     1.12754
Cl     2.24777     2.11839    -1.68294
Cl    -6.76219     1.59450     3.62955
Cl    -4.78293     1.13990     8.23935
Cl    -2.78005     2.14870    -1.99037
