   58
 
Ge     0.00000     0.00000     0.00000
 F    -0.94427    -0.99322    -1.12569
 F     0.00851     1.35770    -1.12569
 F    -1.44566     0.52479     0.84717
 F     1.05206     0.86850     1.13346
 N     0.12136    -1.65377     1.26697
 N     1.75104    -0.72087    -0.83030
 C    -1.13399    -2.46086     1.25455
 H    -1.00011    -3.28155     1.77320
 H    -1.36478    -2.69343     0.33032
 H    -1.86302    -1.93837     1.65021
 C     0.37515    -1.23583     2.66844
 H     0.28985    -2.01093     3.26139
 H    -0.27781    -0.55309     2.92915
 H     1.28025    -0.86614     2.74070
 C     1.23393    -2.51285     0.76057
 H     1.59335    -3.06743     1.49888
 H     0.89467    -3.11908     0.05546
 C     2.31561    -1.64646     0.20545
 H     3.01946    -2.21097    -0.20137
 H     2.72725    -1.11842     0.93505
 C     1.54959    -1.45945    -2.10930
 H     1.08990    -0.88005    -2.75239
 H     1.00787    -2.25916    -1.94335
 H     2.42086    -1.72392    -2.47366
 C     2.74385     0.35172    -1.09078
 H     2.82482     0.91986    -0.29726
 H     2.44650     0.89417    -1.85130
 H     3.61222    -0.05022    -1.29693
Ge    -4.60005    -4.03453    -4.17311
 F    -5.92227    -3.25317    -3.28754
 F    -4.57598    -5.38818    -3.04388
 F    -5.71694    -4.79885    -5.29176
 F    -3.19452    -4.67330    -5.04621
 N    -4.52337    -2.36224    -5.41910
 N    -3.22227    -3.02019    -3.01125
 C    -5.87910    -1.79922    -5.68331
 H    -5.79414    -0.95808    -6.17877
 H    -6.33548    -1.63089    -4.83187
 H    -6.40164    -2.43871    -6.21156
 C    -3.91176    -2.69929    -6.72889
 H    -4.01173    -1.94051    -7.34138
 H    -4.35987    -3.48496    -7.10625
 H    -2.95942    -2.89436    -6.60428
 C    -3.71711    -1.32280    -4.70933
 H    -3.31993    -0.69849    -5.36757
 H    -4.29969    -0.80274    -4.10188
 C    -2.63319    -1.98776    -3.92487
 H    -2.14498    -1.31082    -3.39167
 H    -1.99030    -2.41722    -4.54274
 C    -3.81582    -2.35692    -1.81656
 H    -4.28501    -3.02215    -1.27179
 H    -4.44943    -1.66708    -2.10703
 H    -3.10391    -1.94346    -1.28439
 C    -2.12573    -3.89848    -2.52951
 H    -1.77796    -4.42654    -3.27760
 H    -2.47000    -4.50090    -1.83696
 H    -1.40686    -3.34816    -2.15520
