  144
 
Cu     0.00000     0.00000     0.00000
 O     1.79485    -0.39914    -0.14076
 O    -1.82263     0.07986    -0.00343
 O     0.06956     0.21853    -1.80300
 O     0.06387    -0.55581     1.73946
 O    -0.57035    -2.04337     0.03228
 C     2.39345     0.72550     0.19075
 C     3.86795     0.82555     0.14966
 C     0.17964     1.36167    -2.43210
 C     0.38647     1.25455    -3.90361
Cu    -0.11655     2.68111     0.16363
 C    -2.56058     1.16729    -0.08911
 C    -0.34901     0.49945     2.41700
 O     1.59191     1.63910     0.49873
 O     0.11655     2.45082    -1.83061
 O    -2.06445     2.30557    -0.15857
 O    -0.62737     1.48148     1.69119
 O     0.55899     4.62316     0.45573
 C    -4.03038     0.91379    -0.10369
 C    -0.46231     0.43162     3.89045
Cu     2.20577    -3.26969     6.86530
 O     4.00008    -3.63479     6.68871
 O     0.38617    -3.24844     6.87959
 O     2.24226    -3.03818     5.06471
 O     2.28877    -3.82568     8.60510
 O     1.69048    -5.33406     6.89689
 C     4.59575    -2.52383     7.07260
 C     6.06863    -2.41756     7.00964
 C     2.40486    -1.88428     4.46394
 C     2.62365    -1.97181     2.99077
Cu     2.08581    -0.58387     7.07420
 C    -0.33901    -2.15907     6.73431
 C     1.84124    -2.78648     9.28624
 O     3.79374    -1.63065     7.43569
 O     2.38442    -0.80848     5.08821
 O     0.17678    -1.03416     6.61217
 O     1.53433    -1.81243     8.56183
 O     2.74328     1.36186     7.36847
 C    -1.81233    -2.39522     6.71953
 C     1.72256    -2.86136    10.75815
Cu     4.38108     6.13890    -3.08528
 O     2.62282     6.18654    -3.61165
 O     6.19805     6.15089    -2.90658
 O     4.38836     4.47243    -3.81003
 O     4.25362     7.92123    -2.70666
 O     5.02581     7.17732    -4.82070
 C     1.95375     5.87814    -2.52011
 C     0.48430     5.73082    -2.56470
 C     4.33182     3.34430    -3.14959
 C     4.24401     2.12044    -4.00043
Cu     4.36801     4.92280    -0.68588
 C     6.89041     5.55204    -1.96129
 C     4.56930     7.98508    -1.42503
 O     2.69040     5.70673    -1.51886
 O     4.34791     3.30711    -1.90514
 O     6.34790     4.91317    -1.04331
 O     4.82676     6.86769    -0.92178
 O     3.53140     4.00688     0.98663
 C     8.36979     5.69751    -2.09684
 C     4.60755     9.29522    -0.73967
Cu     6.57274     2.83637     3.78503
 O     4.79580     2.87629     3.31897
 O     8.39040     2.84011     3.91597
 O     6.57809     1.16450     3.07250
 O     6.43677     4.61861     4.16444
 O     7.20265     3.86971     2.04086
 C     4.15693     2.65217     4.44732
 C     2.67974     2.57187     4.45724
 C     6.49290     0.05519     3.75860
 C     6.39532    -1.18961     2.94245
Cu     6.58424     1.66798     6.21734
 C     9.07997     2.21392     4.84775
 C     6.80732     4.69407     5.42891
 O     4.91438     2.50861     5.43594
 O     6.49425     0.05139     5.00492
 O     8.53578     1.55764     5.75172
 O     7.11696     3.58657     5.92772
 O     5.75502     0.78259     7.91121
 C    10.55621     2.36348     4.71431
 C     6.84076     6.00960     6.10659
 H     4.15332     1.67392    -0.54609
 H     4.35109    -0.11098    -0.22019
 H     4.27642     1.06909     1.16571
 H     1.27816     1.83600    -4.22158
 H     0.48843     0.18983    -4.22797
 H    -0.49915     1.71359    -4.43732
 H    -4.36899     0.67811    -1.15064
 H    -4.27794     0.03497     0.55281
 H    -4.58751     1.81255     0.25969
 H     0.52191     0.13615     4.35776
 H    -1.19862    -0.35346     4.19315
 H    -0.77051     1.42334     4.30360
 H     6.33309    -1.58288     6.28970
 H     6.54393    -3.36318     6.65009
 H     6.49378    -2.14978     8.01281
 H     3.54973    -1.42290     2.70824
 H     2.69813    -3.03606     2.65654
 H     1.76376    -1.48485     2.44874
 H    -2.15795    -2.63448     5.67661
 H    -2.07358    -3.26858     7.37986
 H    -2.35514    -1.48978     7.08099
 H     2.72268    -3.09560    11.22717
 H     1.04404    -3.69575    11.06348
 H     1.35209    -1.89292    11.17388
 H     0.06169     6.02041    -3.55679
 H     0.24467     4.64370    -2.36579
 H    -0.01036     6.34067    -1.76010
 H     5.16214     1.48642    -3.84402
 H     3.35304     1.51945    -3.70809
 H     4.17914     2.38730    -5.08430
 H     8.62409     6.70330    -2.53334
 H     8.77726     4.91133    -2.78399
 H     8.86653     5.60134    -1.09854
 H     5.40196     9.94777    -1.17909
 H     4.78993     9.15759     0.35364
 H     3.63504     9.85435    -0.87182
 H     2.24106     2.83849     3.46712
 H     2.38562     1.50966     4.71217
 H     2.24321     3.24001     5.24635
 H     7.26168    -1.87040     3.18152
 H     5.46040    -1.73751     3.19397
 H     6.41854    -0.95778     1.84905
 H    10.78570     3.37872     4.28897
 H    10.97876     1.59361     4.01446
 H    11.05006     2.25664     5.71390
 H     7.57828     6.68455     5.60694
 H     7.11288     5.88603     7.18396
 H     5.83511     6.51727     6.04821
 H    -0.20072    -2.82349    -0.43917
 H    -1.31792    -2.35289     0.62299
 H     1.42834     4.91755     0.08755
 H    -0.06047     5.39242     0.53156
 H     2.11910    -6.12331     6.49146
 H     0.90406    -5.64642     7.43075
 H     3.62208     1.65700     7.03442
 H     2.11945     2.12920     7.45569
 H     5.78430     7.83348    -4.77771
 H     4.68495     7.16967    -5.74190
 H     4.10026     3.74319     1.75648
 H     2.78124     3.36098     0.89171
 H     7.97749     4.49948     2.08615
 H     6.81005     3.92723     1.13998
 H     6.32169     0.53951     8.69013
 H     5.02792     0.10981     7.81957
