  192
 
Tl     0.00000     0.00000     0.00000
Tl    -4.38057     0.16081     0.14599
Tl     1.84186    -3.73458     1.08816
Tl    -2.36704    -3.42000     1.42764
 F    -0.26155    -1.54905    -1.92987
 F    -2.15065     0.84112     1.02299
 F    -0.39354    -4.40838     0.21576
 F    -2.09572    -1.87648     3.35696
 F    -0.35537     0.37431     2.44393
 F     2.09784     0.39318    -1.46520
 F    -3.95674    -3.34547     3.48017
 F    -0.22763    -2.20832     0.99191
 F    -3.92907    -1.41369     1.92999
 F    -0.24230    -4.11919     2.54578
 F    -0.32152     2.30781     0.89684
 F     2.07376    -1.53133     0.09823
Tl     2.49725     2.22225     2.80451
Tl    -1.88517     2.38391     2.94963
Tl     4.34071    -1.51308     3.89226
Tl     0.12959    -1.19814     4.23061
 F     2.22688     0.67753     0.87049
 F     0.34572     3.06094     3.82795
 F     2.11321    -2.18718     3.02431
 F     0.39375     0.33976     6.15855
 F     2.14546     2.59017     5.24999
 F     4.59530     2.62023     1.34252
 F    -1.42598    -1.12050     6.29568
 F     2.26628     0.01594     3.78449
 F    -1.40981     0.81593     4.73513
 F     2.24290    -1.91889     5.34371
 F     2.17827     4.53278     3.70048
 F     4.56693     0.69799     2.91301
Tl     4.99493     4.44464     5.61025
Tl     0.61205     4.60637     5.75569
Tl     6.83702     0.70939     6.69820
Tl     2.62636     1.02471     7.03640
 F     4.72139     2.89747     3.67799
 F     2.83174     5.27631     6.63025
 F     4.60882     0.03239     5.82601
 F     2.89555     2.56420     8.97580
 F     4.65632     4.82971     8.05881
 F     7.07957     4.81817     4.14995
 F     1.07144     1.10326     9.09456
 F     4.75898     2.24821     6.61176
 F     1.08452     3.02785     7.54301
 F     4.73583     0.32489     8.16972
 F     4.70980     6.76046     6.52247
 F     7.06094     2.91581     5.69016
Tl     0.06367     5.58172    -4.48272
Tl    -4.31561     5.74298    -4.33440
Tl     1.90644     1.84766    -3.39295
Tl    -2.30314     2.16149    -3.05404
 F    -0.19608     4.03200    -6.41445
 F    -2.08306     6.42687    -3.46302
 F    -0.32585     1.17579    -4.26222
 F    -2.02978     3.70640    -1.12407
 F    -0.28864     5.96078    -2.03940
 F     2.16141     5.97395    -5.94924
 F    -3.89620     2.23693    -1.00775
 F    -0.16160     3.37474    -3.48401
 F    -3.85881     4.16205    -2.55405
 F    -0.18009     1.46083    -1.93680
 F    -0.26501     7.89114    -3.58404
 F     2.14139     4.04142    -4.39838
Tl     2.56198     7.80400    -1.67731
Tl    -1.82065     7.96580    -1.53227
Tl     4.40538     4.06913    -0.58946
Tl     0.19384     4.38394    -0.25138
 F     2.29010     6.25774    -3.61134
 F     0.41566     8.64793    -0.65575
 F     2.18160     3.39653    -1.46119
 F     0.45674     5.92584     1.67919
 F     2.20880     8.17227     0.76985
 F     4.65521     8.20690    -3.12886
 F    -1.36234     4.45984     1.81145
 F     2.32866     5.59604    -0.69925
 F    -1.33754     6.39871     0.25199
 F     2.30724     3.66830     0.86789
 F     2.24107    10.11504    -0.78525
 F     4.63374     6.27600    -1.57271
Tl     5.05943    10.02689     1.12880
Tl     0.67656    10.18793     1.27352
Tl     6.90122     6.29166     2.21738
Tl     2.69018     6.60582     2.55468
 F     4.78772     8.48073    -0.80450
 F     2.89444    10.86256     2.15029
 F     4.67702     5.61216     1.34394
 F     2.95527     8.15057     4.48632
 F     4.72881    10.41530     3.57828
 F     7.14380    10.41086    -0.32996
 F     1.13326     6.68524     4.61204
 F     4.81861     7.82942     2.13095
 F     1.15192     8.61348     3.05930
 F     4.79950     5.90795     3.68588
 F     4.78827    12.34297     2.04359
 F     7.12878     8.50040     1.21482
Tl     6.09746    -2.69805    -3.28769
Tl     1.71590    -2.53771    -3.14192
Tl     7.93842    -6.43274    -2.19916
Tl     3.72898    -6.11876    -1.86058
 F     5.83520    -4.24378    -5.21962
 F     3.94754    -1.85620    -2.26669
 F     5.70498    -7.10640    -3.07202
 F     4.00189    -4.57301     0.06545
 F     5.74453    -2.32373    -0.84766
 F     8.19851    -2.30054    -4.74633
 F     2.12481    -6.04760     0.18144
 F     5.86732    -4.90792    -2.29917
 F     2.17233    -4.11684    -1.35820
 F     5.85013    -6.82203    -0.74244
 F     5.76808    -0.39112    -2.39427
 F     8.17175    -4.23003    -3.19093
Tl     8.59477    -0.47614    -0.48279
Tl     4.21116    -0.31406    -0.33853
Tl    10.43754    -4.21126     0.60504
Tl     6.22617    -3.89640     0.94214
 F     8.32465    -2.01858    -2.41941
 F     6.44054     0.36386     0.53869
 F     8.21033    -4.88482    -0.26450
 F     6.48686    -2.35799     2.86851
 F     8.24135    -0.10830     1.96202
 F    10.69280    -0.06967    -1.93344
 F     4.65861    -3.82189     2.99857
 F     8.36426    -2.68384     0.49590
 F     4.69014    -1.88481     1.44634
 F     8.34007    -4.61614     2.05779
 F     8.26588     1.83345     0.41136
 F    10.66592    -2.00352    -0.37727
Tl    11.09186     1.74639     2.32282
Tl     6.70792     1.90754     2.46789
Tl    12.93363    -1.98854     3.41148
Tl     8.72283    -1.67460     3.74803
 F    10.81856     0.20110     0.38804
 F     8.92936     2.57652     3.34109
 F    10.70588    -2.66431     2.53782
 F     8.98767    -0.13420     5.68083
 F    10.74990     2.12882     4.76783
 F    13.18102     2.13144     0.86583
 F     7.15926    -1.59791     5.79869
 F    10.85809    -0.45074     3.32086
 F     7.18166     0.32502     4.25393
 F    10.83393    -2.38059     4.87699
 F    10.80050     4.05936     3.23193
 F    13.15918     0.21386     2.40350
Tl     6.16138     2.88313    -7.77028
Tl     1.78081     3.04429    -7.62318
Tl     8.00254    -0.85164    -6.68062
Tl     3.79314    -0.53714    -6.34186
 F     5.89953     1.33833    -9.70339
 F     4.01426     3.72935    -6.75603
 F     5.77119    -1.52506    -7.55151
 F     4.06702     1.01166    -4.41675
 F     5.80897     3.26085    -5.32956
 F     8.26083     3.28581    -9.22552
 F     2.18847    -0.46433    -4.30443
 F     5.93295     0.67538    -6.77600
 F     2.24862     1.46304    -5.84020
 F     5.91522    -1.23474    -5.22105
 F     5.82911     5.19129    -6.87606
 F     8.23996     1.33658    -7.68952
Tl     8.65882     5.10561    -4.96485
Tl     4.27552     5.26732    -4.82092
Tl    10.50173     1.37044    -3.87698
Tl     6.29032     1.68534    -3.53964
 F     8.38703     3.56356    -6.90184
 F     6.50797     5.95151    -3.94430
 F     8.27945     0.69940    -4.75212
 F     6.55185     3.22805    -1.61110
 F     8.30226     5.47429    -2.51843
 F    10.75498     5.51514    -6.41006
 F     4.72705     1.75992    -1.48636
 F     8.42523     2.89627    -3.99111
 F     4.75846     3.69891    -3.03523
 F     8.40362     0.96939    -2.41751
 F     8.32941     7.41624    -4.07484
 F    10.73104     3.57407    -4.86608
Tl    11.15597     7.32761    -2.15908
Tl     6.77260     7.48936    -2.01397
Tl    12.99747     3.59336    -1.07053
Tl     8.78634     3.90680    -0.73317
 F    10.88351     5.78160    -4.09512
 F     8.99522     8.16409    -1.14363
 F    10.77391     2.91681    -1.94988
 F     9.04868     5.45217     1.19265
 F    10.82057     7.70962     0.28748
 F    13.24549     7.72060    -3.61132
 F     7.22496     3.98534     1.31979
 F    10.91743     5.12554    -1.16528
 F     7.24695     5.91087    -0.22618
 F    10.89495     3.21019     0.40305
 F    10.86362     9.64070    -1.25424
 F    13.22438     5.80050    -2.06753
