   36
 
Tl     0.00000     0.00000     0.00000
Tl    -1.83966     1.15450     2.01238
Tl     3.88257     1.14098     3.16442
Tl     0.23022     3.60753     3.07686
Tl    -3.83477     1.64898    -0.07062
Tl    -6.39134     2.80597     1.49549
Tl    -0.60004     5.93813    -0.71472
Tl    -1.51298     5.56417     1.88877
Tl    -6.32764     4.25426    -1.78592
Tl    -8.71022     6.35626    -0.77786
Tl     1.27613     7.58163    -2.75569
Tl    -3.81865     7.48998     1.64863
Tl     0.09341    -2.97407    -0.62321
Tl    -1.71951    -6.26686     0.54666
Tl     4.75712     0.25854     0.68047
Tl     2.52745    -1.48106     1.06740
Tl    -0.85734    -0.16734    -2.98951
Tl    -2.89876    -1.44560     0.08314
Tl     6.03274     2.61976     0.18238
Tl    -0.67152     2.55817    -1.11271
Tl    -3.81127     1.64065    -3.09630
Tl    -6.07295    -0.56676    -1.08272
Tl     2.69883     5.75851    -4.80161
Tl    -3.49512     4.79219    -0.19974
Tl     3.02268    -4.44784    -0.99929
Tl     0.67702    -8.46679    -0.26804
Tl     7.96360    -2.31850    -2.73754
Tl     5.43302    -2.52266     0.44228
Tl     0.15606    -2.98717    -3.49409
Tl    -2.57419    -3.78027    -2.28944
Tl     5.59340    -0.11360    -2.06136
Tl     2.66477     1.63653    -0.60070
Tl     1.00007    -0.99123    -5.46161
Tl    -3.60517    -1.12576    -2.62762
Tl     4.75389     3.63286    -4.36982
Tl     1.86751     3.90635    -2.92923
