   54
 
Tl     0.00000     0.00000     0.00000
Br     3.19686     0.00268     0.00811
Tl    -2.12222     2.97363    -0.00154
Br     1.07119     2.97592     0.00557
Tl    -4.25663     5.94402    -0.00307
Br    -1.04986     5.95299     0.00387
Tl    -2.12739    -1.48938     2.57194
Br     1.06388    -1.48537     2.58411
Tl    -4.24919     1.48344     2.56983
Br    -1.06451     1.48768     2.57737
Tl    -6.38167     4.45488     2.57007
Br    -3.18791     4.46083     2.57416
Tl    -4.25597    -2.98230     5.14838
Br    -1.05988    -2.97314     5.15598
Tl    -6.37878    -0.01011     5.14526
Br    -3.19004    -0.00228     5.14901
Tl    -8.50682     2.96409     5.15064
Br    -5.31146     2.97259     5.14647
Tl    -2.12445    -1.48799    -2.57447
Br     1.06926    -1.48342    -2.57403
Tl    -4.24728     1.48486    -2.57556
Br    -1.06075     1.49015    -2.57321
Tl    -6.38045     4.45704    -2.57944
Br    -3.18212     4.46113    -2.57281
Tl    -4.25093    -2.97787    -0.00227
Br    -1.06380    -2.97335     0.00293
Tl    -6.37318    -0.00601    -0.00429
Br    -3.19556     0.00028    -0.00044
Tl    -8.50344     2.96706    -0.00644
Br    -5.32084     2.96832    -0.00152
Tl    -6.38181    -4.46888     2.57325
Br    -3.18747    -4.46262     2.57600
Tl    -8.50556    -1.49731     2.57058
Br    -5.32028    -1.49065     2.57223
Tl   -10.62991     1.47797     2.57342
Br    -7.44441     1.47985     2.57223
Tl    -4.25058    -2.98050    -5.15347
Br    -1.05405    -2.97109    -5.14790
Tl    -6.37320    -0.00818    -5.15543
Br    -3.18349     0.00010    -5.14730
Tl    -8.50062     2.96683    -5.16499
Br    -5.30488     2.97529    -5.14887
Tl    -6.37853    -4.46846    -2.58305
Br    -3.18553    -4.46115    -2.57301
Tl    -8.50176    -1.49673    -2.58490
Br    -5.31779    -1.48993    -2.57510
Tl   -10.62753     1.47949    -2.59212
Br    -7.44150     1.48179    -2.57883
Tl    -8.50901    -5.95956    -0.00737
Br    -5.31022    -5.94608    -0.00098
Tl   -10.63312    -2.98916    -0.00946
Br    -7.44539    -2.97977    -0.00397
Tl   -12.75304    -0.00961    -0.01203
Br    -9.56521    -0.00596    -0.00635
