   56
 
 O     0.00000     0.00000     0.00000
 O    -5.58308    -5.75695    -5.11175
 O    -6.19749    -0.27768     0.09842
 O    -3.12916    -4.34267    -0.57609
 O    -5.06885    -0.50117    -2.01690
 O    -4.25780    -4.11917     1.53923
 O     1.12864    -0.22350    -2.11532
 O    -6.71172    -5.53345    -2.99642
 O    -1.23481     0.26552    -2.05746
 O    -7.38917    -4.17295    -4.87218
 O    -3.83404    -0.76669     0.04055
 O    -2.45172    -5.70318     1.29967
Tl     1.14312     2.85038    -1.06181
Tl    -3.37290     1.63052    -3.34246
Tl    -6.21197    -3.35155    -0.95509
Tl    -1.69595    -2.13169     1.32556
 S    -0.12498    -0.45125    -1.38957
 S    -6.24688    -4.82596    -4.19372
 S    -4.94388    -0.04992    -0.62733
 S    -3.59401    -5.05017     0.62120
Tl    -6.26610    -1.32995    -4.57334
Tl    -2.85280    -2.27646    -2.65217
Tl    -3.57479    -8.54618     1.00083
Tl    -2.21605     1.77529     0.63526
 O    -5.26853    -3.82372    -3.77761
 O    -0.38831    -1.88837    -1.37823
 O    -4.57235    -6.05240     0.20509
 O    -4.68054     1.38720    -0.63867
 O     2.77991    -0.55049    -5.21017
 O    -2.80318    -6.30743   -10.32191
 O    -3.41759    -0.82816    -5.11175
 O    -0.34926    -4.89316    -5.78626
 O    -2.28895    -1.05166    -7.22707
 O    -1.47790    -4.66966    -3.67094
 O     3.90854    -0.77398    -7.32549
 O    -3.93182    -6.08394    -8.20659
 O     1.54509    -0.28496    -7.26762
 O    -4.60926    -4.72343   -10.08235
 O    -1.05414    -1.31718    -5.16961
 O     0.32818    -6.25366    -3.91050
Tl     3.92302     2.29990    -6.27198
Tl    -0.59300     1.08003    -8.55263
Tl    -3.43207    -3.90204    -6.16526
Tl     1.08395    -2.68217    -3.88461
 S     2.65493    -1.00173    -6.59974
 S    -3.46697    -5.37644    -9.40389
 S    -2.16397    -0.60041    -5.83750
 S    -0.81410    -5.60065    -4.58897
Tl    -3.48619    -1.88043    -9.78351
Tl    -0.07290    -2.82695    -7.86233
Tl    -0.79489    -9.09666    -4.20934
Tl     0.56385     1.22480    -4.57490
 O    -2.48863    -4.37421    -8.98778
 O     2.39159    -2.43885    -6.58840
 O    -1.79245    -6.60289    -5.00508
 O    -1.90064     0.83671    -5.84884
