   36
 
Tl     0.00000     0.00000     0.00000
Tl    -3.49619    -1.09870     2.07354
Tl     5.70117     4.23341    -0.05142
Tl     2.14628     3.09637     2.03322
Tl    -2.17195     2.88101    -2.10893
Tl    -5.66994     1.75616    -0.02892
Tl     3.53692     7.12256    -2.14467
Tl     0.00649     5.96932    -0.09012
Tl    -4.32055     5.74445    -4.21066
Tl    -7.84273     4.64487    -2.15075
Tl     1.37868     9.98959    -4.24964
Tl    -2.16079     8.85196    -2.20283
Tl     2.11079    -2.95746    -2.07777
Tl    -1.42131    -4.05072     0.04552
Tl     7.85203     1.28103    -2.14598
Tl     4.29887     0.19018    -0.02143
Tl    -0.04523    -0.08413    -4.18264
Tl    -3.58383    -1.17409    -2.06355
Tl     5.68397     4.16215    -4.25982
Tl     2.14226     3.05744    -2.12684
Tl    -2.20685     2.79746    -6.28772
Tl    -5.73504     1.71074    -4.16646
Tl     3.52308     7.03726    -6.35872
Tl    -0.01700     5.93566    -4.24608
Tl     4.25296    -5.83827    -4.11709
Tl     0.72497    -6.99885    -2.04505
Tl     9.90892    -1.67375    -4.16537
Tl     6.40321    -2.75936    -2.08057
Tl     2.11567    -2.98512    -6.23712
Tl    -1.43190    -4.11361    -4.15555
Tl     7.75800     1.20886    -6.27687
Tl     4.24297     0.12048    -4.17205
Tl    -0.04772    -0.11758    -8.31407
Tl    -3.59898    -1.24674    -6.26383
Tl     5.58017     4.07460    -8.38547
Tl     2.08644     2.98171    -6.29284
