  108
 
Tl     0.00000     0.00000     0.00000
Al    -3.21900    -1.82900     1.82900
 F    -3.21900    -1.82900    -0.00000
 F    -1.46300    -1.82900     1.82900
 F    -4.97500    -1.82900     1.82900
 F    -3.21900     0.00000     1.82900
Tl     6.43800     0.00000     0.00000
Al     3.21900    -1.82900     1.82900
 F     3.21900    -1.82900    -0.00000
 F     4.97500    -1.82900     1.82900
 F     1.46300    -1.82900     1.82900
 F     3.21900     0.00000     1.82900
Tl     0.00000     3.65900     0.00000
Al    -3.21900     1.83000     1.82900
 F    -3.21900     1.83000    -0.00000
 F    -1.46300     1.83000     1.82900
 F    -4.97500     1.83000     1.82900
 F    -3.21900     3.65900     1.82900
Tl     6.43800     3.65900     0.00000
Al     3.21900     1.83000     1.82900
 F     3.21900     1.83000    -0.00000
 F     4.97500     1.83000     1.82900
 F     1.46300     1.83000     1.82900
 F     3.21900     3.65900     1.82900
Tl     0.00000     7.31800     0.00000
Al    -3.21900     5.48900     1.82900
 F    -3.21900     5.48900    -0.00000
 F    -1.46300     5.48900     1.82900
 F    -4.97500     5.48900     1.82900
 F    -3.21900     7.31800     1.82900
Tl     6.43800     7.31800     0.00000
Al     3.21900     5.48900     1.82900
 F     3.21900     5.48900    -0.00000
 F     4.97500     5.48900     1.82900
 F     1.46300     5.48900     1.82900
 F     3.21900     7.31800     1.82900
Tl     0.00000     0.00000    -3.65900
Al    -3.21900    -1.82900    -1.83000
 F    -3.21900    -1.82900    -3.65900
 F    -1.46300    -1.82900    -1.83000
 F    -4.97500    -1.82900    -1.83000
 F    -3.21900     0.00000    -1.83000
Tl     6.43800     0.00000    -3.65900
Al     3.21900    -1.82900    -1.83000
 F     3.21900    -1.82900    -3.65900
 F     4.97500    -1.82900    -1.83000
 F     1.46300    -1.82900    -1.83000
 F     3.21900     0.00000    -1.83000
Tl     0.00000     3.65900    -3.65900
Al    -3.21900     1.83000    -1.83000
 F    -3.21900     1.83000    -3.65900
 F    -1.46300     1.83000    -1.83000
 F    -4.97500     1.83000    -1.83000
 F    -3.21900     3.65900    -1.83000
Tl     6.43800     3.65900    -3.65900
Al     3.21900     1.83000    -1.83000
 F     3.21900     1.83000    -3.65900
 F     4.97500     1.83000    -1.83000
 F     1.46300     1.83000    -1.83000
 F     3.21900     3.65900    -1.83000
Tl     0.00000     7.31800    -3.65900
Al    -3.21900     5.48900    -1.83000
 F    -3.21900     5.48900    -3.65900
 F    -1.46300     5.48900    -1.83000
 F    -4.97500     5.48900    -1.83000
 F    -3.21900     7.31800    -1.83000
Tl     6.43800     7.31800    -3.65900
Al     3.21900     5.48900    -1.83000
 F     3.21900     5.48900    -3.65900
 F     4.97500     5.48900    -1.83000
 F     1.46300     5.48900    -1.83000
 F     3.21900     7.31800    -1.83000
Tl     0.00000     0.00000    -7.31800
Al    -3.21900    -1.82900    -5.48900
 F    -3.21900    -1.82900    -7.31800
 F    -1.46300    -1.82900    -5.48900
 F    -4.97500    -1.82900    -5.48900
 F    -3.21900     0.00000    -5.48900
Tl     6.43800     0.00000    -7.31800
Al     3.21900    -1.82900    -5.48900
 F     3.21900    -1.82900    -7.31800
 F     4.97500    -1.82900    -5.48900
 F     1.46300    -1.82900    -5.48900
 F     3.21900     0.00000    -5.48900
Tl     0.00000     3.65900    -7.31800
Al    -3.21900     1.83000    -5.48900
 F    -3.21900     1.83000    -7.31800
 F    -1.46300     1.83000    -5.48900
 F    -4.97500     1.83000    -5.48900
 F    -3.21900     3.65900    -5.48900
Tl     6.43800     3.65900    -7.31800
Al     3.21900     1.83000    -5.48900
 F     3.21900     1.83000    -7.31800
 F     4.97500     1.83000    -5.48900
 F     1.46300     1.83000    -5.48900
 F     3.21900     3.65900    -5.48900
Tl     0.00000     7.31800    -7.31800
Al    -3.21900     5.48900    -5.48900
 F    -3.21900     5.48900    -7.31800
 F    -1.46300     5.48900    -5.48900
 F    -4.97500     5.48900    -5.48900
 F    -3.21900     7.31800    -5.48900
Tl     6.43800     7.31800    -7.31800
Al     3.21900     5.48900    -5.48900
 F     3.21900     5.48900    -7.31800
 F     4.97500     5.48900    -5.48900
 F     1.46300     5.48900    -5.48900
 F     3.21900     7.31800    -5.48900
