  112
 
 S     0.00000     0.00000     0.00000
 S    -4.59968    -0.12421    -0.13117
 S    -1.61930    -0.66594     8.57290
 S     3.60860     2.97272     0.11160
 S     2.17701     4.11736     4.40591
 S    -0.18206    -1.79769     4.26520
 S    -6.04389     1.03688     4.13917
 S     1.42051    -1.19248    -4.26757
Na     2.08362     0.74933     2.74320
Na    -3.68936    -1.37012     5.79266
Na    -0.07011     1.55483     5.97818
Na    -0.99146     1.24419    -5.91852
Na     3.71118     1.32055    -5.85515
Na    -2.05494    -0.76983    -2.76581
Na     1.53748     2.18467    -2.62109
Na    -2.56375     0.62720     2.64840
Na    -2.35999     2.47794    -1.68630
Na     3.99307    -1.84211    -6.89809
Na    -2.26909    -2.55803     1.53189
Na     3.49126    -0.42279    -1.52399
Na    -1.69692    -4.07355     6.90850
Na     0.16548     3.34470     1.62027
Na     5.96745     0.54052     1.80467
Na    -4.75045    -3.53283    -1.77530
 O    -0.38534     0.65819     1.30023
 O    -1.83857     0.34289     7.48210
 O     1.29740     2.90613     4.24417
 O    -4.58545     0.67401     4.22934
 O    -4.24017    -0.85366    -1.39840
 O     3.76515     2.06556     1.30230
 O     0.68524    -0.58364     4.46603
 O    -0.02661    -0.78116    -4.33141
 O     1.22197     1.13597    -7.23064
 O    -0.19465     0.93729    -1.15980
 O     2.96640     3.48596    -4.35179
 O    -2.99021     1.27584    -4.33777
 O     3.98748     2.25815    -1.15770
 O    -4.43417    -1.01493     1.06991
 O     2.31820     0.00362    -4.10037
 O    -1.63881    -1.41714     4.27211
 O    -2.53566    -3.49912    -3.08828
 O    -3.95670    -3.89644     2.96567
 O    -0.86378    -1.21345    -0.21114
 O     3.08303     0.22356    -8.51690
 O    -2.03695     3.33256     2.93870
 O    -0.62699     3.78262    -3.10462
 O    -3.68805     1.06516     0.02570
 O     2.17537     3.40976     0.01452
 O     5.68671    -0.37555    -2.89320
 O     4.25611    -0.79718     3.26697
 O    -2.44937    -1.88640     8.28442
 O     1.45632    -0.37362     0.07228
 O     1.77833    -1.90326    -5.54571
 O     0.07909    -2.75749     5.39108
 O     4.52277     4.15723     0.29474
 O    -6.03878     0.30595    -0.21690
 S     2.21649    -5.84511     0.03627
 S    -2.40249    -5.95854    -0.09505
 S     0.62114    -6.50793     8.59727
 S     5.84125    -2.85258     0.14795
 S     4.45506    -1.72594     4.43226
 S     2.02255    -7.63997     4.29567
 S    -3.78705    -4.78221     4.16853
 S     3.62870    -7.03568    -4.23624
Na     4.30038    -5.09352     2.76004
Na    -1.42213    -7.23992     5.81857
Na     2.16213    -4.25344     5.96532
Na     1.29130    -4.59239    -5.89908
Na     5.92325    -4.48462    -5.80573
Na     0.17100    -6.60375    -2.72563
Na     3.77271    -3.62736    -2.57689
Na    -0.33158    -5.17924     2.65175
Na    -0.09237    -3.40589    -1.64333
Na     6.22824    -7.77077    -6.86449
Na    -0.07361    -8.44246     1.58742
Na     5.66403    -6.21758    -1.47988
Na     0.50276    -9.85230     6.94824
Na     2.38364    -2.40316     1.66620
Na     8.16694    -5.35396     1.84562
Na    -2.58542    -9.34429    -1.73378
 O     1.85620    -5.05601     1.26703
 O     0.49754    -5.63305     7.38160
 O     3.57951    -2.93393     4.23355
 O    -2.34026    -5.18633     4.26900
 O    -2.02224    -6.67115    -1.36776
 O     6.01536    -3.78112     1.31786
 O     2.89532    -6.42671     4.47722
 O     2.16489    -6.69876    -4.35991
 O     3.47715    -4.51898    -7.29816
 O     2.07682    -5.00505    -1.20381
 O     5.18598    -2.30836    -4.31641
 O    -0.71177    -4.56097    -4.31546
 O     6.23536    -3.53002    -1.13768
 O    -2.22099    -6.85672     1.09814
 O     4.45904    -5.79030    -4.09004
 O     0.57336    -7.24832     4.19503
 O    -0.35078    -9.29843    -3.04426
 O    -1.79119    -9.74738     3.03063
 O     1.28960    -7.02537    -0.07852
 O     5.28799    -5.72036    -8.41348
 O     0.14802    -2.42762     2.93792
 O     1.61027    -2.09571    -3.08030
 O    -1.52397    -4.74786     0.06994
 O     4.39138    -2.45825     0.05598
 O     7.87236    -6.24844    -2.83155
 O     6.43554    -6.66394     3.30101
 O    -0.30251    -7.68496     8.43205
 O     3.65108    -6.28910     0.15145
 O     4.05270    -7.76454    -5.48369
 O     2.20033    -8.54429     5.48532
 O     6.71230    -1.64243     0.35396
 O    -3.85386    -5.56765    -0.18492
