   96
 
Sn     0.00000     0.00000     0.00000
Sn    -1.85467    -5.14947    -0.29478
Sn    -4.83776    -0.98574    -3.18833
Cl    -0.83562    -0.27885     2.45091
Cl    -6.55751    -1.49054    -1.25225
Cl    -1.47777    -5.27346    -2.85838
Cl    -4.55497     1.66835    -2.65100
Cl    -2.79372    -2.95463    -0.27716
Cl    -2.93060     2.72136     0.58413
Cl     1.25198    -2.02845     0.07070
Cl    -6.56464    -0.85949    -4.79026
Sn    -5.10690     2.90357    -0.44108
Sn     7.79698    -5.30523     3.77647
Sn     5.82978   -10.26346     3.43447
Sn     2.97142    -7.50011    -0.53460
Cl     7.29171    -5.88525     6.27328
Cl     1.29477    -6.85342     1.35119
Cl     6.01940   -10.34464     0.87146
Cl     4.23039    -4.46724     1.37932
Cl     4.81965    -8.08773     3.49534
Cl     4.72962    -3.43333     4.78237
Cl     8.78167    -7.44590     3.42585
Cl     1.23867    -8.28234    -1.99324
Sn     2.78294    -3.80028     3.42100
Sn     2.02866     0.59623    -4.01429
Sn     0.57131    -4.09766    -3.90664
Sn    -2.04749    -1.23854    -7.27786
Cl     1.98211     1.27939    -1.48547
Cl    -3.08276     0.09208    -5.28328
Cl     0.75825    -3.85836    -6.48576
Cl    -1.22360     3.13600    -6.80125
Cl    -0.41115    -1.95318    -3.58766
Cl    -1.05273     2.59228    -3.18485
Cl     3.42002    -1.34703    -3.80961
Cl    -4.13127    -1.84993    -8.28443
Sn    -2.83114     2.69128    -4.74244
Sn     9.85188    -4.58429    -0.21756
Sn     8.01502    -9.15444    -0.31756
Sn     5.37167    -6.23687    -4.13417
Cl     9.89975    -4.14154     2.39107
Cl     3.67454    -5.65995    -2.22639
Cl     8.43414    -9.04886    -2.89755
Cl     6.63060    -3.26123    -2.27940
Cl     6.95319    -7.02785    -0.24126
Cl     7.05271    -2.25523     1.15890
Cl    10.86039    -6.75215    -0.10468
Cl     3.64950    -7.12373    -5.52125
Sn     5.14111    -2.64140    -0.22898
Sn     3.41107     6.65043     4.26819
Sn     1.53869     2.12487     4.12647
Sn    -1.33819     6.15426     0.84862
Cl     2.90469     6.51946     6.84232
Cl    -2.88173     6.12860     2.94899
Cl     1.48790     1.66378     1.53327
Cl    -0.92647     9.45358     1.99505
Cl     0.56688     4.31495     3.96824
Cl    -0.04970    10.87782     5.30480
Cl     4.43122     4.50088     4.20196
Cl    -3.09120     6.18629    -0.71022
Sn    -2.03660    10.57529     3.95508
Sn    10.88402     1.45301     7.85561
Sn     9.34869    -3.19129     7.98708
Sn     6.14992    -0.02652     4.00182
Cl    10.59559     1.27468    10.43928
Cl     4.68844     0.59241     6.06952
Cl     9.44922    -3.89623     5.45585
Cl     7.68344     2.96483     6.03692
Cl     7.93841    -1.27336     7.73718
Cl     7.70166     4.44878     9.32636
Cl    11.88664    -0.68703     7.60044
Cl     4.21844    -0.36280     2.62816
Sn     5.98180     3.55978     7.92970
Sn     5.53364     7.68584     0.46288
Sn     3.59964     2.80815     0.10298
Sn     1.09931     6.43154    -3.13530
Cl     5.42396     7.76111     3.01745
Cl     0.25243     7.58804    -0.96572
Cl     4.03672     3.53992    -2.36761
Cl     2.03800    10.76364    -2.35099
Cl     2.55153     4.91535     0.50023
Cl     2.60793     9.85830     1.16145
Cl     6.57001     5.51432     0.37539
Cl    -1.03321     6.35497    -4.21362
Sn     0.65803    10.19601    -0.13662
Sn    13.15712     2.61346     4.18069
Sn    11.38216    -2.54010     4.00901
Sn     8.48206     1.14048     0.34832
Cl    12.88957     2.68199     6.75356
Cl     7.04810     1.81709     2.40311
Cl    12.28104    -2.36791     1.57494
Cl    10.04005     4.17059     2.42356
Cl    10.10903    -0.52631     3.90691
Cl    10.10632     5.60318     5.77591
Cl    14.04125     0.39814     4.14577
Cl     6.52448     0.83433    -1.01266
Sn     8.37517     4.80146     4.32884
