   36
 
Sn     0.00000     0.00000     0.00000
Sn    -4.33867     4.49481     4.03875
Sn    -0.66418    -2.77463    -4.03875
Sn    -8.37142    -1.72018    -0.00000
Sn    -5.00285     1.72018     0.00000
Sn    -4.80163    -2.47319    -6.48292
 I     3.05738     0.80472     0.27017
 I    -3.05738    -0.80472    -0.27018
 I    -1.28129     5.29952     4.30892
 I    -7.39604     3.69009     3.76857
 I   -10.12791     0.83642     4.46643
 I    -6.81616    -0.08341     2.01649
 I    -6.55811     0.08341    -2.01649
 I    -3.24637    -0.83641    -4.46643
 I    -4.43470     3.74106     7.12223
 I    -3.47376     1.50675     3.39944
 I    -0.86491     2.98805     0.63931
 I     0.09604     0.75374    -3.08349
Sn     0.76887    -3.74180     2.44418
Sn    -3.56980     0.75301     6.48292
Sn     0.10469    -6.51642    -1.59457
Sn    -7.60255    -5.46197     2.44418
Sn    -4.23398    -2.02162     2.44418
Sn    -4.03276    -6.21498    -4.03875
 I     3.82625    -2.93708     2.71435
 I    -2.28850    -4.54652     2.17400
 I    -0.51241     1.55772     6.75310
 I    -6.62717    -0.05171     6.21275
 I    -9.35904    -2.90538     6.91061
 I    -6.04729    -3.82520     4.46067
 I    -5.78924    -3.65839     0.42769
 I    -2.47750    -4.57821    -2.02225
 I    -3.66583    -0.00074     9.56641
 I    -2.70489    -2.23505     5.84362
 I    -0.09604    -0.75374     3.08349
 I     0.86491    -2.98805    -0.63931
