   54
 
Ti     0.00000     0.00000     0.00000
Br     0.16571     2.56856     0.63173
Br    -0.16572    -2.56855    -0.63173
Ti     3.97562     4.46712    -2.52693
Br     4.14133     7.03568    -1.89520
Br     3.80990     1.89857    -3.15866
Ti     2.48457    -2.56856    -0.63173
Br     2.65028     0.00000     0.00000
Br     2.31886    -5.13711    -1.26346
Ti     6.46019     1.89856    -3.15865
Br     6.62590     4.46712    -2.52693
Br     6.29448    -0.66999    -3.79039
Ti     4.96915    -5.13711    -1.26346
Br     5.13485    -2.56856    -0.63173
Br     4.80343    -7.70567    -1.89519
Ti     8.94477    -0.67000    -3.79038
Br     9.11048     1.89856    -3.15865
Br     8.77905    -3.23855    -4.42211
Ti     0.00000     1.78676     3.15866
Br     0.16571     4.35532     3.79039
Br    -0.16572    -0.78179     2.52693
Ti     3.97562     6.25388     0.63173
Br     4.14133     8.82244     1.26346
Br     3.80990     3.68533     0.00000
Ti     2.48457    -0.78179     2.52693
Br     2.65028     1.78676     3.15866
Br     2.31886    -3.35034     1.89520
Ti     6.46019     3.68533     0.00000
Br     6.62590     6.25388     0.63173
Br     6.29448     1.11677    -0.63173
Ti     4.96915    -3.35035     1.89520
Br     5.13485    -0.78179     2.52693
Br     4.80343    -5.91890     1.26347
Ti     8.94477     1.11677    -0.63173
Br     9.11048     3.68533     0.00000
Br     8.77905    -1.45178    -1.26346
Ti     0.00000     3.57353     6.31731
Br     0.16571     6.14209     6.94904
Br    -0.16572     1.00498     5.68558
Ti     3.97562     8.04065     3.79039
Br     4.14133    10.60921     4.42212
Br     3.80990     5.47210     3.15866
Ti     2.48457     1.00497     5.68559
Br     2.65028     3.57353     6.31731
Br     2.31886    -1.56358     5.05385
Ti     6.46019     5.47209     3.15866
Br     6.62590     8.04065     3.79039
Br     6.29448     2.90354     2.52693
Ti     4.96915    -1.56358     5.05386
Br     5.13485     1.00497     5.68559
Br     4.80343    -4.13214     4.42213
Ti     8.94477     2.90353     2.52693
Br     9.11048     5.47209     3.15866
Br     8.77905     0.33498     1.89520
