  120
 
Ti     0.00000     0.00000     0.00000
Ti     3.03608     0.01349    -0.00496
Ti    -4.07181    -0.02101     5.30833
Ti     7.10134     4.60316    -2.65509
Ti    -4.73455    -1.54567     2.65859
Ti    -1.69964    -1.53396     2.65216
Ti     5.39764     3.07344    -0.00963
Ti     2.36241     3.06699     0.00116
Ti     4.73492     1.53879    -2.65727
Ti     7.77100     1.54905    -2.66203
Ti     0.66601     1.52657     2.64900
Ti    -2.37041     1.51826     2.65898
 O     1.51367     1.40189     0.80468
 O     1.51464     0.00955    -1.61488
 O     1.52561    -1.39093     0.80066
 O    -5.59124    -1.41157     4.49899
 O    -5.58406    -0.01998     6.92524
 O    -5.59565     1.37577     4.50621
 O    -3.22058    -0.14590     3.46409
 O    -3.22293    -1.53617     1.04228
 O    -3.20950    -2.93599     3.46184
 O     3.88323     1.67570    -0.81429
 O     3.89758    -1.50900    -1.04588
 O     3.89817    -0.11543     1.83366
 O     6.25078     2.94062    -1.85232
 O     6.26399     1.54998     1.02390
 O     6.25163     4.73214     0.80208
 O    -0.84901     0.12720     1.84460
 O    -0.86855     1.52225    -1.03283
 O    -0.85445    -1.66064    -0.80656
Ti    -0.02223    -0.00098    -5.29333
Ti     3.01094     0.00762    -5.30516
Ti    -4.09693    -0.01511     0.01131
Ti     7.08084     4.60621    -7.95407
Ti    -4.75828    -1.54295    -2.63134
Ti    -1.72302    -1.53801    -2.64383
Ti     5.37853     3.07259    -5.30490
Ti     2.34478     3.06276    -5.29566
Ti     4.71124     1.54641    -7.95145
Ti     7.74775     1.55029    -7.96148
Ti     0.64318     1.52950    -2.64925
Ti    -2.39194     1.51686    -2.63996
 O     1.49194     1.39979    -4.49372
 O     1.48933     0.00127    -6.91283
 O     1.50255    -1.39028    -4.48984
 O    -5.61458    -1.41333    -0.79262
 O    -5.60774    -0.02255     1.62931
 O    -5.62079     1.37773    -0.78372
 O    -3.24366    -0.14495    -1.83266
 O    -3.24623    -1.54484    -4.25312
 O    -3.23248    -2.93396    -1.82950
 O     3.86344     1.67080    -6.10674
 O     3.87042    -1.51782    -6.34306
 O     3.88215    -0.12005    -3.46948
 O     6.22727     2.94484    -7.14879
 O     6.24875     1.55058    -4.27226
 O     6.23132     4.73072    -4.49099
 O    -0.87127     0.12536    -3.44841
 O    -0.88660     1.52268    -6.32647
 O    -0.87495    -1.66231    -6.10143
Ti    -0.00849     4.57858     2.66191
Ti     3.02632     4.59181     2.65068
Ti    -4.07629     4.56131     7.96664
Ti     7.08688     9.18944    -0.00147
Ti    -4.73786     3.03257     5.31779
Ti    -1.70437     3.04529     5.30716
Ti     5.39201     7.64999     2.64873
Ti     2.35478     7.64733     2.65958
Ti     4.72461     6.12305     0.00313
Ti     7.76032     6.13394    -0.00939
Ti     0.65630     6.10900     5.30628
Ti    -2.38038     6.10066     5.31933
 O     1.50505     5.98191     3.46133
 O     1.50337     4.58801     1.04324
 O     1.51896     3.18862     3.45945
 O    -5.58913     3.16244     7.16228
 O    -5.58943     4.56225     9.58524
 O    -5.60019     5.95218     7.16284
 O    -3.22468     4.43212     6.12253
 O    -3.22660     3.04298     3.69925
 O    -3.21335     1.63929     6.11361
 O     3.87518     6.25480     1.84724
 O     3.88482     3.06951     1.60939
 O     3.89268     4.46577     4.48785
 O     6.23994     7.52327     0.80396
 O     6.25970     6.12666     3.68090
 O     6.24112     9.31198     3.45988
 O    -0.85828     4.71106     4.50453
 O    -0.88164     6.09923     1.63022
 O    -0.85970     2.91830     1.84887
Ti    -0.02693     4.58048    -2.63617
Ti     3.00952     4.58605    -2.64850
Ti    -4.09878     4.56547     2.66975
Ti     7.06074     9.18351    -5.29136
Ti    -4.76335     3.03741     0.02293
Ti    -1.72618     3.04184     0.01099
Ti     5.36562     7.65113    -2.64284
Ti     2.33131     7.63872    -2.63985
Ti     4.70699     6.12595    -5.29594
Ti     7.74133     6.12562    -5.30322
Ti     0.63229     6.11007     0.01272
Ti    -2.40133     6.09593     0.01968
 O     1.48717     5.97681    -1.82945
 O     1.48591     4.58661    -4.25514
 O     1.49822     3.18862    -1.83817
 O    -5.61338     3.16569     1.86582
 O    -5.60977     4.55766     4.28814
 O    -5.62408     5.95789     1.86638
 O    -3.24758     4.43160     0.82630
 O    -3.25141     3.03681    -1.59537
 O    -3.23723     1.64303     0.82212
 O     3.85253     6.25360    -3.45472
 O     3.86526     3.06230    -3.68845
 O     3.87327     4.46395    -0.81000
 O     6.22025     7.51827    -4.48479
 O     6.23692     6.12682    -1.61649
 O     6.21840     9.31555    -1.83720
 O    -0.87976     4.70868    -0.79377
 O    -0.89638     6.10394    -3.66658
 O    -0.88198     2.92008    -3.44632
