   64
 
Ti     0.00000     0.00000     0.00000
 I     2.23943     4.33400    -0.01399
 I    -1.87851     1.48451    -1.97846
 I     2.00817     0.94807    -2.23237
 I    -2.38000    -1.84527     0.17634
 I     2.26716     0.88561     1.96945
 I    -1.63601     1.58255     2.16978
Ti     4.16181     2.00495    -0.28738
Ti     7.90088    -0.90079    -0.63463
 I    10.13478     3.39433    -0.66978
 I     6.00771     0.66403    -2.49957
 I     9.93638     0.01842    -2.90374
 I     5.52206    -2.70493    -0.37080
 I    10.17114    -0.14706     1.34615
 I     6.27503     0.70208     1.57558
Ti    12.03909     1.03778    -0.86100
Ti     1.27909    -3.62582    -5.84182
 I     3.57156     0.71709    -5.95310
 I    -0.60789    -2.08711    -7.77110
 I     3.26078    -2.61681    -8.05403
 I    -1.05621    -5.53040    -5.81100
 I     3.53977    -2.80575    -3.85610
 I    -0.36947    -2.08717    -3.63788
Ti     5.45902    -1.60987    -6.08359
Ti     9.19863    -4.51076    -6.44014
 I    11.43927    -0.22382    -6.67024
 I     7.28722    -2.88439    -8.26111
 I    11.17649    -3.58672    -8.70383
 I     6.82241    -6.34071    -6.33403
 I    11.47764    -3.77935    -4.46268
 I     7.55291    -2.94698    -4.20483
Ti    13.33056    -2.57123    -6.68526
Ti     0.66043     6.89336     0.10752
 I     2.96319    11.32317     0.08934
 I    -1.22341     8.39824    -1.84600
 I     2.69904     7.87131    -2.06069
 I    -1.68878     5.03194     0.20016
 I     2.91999     7.84675     2.04544
 I    -0.98517     8.48915     2.25477
Ti     4.87520     8.98644    -0.17112
Ti     8.57664     5.98700    -0.52544
 I    10.86516    10.40848    -0.58036
 I     6.66705     7.55244    -2.39592
 I    10.62273     6.95476    -2.72670
 I     6.19716     4.18998    -0.33043
 I    10.85550     6.82301     1.40457
 I     6.93760     7.60555     1.66949
Ti    12.76487     8.06633    -0.74336
Ti     1.98189     3.24811    -5.70475
 I     4.26282     7.70110    -5.83324
 I     0.11018     4.81253    -7.60085
 I     4.00089     4.29533    -7.85617
 I    -0.33000     1.35555    -5.73618
 I     4.21615     4.14067    -3.75320
 I     0.29933     4.77794    -3.54291
Ti     6.18350     5.35772    -5.93386
Ti     9.91294     2.35208    -6.31332
 I    12.14337     6.77958    -6.55473
 I     8.02236     4.02102    -8.10008
 I    11.93144     3.30708    -8.52708
 I     7.51327     0.57015    -6.25765
 I    12.15074     3.18264    -4.36948
 I     8.21914     3.91677    -4.09093
Ti    14.05369     4.42666    -6.54503
