  372
 
Ru     0.00000     0.00000     0.00000
 H    -7.12687    -5.66069    -6.38054
 H    -6.53718    -3.99154    -6.39861
 C    -6.98772    -6.24396    -3.32634
 H    -7.26777    -6.26086    -2.22386
 H    -7.59564    -7.09775    -3.76292
 C    -6.06312    -3.64127    -3.30830
 H    -6.00954    -2.58209    -3.71550
 H    -6.27868    -3.49694    -2.19860
 C    -5.16659    -6.70399    -4.84902
 H    -5.81052    -7.44242    -5.39823
 H    -4.12598    -7.12623    -4.89227
 C    -4.35891    -4.45428    -4.92559
 H    -4.38749    -3.44766    -5.43903
 H    -3.28660    -4.79318    -4.97741
 C    -4.70728    -5.67097    -2.76877
 H    -3.65195    -6.06147    -2.79476
 H    -4.98886    -5.56428    -1.68399
 C    -3.68703    -3.42444    -2.75053
 H    -3.53978    -2.47239    -3.28517
 H    -2.71353    -3.94806    -2.71831
 H    -3.97887    -3.21229    -1.71002
 C    -8.02925    -1.68441    -6.06309
 H    -7.15311    -1.47263    -5.37807
 H    -7.65395    -2.50976    -6.73893
 C   -10.87722     0.37875    -6.58881
 H   -10.88865     1.28016    -7.26355
 H   -11.92312     0.27179    -6.18945
 C    -9.11554    -0.70553    -7.95980
 H    -8.86309    -1.62351    -8.56015
 H    -9.09935     0.15254    -8.68204
 C    -8.57826     0.67659    -6.09884
 H    -8.51319     1.60006    -6.73970
 H    -7.82946     0.84493    -5.27865
 C   -10.69291    -2.09980    -6.62283
 H   -10.49095    -2.98244    -7.31217
 H   -11.78203    -2.22545    -6.34259
 C    -9.96037    -0.45924    -4.50146
 H   -10.95948    -0.38514    -3.97925
 H    -9.22445    -0.13782    -3.70003
 C   -11.48873    -0.92185    -8.61625
 H   -11.35336    -1.86899    -9.17951
 H   -11.31143    -0.09618    -9.32962
 H   -12.54923    -0.87488    -8.30813
 C   -12.76196    -2.09142    -2.91140
 H   -12.20330    -1.43362    -2.16573
 H   -12.81258    -1.43483    -3.83909
 C   -12.34260    -4.55905    -1.62249
 H   -12.08702    -5.65847    -1.64699
 H   -11.75347    -4.17118    -0.73728
 C   -13.21631    -4.44999    -4.23050
 H   -13.24583    -4.00655    -5.27806
 H   -13.01553    -5.55576    -4.41875
 C   -14.64018    -5.02445    -2.28037
 H   -15.70010    -5.01770    -1.89892
 H   -14.38616    -6.11633    -2.39732
 C   -14.97060    -2.88448    -3.38558
 H   -14.94458    -2.31979    -4.35896
 H   -16.03727    -2.84112    -3.03132
 C   -14.17082    -2.99869    -1.13547
 H   -13.52539    -2.49312    -0.36571
 H   -15.21292    -2.94814    -0.72448
 C   -15.64173    -4.97181    -4.49554
 H   -15.36528    -6.00291    -4.77001
 H   -15.79573    -4.40023    -5.42736
 H   -16.62166    -5.02846    -3.98264
 N    -5.19478    -5.40109    -5.55565
 N    -4.72424    -4.28743    -3.44649
 N    -5.57841    -6.57889    -3.45851
 N    -8.20936    -0.48097    -6.89284
 N    -9.93613     0.56994    -5.55411
 N   -10.57169    -0.85117    -7.45154
 N   -14.12183    -2.24922    -2.40793
 N   -14.59951    -4.33188    -3.62508
 N   -13.78298    -4.40267    -1.29800
 P    -7.42056    -4.60953    -4.11459
 P    -9.57967    -2.14800    -5.14783
 P   -11.90430    -3.69742    -3.21312
Ru    -9.66310    -3.95333    -3.84078
 I    -9.09228    -2.44448    -1.65943
 I   -10.21976    -5.61545    -5.90472
 O    -9.77958    -5.72168    -2.50784
 H   -10.03223    -6.64517    -2.69156
 H    -9.34438    -5.72124    -1.62354
 C    -6.58338    -4.90778    -5.72783
 C     3.07326    -1.85260    -1.04377
 H     2.53075    -2.45234    -1.84031
 H     3.10514    -2.57913    -0.17075
 C     2.69932     0.63030    -2.23286
 H     2.42787     1.73376    -2.18568
 H     2.09580     0.24990    -3.11624
 C     3.60136     0.48105     0.37353
 H     3.64257     0.00908     1.40615
 H     3.39435     1.58144     0.58513
 C     4.51177    -0.87786    -2.77107
 H     3.86985    -1.37514    -3.54682
 H     5.55595    -0.90453    -3.18685
 C     5.29928    -1.09824    -0.52301
 H     5.25808    -1.67189     0.44990
 H     6.37402    -1.13894    -0.85654
 C     4.97918     1.13191    -1.60815
 H     6.03762     1.11972    -1.99072
 H     4.70557     2.21035    -1.43697
 C     5.97996     1.00382     0.64356
 H     6.09925     0.42186     1.57129
 H     6.96235     1.04057     0.13848
 H     5.70382     2.03865     0.90131
 C     1.59580    -2.37107     2.14186
 H     2.47515    -1.70735     2.40338
 H     1.97410    -2.99766     1.27990
 C    -1.27322    -2.99727     4.14552
 H    -1.29829    -3.72584     5.00381
 H    -2.31532    -2.58315     4.05497
 C     0.48555    -4.31458     2.99382
 H     0.74086    -4.85856     2.04312
 H     0.48869    -5.08773     3.80656
 C     1.02599    -2.54640     4.49167
 H     1.07809    -3.24267     5.37486
 H     1.78007    -1.74429     4.71589
 C    -1.06873    -2.88183     1.67046
 H    -0.86646    -3.51778     0.74801
 H    -2.15430    -2.58492     1.55297
 C    -0.33207    -0.87062     3.44446
 H    -1.32721    -0.34459     3.54184
 H     0.40771    -0.09723     3.82126
 C    -1.88997    -4.93596     2.71823
 H    -1.76243    -5.43186     1.73276
 H    -1.71788    -5.70610     3.49210
 H    -2.94849    -4.62418     2.78759
 C    -3.10634     0.83993     1.88912
 H    -2.54804     1.53929     2.59610
 H    -3.17101    -0.12552     2.48726
 C    -2.65589     2.27442    -0.49064
 H    -2.39071     2.31479    -1.58730
 H    -2.06300     3.12862    -0.04322
 C    -3.55182    -0.32767    -0.54866
 H    -3.59404    -1.40076    -0.17189
 H    -3.34279    -0.44986    -1.66296
 C    -4.95464     1.66626    -1.01424
 H    -6.01120     2.05587    -0.99242
 H    -4.69243     1.61325    -2.10932
 C    -5.31279     0.43445     1.05053
 H    -5.29931    -0.57183     1.55470
 H    -6.37684     0.79457     1.10782
 C    -4.49357     2.68097     1.08160
 H    -3.84710     3.41301     1.63908
 H    -5.53265     3.09705     1.14844
 C    -5.97470    -0.53918    -1.10556
 H    -5.69195    -0.75099    -2.15020
 H    -6.13991    -1.50412    -0.59526
 H    -6.95021    -0.01639    -1.13848
 N     4.46656    -1.66191    -1.51345
 N     4.94464     0.37100    -0.26889
 N     4.11036     0.50661    -2.56371
 N     1.39843    -3.27128     3.29072
 N    -0.32640    -1.98437     4.40747
 N    -0.96507    -3.78571     2.86767
 N    -4.46151     1.36467     1.75212
 N    -4.93100     0.28140    -0.40501
 N    -4.09388     2.60119    -0.32654
 P     2.24584    -0.25266    -0.65336
 P     0.05801    -1.41578     1.72246
 P    -2.23823     0.62963     0.27479
 I     0.57540     2.07924     1.64350
 I    -0.55906    -1.95348    -1.78989
 O    -0.09018     1.43958    -1.68429
 H    -0.34572     1.30775    -2.61573
 H     0.35033     2.31866    -1.63027
 C    -4.17858     1.92156    -8.32748
 H    -3.63448     2.67392    -7.67483
 H    -4.22544     1.00499    -7.65704
 C    -3.77324     3.25768   -10.72903
 H    -3.49293     3.27600   -11.83148
 H    -3.16596     4.11179   -10.29195
 C    -4.69794     0.65431   -10.74779
 H    -4.75210    -0.40492   -10.34065
 H    -4.48263     0.51062   -11.85781
 C    -5.59437     3.71770    -9.20635
 H    -4.95043     4.45654    -8.65803
 H    -6.63513     4.13975    -9.16398
 C    -6.40205     1.46799    -9.12978
 H    -6.37402     0.46122    -8.61668
 H    -7.47463     1.80659    -9.07845
 C    -6.05477     2.68407   -11.28726
 H    -7.11009     3.07454   -11.25962
 H    -5.77450     2.57823   -12.37228
 C    -7.07403     0.43747   -11.30556
 H    -7.21963    -0.51591   -10.77242
 H    -8.04848     0.96003   -11.33409
 H    -6.78460     0.22901   -12.34726
 C    -2.73181    -1.30255    -7.99300
 H    -3.60854    -1.51539    -8.67745
 H    -3.10877    -0.47794    -7.31714
 C     0.11517    -3.36565    -7.46722
 H     0.12593    -4.26690    -6.79178
 H     1.16185    -3.25991    -7.86561
 C    -1.64642    -2.28068    -6.09550
 H    -1.89874    -1.36294    -5.49567
 H    -1.66236    -3.14004    -5.37453
 C    -2.18270    -3.66288    -7.95653
 H    -2.24785    -4.58689    -7.31583
 H    -2.93233    -3.83244    -8.77605
 C    -0.06805    -0.88648    -7.43254
 H    -0.26930    -0.00416    -6.74243
 H     1.02092    -0.76118    -7.71312
 C    -0.80168    -2.52766    -9.55458
 H     0.19706    -2.60195   -10.07729
 H    -1.53823    -2.85008   -10.35510
 C     0.72668    -2.06505    -5.43978
 H     0.59357    -1.11747    -4.87680
 H     0.54822    -2.89035    -4.72596
 H     1.78766    -2.11439    -5.74651
 C     2.00001    -0.89480   -11.14391
 H     1.44173    -1.55244   -11.88974
 H     2.05160    -1.55119   -10.21620
 C     1.58055     1.57215   -12.43355
 H     1.32510     2.67164   -12.41033
 H     0.99172     1.18408   -13.31892
 C     2.45525     1.46303    -9.82560
 H     2.48480     1.01949    -8.77794
 H     2.25425     2.56912    -9.63703
 C     3.87913     2.03748   -11.77572
 H     4.93890     2.02946   -12.15753
 H     3.62545     3.12941   -11.65905
 C     4.20963    -0.10181   -10.66979
 H     4.18405    -0.66716    -9.69679
 H     5.27623    -0.14474   -11.02461
 C     3.40977     0.01173   -12.92063
 H     2.76476    -0.49371   -13.69067
 H     4.45201    -0.03756   -13.33130
 C     4.88067     1.98485    -9.56056
 H     4.60150     3.01375    -9.28088
 H     5.04022     1.40892    -8.63230
 H     5.85841     2.04676   -10.07720
 N    -5.56619     2.41481    -8.49972
 N    -6.03681     1.30047   -10.60961
 N    -5.18264     3.59193   -10.59759
 N    -2.55169    -2.50600    -7.16325
 N    -0.82492    -3.55690    -8.50198
 N    -0.18936    -2.13579    -6.60455
 N     3.36077    -0.73775   -11.64817
 N     3.83746     1.34498   -10.43095
 N     3.02093     1.41577   -12.75803
 P    -3.34050     1.62256    -9.94151
 P    -1.18238    -0.83890    -8.90820
 P     1.14234     0.71120   -10.84219
Ru    -1.09886     0.96712   -10.21452
 I    -1.66868    -0.54180   -12.39594
 I    -0.54129     2.62848    -8.15137
 O    -0.98238     2.73547   -11.54747
 H    -0.72862     3.65854   -11.36167
 H    -1.41798     2.73619   -12.43144
 C   -12.58430     8.22790    -3.04746
 H   -12.04199     8.82743    -2.25095
 H   -12.61731     8.95410    -3.92069
 C   -12.21135     5.74507    -1.85832
 H   -11.93990     4.64162    -1.90442
 H   -11.60752     6.12575    -0.97507
 C   -13.11348     5.89363    -4.46543
 H   -13.15501     6.36566    -5.49803
 H   -12.90661     4.79303    -4.67645
 C   -14.02390     7.25254    -1.32083
 H   -13.38301     7.75009    -0.54422
 H   -15.06828     7.27811    -0.90548
 C   -14.81032     7.47354    -3.56822
 H   -14.76957     8.04695    -4.54142
 H   -15.88569     7.51401    -3.23582
 C   -14.49121     5.24346    -2.48302
 H   -15.54978     5.25699    -2.10047
 H   -14.21939     4.16464    -2.65338
 C   -15.49109     5.37080    -4.73552
 H   -15.60691     5.94989    -5.66554
 H   -16.47492     5.33952    -4.23223
 H   -15.21834     4.33378    -4.98709
 C   -11.10783     8.74643    -6.23303
 H   -11.98787     8.08354    -6.49437
 H   -11.48569     9.37352    -5.37149
 C    -8.23781     9.37257    -8.23675
 H    -8.21331    10.10139    -9.09499
 H    -7.19546     8.95912    -8.14630
 C    -9.99758    10.68995    -7.08500
 H   -10.25342    11.23391    -6.13492
 H   -10.00055    11.46172    -7.89943
 C   -10.53703     8.92169    -8.58291
 H   -10.58897     9.61827    -9.46638
 H   -11.29168     8.12029    -8.80845
 C    -8.44240     9.25645    -5.76242
 H    -8.64370     9.89246    -4.83945
 H    -7.35668     8.95971    -5.64581
 C    -9.17906     7.24524    -7.53642
 H    -8.18414     6.71904    -7.63455
 H    -9.91907     6.47229    -7.91387
 C    -7.62116    11.31058    -6.81019
 H    -7.74635    11.80734    -5.82500
 H    -7.79342    12.08041    -7.58459
 H    -6.56261    10.99871    -6.88119
 C    -6.40479     5.53469    -5.98108
 H    -6.96323     4.83542    -6.68809
 H    -6.33995     6.50034    -6.57908
 C    -6.85614     4.10094    -3.60053
 H    -7.12035     4.06059    -2.50360
 H    -7.44800     3.24571    -4.04716
 C    -5.96030     6.70235    -3.54324
 H    -5.91784     7.77561    -3.91939
 H    -6.16950     6.82371    -2.42848
 C    -4.55649     4.70836    -3.07772
 H    -3.49959     4.31921    -3.10009
 H    -4.81825     4.76153    -1.98244
 C    -4.19834     5.94016    -5.14249
 H    -4.21065     6.94620    -5.64701
 H    -3.13474     5.57866    -5.19893
 C    -5.01755     3.69364    -5.17356
 H    -5.66402     2.96100    -5.72994
 H    -3.97829     3.27807    -5.23972
 C    -3.53733     6.91455    -2.98561
 H    -3.82385     7.13143    -1.94314
 H    -3.36684     7.87610    -3.50045
 H    -2.56385     6.38817    -2.94711
 N   -13.97859     8.03728    -2.57773
 N   -14.45567     6.00429    -3.82234
 N   -13.62140     5.86869    -1.52753
 N   -10.91056     9.64596    -7.38262
 N    -9.18473     8.35898    -8.49943
 N    -8.54696    10.16108    -6.95884
 N    -5.05061     5.01001    -5.84402
 N    -4.58112     6.09329    -3.68689
 N    -5.41716     3.77411    -3.76470
 P   -11.75697     6.62727    -3.43860
 P    -9.56914     7.79039    -5.81442
 P    -7.27389     5.74505    -4.36669
Ru    -9.51203     6.37537    -4.09117
 I   -10.08753     4.29544    -5.73540
 I    -8.95198     8.32878    -2.30134
 O    -9.42185     4.93579    -2.40688
 H    -9.15588     5.07016    -1.47826
 H    -9.86321     4.05726    -2.45690
 I    -8.99017     1.72846     0.16104
 I    -0.59383    -5.72149    -4.04335
 I    -0.52087     4.64684    -4.25228
 I   -10.16822     2.73459   -10.01269
 I     3.26788    -4.46840    -9.37703
 I    -5.18338    -3.70597     1.11597
 I     4.04358    -0.41995    -6.54308
 I    -4.41968    -1.13114     5.33732
 I    -5.00474     6.40101     0.64469
 I     3.35471    -5.55858     0.68324
 I    -4.50638    -0.02639    -4.73665
 I     5.11575    -1.17998     3.90599
 O    -8.45816     5.32132     0.19501
 H    -8.65049     4.55053     0.74222
 H    -7.50749     5.28422     0.04738
 O    -0.09275    -5.91131    -0.45019
 H     0.82211    -6.15995    -0.28895
 H    -0.06100    -5.33769    -1.22476
 O    -1.05297     1.05329    -4.28697
 H    -0.93976     1.83288    -4.84331
 H    -1.99742     1.01492    -4.10676
 O   -10.76014    -8.28669    -3.05993
 H   -11.66203    -8.02986    -3.27251
 H   -10.83781    -8.85043    -2.28152
 O    -8.43044    -5.62961    -0.14017
 H    -8.02320    -4.76739     0.02809
 H    -9.02488    -5.75138     0.60659
 O     1.27744     3.78535    -1.43636
 H     1.70537     3.87460    -0.57261
 H     0.68029     4.53886    -1.47284
 O    -2.42255    -8.56907    -3.37067
 H    -2.83493    -9.43004    -3.53208
 H    -1.83043    -8.45539    -4.12042
 O   -10.78857     2.58927    -2.65560
 H   -11.23987     2.51074    -3.50887
 H   -10.17241     1.84972    -2.65723
