  224
 
Cl     0.00000     0.00000     0.00000
 F    -4.51464    -4.02506     0.21124
 F    -4.45088    -0.58447     0.62586
 N    -4.70090    -2.14092    -1.56681
 N    -6.66096    -2.30934     0.60536
 N    -4.54646    -2.54118     2.34389
 N    -2.38301    -2.25664     0.26600
 C    -6.16442    -1.84427    -1.76588
 C    -7.01745    -2.68703    -0.80203
 C    -1.72776    -2.21204     2.63599
 C    -1.61124    -2.93478     1.36573
 H    -4.45832    -2.99516    -2.08939
 H    -4.14564    -1.40140    -2.02025
 H    -7.01964    -1.35480     0.80290
 H    -7.13145    -2.92768     1.28658
 H    -6.35580    -0.75950    -1.57288
 H    -6.47905    -2.02921    -2.81692
 H    -8.09621    -2.47408    -1.00759
 H    -6.86168    -3.77715    -0.95311
 H    -3.83824    -2.96603     2.94777
 H    -5.35752    -2.37366     2.94969
 H    -2.00736    -1.29358     0.15084
 H    -2.17176    -2.74537    -0.63380
 H    -2.05140    -1.19412     2.66528
 H    -1.47913    -2.70396     3.55415
 H    -0.52185    -3.00007     1.08919
 H    -1.96039    -3.99515     1.45020
Cr    -4.50886    -2.32543     0.59609
Cr    -4.86630    -3.59026    -6.11194
 F    -4.36083    -3.62030    -7.81691
 F    -5.40587    -3.53512    -4.41086
 N    -4.07972    -5.56395    -5.99306
 N    -2.95521    -2.90979    -5.45877
 N    -5.68980    -1.63554    -6.30775
 N    -6.76717    -4.32328    -6.68461
 C    -2.76146    -5.38675    -5.29814
 C    -2.07859    -4.08908    -5.78210
 C    -7.17498    -1.87920    -6.34574
 C    -7.47236    -3.11218    -7.22694
 H    -3.95648    -6.05328    -6.90191
 H    -4.68963    -6.19128    -5.45264
 H    -2.90956    -2.71666    -4.44144
 H    -2.61333    -2.05381    -5.92910
 H    -2.91801    -5.34320    -4.19336
 H    -2.09212    -6.25868    -5.47025
 H    -1.09038    -4.00294    -5.26821
 H    -1.88229    -4.11974    -6.87799
 H    -5.38341    -1.18867    -7.17633
 H    -5.45827    -0.96326    -5.56234
 H    -7.31799    -4.72572    -5.90160
 H    -6.73291    -5.06785    -7.40518
 H    -7.54719    -2.04084    -5.30733
 H    -7.71976    -0.99755    -6.76328
 H    -8.57254    -3.28735    -7.26594
 H    -7.14934    -2.92139    -8.27770
Cr     2.76297    -1.34712    -3.10410
 F     2.81328     0.31971    -2.60146
 F     2.71277    -3.08659    -3.26492
 N     2.94930    -1.69603    -0.95979
 N     4.90157    -1.37575    -3.12268
 N     2.71924    -1.02819    -4.82997
 N     0.64096    -1.48801    -2.73019
 C     4.40821    -2.01903    -0.77599
 C     5.27768    -1.12944    -1.69075
 C    -0.14386    -1.60122    -5.06263
 C    -0.21689    -0.86007    -3.79941
 H     2.69201    -0.89864    -0.35087
 H     2.38131    -2.47316    -0.59843
 H     5.26399    -2.29946    -3.42284
 H     5.33339    -0.67547    -3.75284
 H     4.57799    -3.09639    -1.01539
 H     4.71708    -1.88864     0.28652
 H     6.35232    -1.38357    -1.51851
 H     5.14999    -0.05109    -1.44579
 H     1.94579    -0.61932    -5.36413
 H     3.48723    -1.15726    -5.49628
 H     0.30804    -2.46067    -2.58665
 H     0.44626    -0.99650    -1.82883
 H     0.24084    -2.59683    -5.09799
 H    -0.49599    -1.14859    -5.96631
 H    -1.28963    -0.82992    -3.46179
 H     0.08618     0.21044    -3.92543
Cr     3.02879    -0.39969     3.59858
 F     2.51951    -0.23587     5.26940
 F     3.50662    -0.20619     1.92921
 N     2.30206     1.65039     3.51118
 N     1.06288    -0.95026     2.93173
 N     3.39836    -2.11497     3.71541
 N     4.92857     0.45929     4.12277
 C     0.95838     1.52572     2.85111
 C     0.23864     0.24384     3.31127
 C     6.24615    -1.56511     3.62717
 C     5.91113    -0.55488     4.63650
 H     2.19322     2.08576     4.44304
 H     2.88554     2.31141     2.98177
 H     1.04291    -1.06692     1.89881
 H     0.66025    -1.81976     3.31729
 H     1.08887     1.49551     1.74252
 H     0.32126     2.41507     3.04902
 H    -0.76303     0.21111     2.81527
 H     0.06356     0.23459     4.40833
 H     4.22486    -2.58239     4.09844
 H     2.77317    -2.88731     3.43318
 H     5.34066     0.95102     3.30161
 H     4.80485     1.20084     4.83911
 H     5.98639    -1.44312     2.59723
 H     6.76121    -2.45411     3.92629
 H     6.85326    -0.04250     4.97794
 H     5.48452    -1.02650     5.56104
Cl    -8.56456     0.17609    -0.33957
Cl    -1.75722    -3.80168    -2.49090
Cl    -9.25350    -5.79174    -5.26836
Cl    -0.45472     4.08352    -3.61196
 F    -5.12479     0.17249    -3.50340
 F    -5.15379     3.61286    -3.06369
 N    -5.33395     2.07763    -5.26218
 N    -7.31975     1.85495    -3.13870
 N    -5.24237     1.63661    -1.36652
 N    -3.03078     1.98965    -3.36600
 C    -6.77790     2.44868    -5.47243
 C    -7.67698     1.58473    -4.56976
 C    -2.43849     2.25203    -0.98912
 C    -2.26048     1.43643    -2.19467
 H    -5.12720     1.21216    -5.78198
 H    -4.73012     2.78767    -5.69151
 H    -7.69369     2.78210    -2.85822
 H    -7.76955     1.16561    -2.51019
 H    -6.92698     3.52857    -5.22787
 H    -7.07716     2.32454    -6.53736
 H    -8.74510     1.85121    -4.76722
 H    -7.55904     0.50123    -4.78861
 H    -4.50310     1.31410    -0.73757
 H    -6.08447     1.70518    -0.78426
 H    -2.68494     2.94715    -3.55477
 H    -2.78582     1.43477    -4.21658
 H    -2.84099     3.24057    -1.04149
 H    -2.15976     1.85480    -0.03571
 H    -1.16315     1.39106    -2.43991
 H    -2.56879     0.37344    -2.02405
Cr    -5.17222     1.86911    -3.10608
Cr    -5.52402     0.58793    -9.79905
 F    -5.03739     0.53825   -11.51638
 F    -6.07396     0.69476    -8.10584
 N    -4.64266    -1.33008    -9.67167
 N    -3.62845     1.34002    -9.15089
 N    -6.30198     2.55519   -10.02836
 N    -7.45127    -0.08961   -10.34490
 C    -3.30320    -1.11081    -9.02673
 C    -2.69476     0.22273    -9.51144
 C    -7.79394     2.36780   -10.06791
 C    -8.12395     1.12360   -10.91816
 H    -4.52507    -1.82408   -10.58299
 H    -5.20223    -1.98703    -9.11003
 H    -3.58866     1.51803    -8.13057
 H    -3.35820     2.22149    -9.62189
 H    -3.41443    -1.09338    -7.91480
 H    -2.60661    -1.95236    -9.23643
 H    -1.70014     0.35931    -9.02633
 H    -2.53212     0.21390   -10.61368
 H    -5.97997     2.93875   -10.92438
 H    -6.05293     3.26086    -9.32095
 H    -8.01142    -0.45191    -9.54546
 H    -7.44354    -0.85520   -11.04248
 H    -8.17562     2.24884    -9.02766
 H    -8.30007     3.25788   -10.51424
 H    -9.22886     0.97940   -10.95719
 H    -7.78881     1.27760   -11.97044
Cr     1.85360     2.71051    -6.62676
 F     1.84489     4.47558    -6.38178
 F     1.82337     0.95253    -6.89690
 N     2.34028     2.57366    -4.58585
 N     3.98338     2.65321    -6.99047
 N     1.47613     2.98629    -8.71691
 N    -0.25502     2.67816    -6.41185
 C     3.83589     2.38773    -4.54028
 C     4.52245     3.16195    -5.68603
 C     0.02328     2.64862    -8.88839
 C    -0.76816     3.24150    -7.70461
 H     2.07060     3.40336    -4.02820
 H     1.88432     1.78709    -4.10256
 H     4.33638     1.69776    -7.16411
 H     4.32131     3.22423    -7.78347
 H     4.07745     1.29986    -4.63442
 H     4.24907     2.70947    -3.55812
 H     5.62573     3.00346    -5.62205
 H     4.34163     4.25868    -5.60687
 H     1.62761     3.97554    -8.94622
 H     2.06557     2.44765    -9.36444
 H    -0.68701     1.74606    -6.24905
 H    -0.57207     3.27025    -5.61350
 H    -0.09457     1.54104    -8.92055
 H    -0.38207     3.06782    -9.84076
 H    -1.85483     3.02524    -7.82910
 H    -0.67445     4.35370    -7.69694
Cr     2.40912     3.85901    -0.03693
 F     1.96018     4.01586     1.64374
 F     2.85403     4.05545    -1.71434
 N     1.74954     5.93411    -0.14816
 N     0.39642     3.39419    -0.60385
 N     2.74451     2.13127     0.03630
 N     4.31709     4.71588     0.48024
 C     0.39601     5.84651    -0.79423
 C    -0.37204     4.63062    -0.24740
 C     5.60384     2.68186    -0.05037
 C     5.27744     3.66898     0.98473
 H     1.68246     6.42788     0.75696
 H     2.36009     6.52369    -0.73099
 H     0.32708     3.22415    -1.62821
 H    -0.01177     2.55885    -0.14958
 H     0.51748     5.74342    -1.90160
 H    -0.19293     6.77506    -0.64343
 H    -1.39096     4.61245    -0.70199
 H    -0.50920     4.68747     0.85623
 H     3.59203     1.62726     0.30759
 H     2.10090     1.38660    -0.27867
 H     4.77327     5.21423    -0.30949
 H     4.19776     5.43891     1.21641
 H     5.35474     2.84151    -1.07842
 H     6.10297     1.77637     0.22215
 H     6.22874     4.15873     1.33521
 H     4.84599     3.18294     1.89744
Cl    -9.17611     4.40297    -3.93799
Cl    -2.66761     0.48452    -6.16268
Cl    -9.85708    -1.56701    -8.83240
