   64
 
Ge     0.00000     0.00000     0.00000
 I     8.89643     0.01747    -0.45045
Ge     8.04169     2.22584    -0.10198
 C     8.14762     3.18644    -1.77821
 I     5.76340     2.06651     0.59138
 I     9.31534     3.34235     1.52681
 I     1.51841     1.79539     0.03053
 I     0.93427    -1.85066    -1.19180
 C    -0.37803    -0.57135     1.81039
 I    -2.02850     0.66072    -1.06988
 I     3.71112     4.88968    -1.79270
 I     3.45128     8.42216    -0.18558
Ge     4.54091     6.31193    -0.11526
 C     4.25070     5.51818     1.62573
 I     6.89669     6.64158    -0.41781
 I     3.78838    -4.97664     0.57748
 I     3.43307    -1.42957     2.12847
Ge     4.75447    -2.84219     0.75024
 C     4.91711    -2.03522    -1.00036
 I     6.95277    -3.02700     1.69213
 H     7.16636     3.56257    -2.07256
 H     8.52169     2.53422    -2.56727
 H     8.82793     4.03775    -1.67399
 H    -1.43202    -0.42787     2.05014
 H    -0.13286    -1.62642     1.93266
 H     0.22267     0.01187     2.51457
 H     3.50184     4.72294     1.54606
 H     5.17455     5.08886     2.01366
 H     3.88978     6.27157     2.32822
 H     4.24787    -2.53831    -1.70511
 H     5.93958    -2.12057    -1.36738
 H     4.64472    -0.97899    -0.95405
Ge    -0.08298    -3.03487     5.49150
 I     8.73598    -3.09529     5.63717
Ge     7.98861    -0.83943     5.43154
 C     8.46605    -0.15360     3.68632
 I     5.60081    -0.79949     5.62819
 I     8.96307     0.49444     7.09880
 I     1.10009    -1.00772     5.59102
 I     0.88586    -4.47059     3.85400
 C    -0.05743    -3.89950     7.22288
 I    -2.36957    -2.62857     4.91328
 I     2.83052     2.39291     3.89880
 I     3.82252     5.67191     5.70413
Ge     4.33096     3.34465     5.43758
 C     4.16004     2.47289     7.15715
 I     6.57571     3.11755     4.69454
 I     2.82022    -7.41829     6.22822
 I     3.84269    -3.98542     7.69933
Ge     4.50655    -5.78055     6.26201
 C     4.77678    -5.07644     4.47982
 I     6.55787    -6.69515     7.03977
 H     7.56915     0.08425     3.11387
 H     9.05039    -0.88553     3.12831
 H     9.06106     0.75836     3.79302
 H    -1.07547    -4.07892     7.56882
 H     0.46426    -4.85680     7.17676
 H     0.45345    -3.25859     7.94796
 H     3.64075     1.51665     7.03396
 H     5.14683     2.28224     7.58420
 H     3.59015     3.09691     7.84556
 H     4.36080    -5.77666     3.74897
 H     5.84222    -4.94655     4.27955
 H     4.27606    -4.11469     4.36765
