   52
 
Au     0.00000     0.00000     0.00000
Br     2.20296     0.46725     0.11279
Br    -0.36727     2.46362     0.10643
Br     0.53573    -2.18703    -0.13987
 S    -2.17409    -0.70303     0.27240
 C    -3.12210     0.79901     0.57896
 C    -2.65103    -1.28616    -1.37100
Au    -1.74740    -2.72230     4.12544
Br    -3.96865    -3.19236     3.95936
Br    -1.39873    -5.14904     4.05328
Br    -2.31157    -0.54615     4.13498
 S     0.44827    -2.02977     3.89461
 C     1.37604    -3.51656     3.47952
 C     0.99993    -1.55366     5.55048
Au     5.78422    -1.11339     4.46502
Br     6.70085     0.93771     3.48269
Br     4.37543    -1.08527     2.73825
Br     4.69926    -3.02364     5.13636
 S     7.43376    -1.45414     6.05629
 C     8.85040    -0.33970     5.89222
 C     6.53371    -0.91743     7.52410
Au     5.03994     2.94634     4.90190
Br     4.10992     0.92125     5.87020
Br     6.49266     2.96147     6.62068
Br     6.05156     4.85304     4.15521
 S     3.41832     3.21891     3.25824
 C     2.08041     2.02119     3.46371
 C     4.32817     2.68337     1.78813
 H    -2.74439     1.21485     1.55366
 H    -4.20257     0.52336     0.70519
 H    -3.03891     1.55668    -0.23560
 H    -1.79516    -1.84399    -1.82794
 H    -3.53192    -1.96842    -1.26445
 H    -2.91182    -0.40772    -2.00709
 H     2.44491    -3.22805     3.28941
 H     1.35648    -4.27731     4.29580
 H     0.93543    -3.92496     2.52955
 H     2.09613    -1.33068     5.51121
 H     0.81561    -2.37863     6.28273
 H     0.43100    -0.63838     5.84808
 H     9.75644    -0.98668     5.76433
 H     8.97191     0.27670     6.81772
 H     8.74474     0.33688     5.01388
 H     7.19139    -1.06265     8.41057
 H     5.63467    -1.57038     7.63089
 H     6.24340     0.16198     7.47964
 H     2.44632     0.97006     3.38629
 H     1.61260     2.20307     4.46316
 H     1.31768     2.21100     2.66260
 H     5.32954     3.17350     1.80119
 H     4.44484     1.57038     1.75871
 H     3.76814     3.00402     0.87644
