  224
 
Mo     0.00000     0.00000     0.00000
Cl     9.58714     0.00000     0.00000
 O     5.37564     1.76470     0.00000
 C     4.85520     2.86650     0.29558
 N     3.53410     2.98270     0.26287
 N     5.55325     3.90621     0.57202
Cl     7.67653     1.79599     2.28028
Cl     6.41216    -1.11566     0.86631
 O     7.11236     0.25895    -1.98236
 O     8.13761     2.81153    -0.69923
 C     6.18534    -0.27254    -2.63835
 C     8.91351     3.15599    -1.62199
 N     6.43016    -0.69237    -3.87273
 N     4.99018    -0.37376    -2.18443
 N     9.27884     4.42803    -1.71334
 N     9.32303     2.33681    -2.51973
Mo     7.35324     0.96057     0.01955
Cl     2.40215    -0.33523    -0.17512
 O    -2.10897     0.31588     0.10192
 C    -3.05080    -0.14848     0.78713
 N    -4.26226     0.37523     0.65304
 N    -2.90248    -1.15190     1.57187
Cl     0.15251     0.20070     2.41864
Cl     0.26396     2.40253    -0.26747
 O    -0.11356    -0.22839    -2.11964
 O    -0.27870    -2.10011     0.26418
 C    -0.74753     0.32929    -3.04660
 C     0.12583    -3.13589    -0.31521
 N    -0.48048    -0.00790    -4.30153
 N    -1.68854     1.17265    -2.82767
 N    -0.16971    -4.32012     0.20453
 N     0.76575    -3.09875    -1.42598
Mo    -3.05465     1.83968    -7.70291
Cl    -5.43296     2.00578    -8.18186
 O    -0.96345     1.64990    -7.31718
 C    -0.06252     2.40448    -6.88003
 N     1.14584     1.90280    -6.66080
 N    -0.24631     3.65961    -6.69142
Cl    -3.37533     2.83242    -5.50632
Cl    -3.34209    -0.39621    -6.79104
 O    -2.79274     1.01525    -9.65474
 O    -2.75761     3.80969    -8.47022
 C    -2.10694     0.08978   -10.15008
 C    -3.10334     4.42814    -9.50471
 N    -2.28176    -0.22754   -11.42626
 N    -1.19808    -0.52540    -9.48659
 N    -2.82310     5.72097    -9.60453
 N    -3.66654     3.84658   -10.49933
Mo     2.90660    -2.37332    -6.39627
Cl     0.69654    -1.58189    -7.03079
 O     4.86643    -3.05136    -5.88908
 C     5.34598    -3.86293    -5.06229
 N     6.66398    -3.95711    -4.94444
 N     4.61247    -4.65094    -4.36538
Cl     2.41514    -2.01531    -4.04177
Cl     3.82420    -0.13046    -6.59864
 O     3.29584    -2.72453    -8.46583
 O     2.14057    -4.35439    -6.18063
 C     4.27469    -2.56083    -9.23214
 C     1.42348    -5.11618    -6.87174
 N     4.12210    -2.79552   -10.52887
 N     5.43770    -2.23143    -8.80365
 N     1.04284    -6.27963    -6.36048
 N     1.09067    -4.84143    -8.07939
Mo     1.07011    -8.14865    -2.12238
Cl    -1.16378    -7.18809    -2.10283
 O     3.04772    -8.95279    -2.10283
 C     3.56816   -10.05458    -2.39841
 N     4.88926   -10.17079    -2.36570
 N     2.87011   -11.09429    -2.67486
Cl     0.74683    -8.98408    -4.38311
Cl     2.01120    -6.07242    -2.96914
 O     1.31100    -7.44704    -0.12047
 O     0.28575    -9.99961    -1.40361
 C     2.23802    -6.91555     0.53552
 C    -0.49015   -10.34408    -0.48084
 N     1.99320    -6.49572     1.76990
 N     3.43318    -6.81433     0.08160
 N    -0.85548   -11.61612    -0.38950
 N    -0.89967    -9.52490     0.41690
Mo    -4.89114    -3.93564    -3.42902
Cl    -7.29328    -3.60042    -3.25390
 O    -2.78217    -4.25153    -3.53094
 C    -1.84034    -3.78717    -4.21615
 N    -0.62888    -4.31087    -4.08206
 N    -1.98866    -2.78374    -5.00089
Cl    -5.04365    -4.13635    -5.84766
Cl    -5.15510    -6.33817    -3.16155
 O    -4.77758    -3.70726    -1.30938
 O    -4.61243    -1.83554    -3.69320
 C    -4.14360    -4.26494    -0.38242
 C    -5.01697    -0.79976    -3.11382
 N    -4.41066    -3.92774     0.87251
 N    -3.20259    -5.10830    -0.60135
 N    -4.72142     0.38448    -3.63355
 N    -5.65689    -0.83689    -2.00304
Mo    -1.83649    -5.77533     4.27389
Cl     0.54183    -5.94143     4.75284
 O    -3.92768    -5.58554     3.88816
 C    -4.82862    -6.34013     3.45101
 N    -6.03698    -5.83844     3.23178
 N    -4.64483    -7.59525     3.26240
Cl    -1.51581    -6.76806     2.07730
Cl    -1.54904    -3.53943     3.36202
 O    -2.09840    -4.95089     6.22572
 O    -2.13352    -7.74533     5.04120
 C    -2.78420    -4.02542     6.72106
 C    -1.78779    -8.36379     6.07569
 N    -2.60938    -3.70811     7.99724
 N    -3.69306    -3.41024     6.05758
 N    -2.06804    -9.65661     6.17551
 N    -1.22459    -7.78223     7.07031
Mo     5.51676    -4.81476     4.29344
Cl     7.72682    -5.60620     4.92796
 O     3.55693    -4.13673     3.78624
 C     3.07738    -3.32516     2.95946
 N     1.75938    -3.23097     2.84160
 N     3.81089    -2.53714     2.26255
Cl     6.00822    -5.17277     1.93894
Cl     4.59916    -7.05762     4.49581
 O     5.12752    -4.46355     6.36299
 O     6.28279    -2.83370     4.07779
 C     4.14867    -4.62726     7.12931
 C     6.99988    -2.07191     4.76890
 N     4.30126    -4.39257     8.42604
 N     2.98566    -4.95665     6.70081
 N     7.38052    -0.90846     4.25764
 N     7.33269    -2.34666     5.97656
 H     3.28297     3.92887    -0.02366
 H     3.15025     2.31253    -0.40341
 H     5.02059     4.74473     0.34059
 H     6.41619     3.89076     0.02844
 H     5.97743    -0.06797    -4.54024
 H     7.43671    -0.69446    -4.03781
 H     4.45504     0.45350    -2.44838
 H     5.01800    -0.45058    -1.16771
 H     8.47380     4.99470    -1.98017
 H    10.00961     4.52207    -2.41870
 H     8.99295     2.64276    -3.43507
 H    10.34271     2.31132    -2.51708
 H    -4.18179     1.34249     0.33945
 H    -4.79078    -0.16215    -0.03419
 H    -3.66360    -1.16793     2.25072
 H    -2.01149    -1.07160     2.06187
 H    -0.93145     0.65279    -4.93440
 H     0.52822     0.01191    -4.45164
 H    -1.73229     1.84072    -3.59720
 H    -1.50387     1.66947    -1.95620
 H    -1.17422    -4.37654     0.37238
 H     0.10826    -5.05559    -0.44525
 H     0.42265    -2.32133    -1.99015
 H     1.76075    -2.97153    -1.24107
 H     1.84549     2.63435    -6.78621
 H     1.32420     1.14514    -7.32000
 H    -1.03631     3.97590    -7.25379
 H     0.59257     4.17101    -6.96554
 H    -2.84976     0.48807   -11.87979
 H    -1.37486    -0.28588   -11.88944
 H    -0.77590     0.11493    -8.81419
 H    -0.48151    -0.86665   -10.12729
 H    -3.66322     6.23093    -9.87753
 H    -2.09810     5.85830   -10.30874
 H    -4.32198     4.49010   -10.94282
 H    -2.95642     3.56511   -11.17527
 H     7.08858    -3.05111    -5.14258
 H     7.01590    -4.64943    -5.60569
 H     3.68338    -4.24403    -4.25759
 H     5.03414    -4.78391    -3.44619
 H     3.55966    -2.05320   -10.94485
 H     5.03676    -2.82222   -10.97952
 H     5.52639    -1.21531    -8.80809
 H     6.15084    -2.63762    -9.40931
 H     0.03177    -6.27727    -6.22584
 H     1.29897    -7.03206    -6.99973
 H     0.52775    -3.99092    -8.09185
 H     1.93109    -4.70115    -8.64013
 H     5.31527    -9.28414    -2.63546
 H     5.18262   -10.90049    -3.01522
 H     1.96736   -10.80700    -3.05286
 H     3.36290   -11.66104    -3.36504
 H     1.41501    -5.65615     1.73506
 H     2.87426    -6.28262     2.23758
 H     3.53169    -5.93338    -0.42301
 H     4.09474    -6.83747     0.85762
 H    -1.84781   -11.70142    -0.60952
 H    -0.31202   -12.17412    -1.04804
 H    -1.44685    -8.78465    -0.02245
 H    -0.09713    -9.11604     0.89560
 H     0.07256    -3.61200    -4.32694
 H    -0.53638    -5.11666    -4.70057
 H    -2.82838    -2.26776    -4.73815
 H    -1.17628    -2.17139    -4.92703
 H    -4.99849    -3.09423     0.88285
 H    -3.53885    -3.73508     1.36570
 H    -2.74739    -4.88736    -1.48700
 H    -2.51893    -5.05865     0.15400
 H    -5.57441     0.93503    -3.73209
 H    -4.29191     0.25604    -4.54975
 H    -6.33926    -0.07916    -1.97831
 H    -5.00120    -0.72937    -1.22914
 H    -5.95671    -4.84980     2.99400
 H    -6.47804    -6.33898     2.46021
 H    -5.33742    -7.94444     2.59999
 H    -3.70854    -7.74937     2.88823
 H    -3.08777    -2.82986     8.19780
 H    -1.61287    -3.60379     8.18825
 H    -3.75278    -2.44378     6.37816
 H    -3.45842    -3.42534     5.06504
 H    -3.05184    -9.80928     5.95366
 H    -1.48674   -10.18197     5.52245
 H    -1.58143    -6.83037     7.15416
 H    -0.21582    -7.75531     6.92178
 H     1.50844    -2.27672     2.58306
 H     1.43568    -3.87505     2.11995
 H     3.27072    -1.71245     2.00085
 H     4.62153    -2.25227     2.81220
 H     3.81703    -3.52996     8.67469
 H     5.29414    -4.29895     8.64012
 H     2.45775    -4.11519     6.46919
 H     3.08213    -5.53753     5.86794
 H     6.56458    -0.30979     4.13023
 H     7.83179    -1.06451     3.35631
 H     6.94620    -1.64179     6.60441
 H     8.34956    -2.35204     6.05621
