  148
 
 W     0.00000     0.00000     0.00000
 I    -4.90595    -8.27495    -8.59645
 O    -8.49132    -7.18542    -8.59645
 O    -8.33121    -6.37033    -4.69845
 O    -5.07676    -8.72311    -4.97329
 N    -0.76322    -4.83851    -4.47010
 C    -7.60798    -6.90762    -7.94233
 C    -7.49251    -6.37276    -5.47598
 C    -5.46570    -7.88806    -5.64801
 C    -4.08780    -5.13827    -6.34327
 C    -4.29807    -5.01408    -7.74241
 H    -3.65448    -5.29946    -8.45382
 C    -5.55029    -4.38505    -7.97031
 H    -5.92182    -4.11763    -8.85971
 C    -6.11488    -4.07807    -6.70380
 H    -6.93738    -3.53035    -6.54434
 C    -5.21328    -4.54293    -5.70170
 H    -5.30142    -4.37739    -4.71895
 C    -2.87686    -5.68612    -5.63424
 H    -2.50010    -6.44735    -6.14547
 H    -3.13084    -6.01284    -4.73538
 C    -1.83745    -4.57930    -5.51012
 H    -1.40105    -4.45466    -6.39022
 H    -2.29913    -3.73432    -5.28294
 C    -0.15184    -6.19011    -4.64735
 H    -0.81698    -6.87834    -4.43824
 H     0.61628    -6.28287    -4.04637
 H     0.14515    -6.29483    -5.57522
 C     0.30160    -3.79706    -4.65218
 H     0.99147    -3.91189    -3.96537
 H    -0.09664    -2.90584    -4.57014
 H     0.70464    -3.89386    -5.54056
 C    -1.34087    -4.70611    -3.10003
 H    -2.02401    -5.39588    -2.96444
 H    -1.74974    -3.81937    -3.00151
 H    -0.63052    -4.81379    -2.43471
 W    -6.02521    -6.36647    -6.81983
 I    -0.03064     2.55499     1.23274
 O    -0.11780    -0.71415     3.06224
 O    -1.89996    -2.49192    -0.02773
 O    -2.66129     1.33992    -0.99567
 N     0.98368     2.17921    -5.46264
 C    -0.09842    -0.45620     1.95841
 C    -1.20830    -1.58123    -0.01256
 C    -1.71902     0.83327    -0.59659
 C     1.09736     0.57333    -1.98993
 C     2.00799     0.86479    -0.93968
 H     2.39931     1.76538    -0.74459
 C     2.30374    -0.33190    -0.23531
 H     2.96301    -0.42855     0.51076
 C     1.60195    -1.39104    -0.87177
 H     1.70358    -2.36601    -0.67131
 C     0.85848    -0.83175    -1.95184
 H     0.34684    -1.35225    -2.63656
 C     0.55138     1.51684    -3.03098
 H     0.39974     2.41066    -2.63113
 H    -0.31398     1.17865    -3.37305
 C     1.55456     1.62226    -4.17263
 H     2.30448     2.20069    -3.88274
 H     1.92516     0.72223    -4.35367
 C     0.24424     3.45480    -5.22159
 H    -0.56309     3.27014    -4.69795
 H    -0.00690     3.85438    -6.08010
 H     0.81836     4.07652    -4.72767
 C     2.13535     2.45322    -6.38471
 H     1.79487     2.77541    -7.24557
 H     2.64584     1.62861    -6.52267
 H     2.71663     3.13521    -5.98744
 C     0.08469     1.16985    -6.09792
 H    -0.68186     0.99983    -5.51052
 H     0.57836     0.33503    -6.23864
 H    -0.23261     1.51181    -6.95980
 W    -5.44820     3.85816    -2.51575
 I    -6.56746     5.76664    -0.73913
 O    -2.98270     4.67776    -0.73959
 O    -3.14278     3.86327    -4.63680
 O    -6.39665     6.21480    -4.36229
 N   -10.71019     2.33021    -4.86548
 C    -3.86543     4.39931    -1.39325
 C    -3.98090     3.86445    -3.85960
 C    -6.00771     5.37975    -3.68757
 C    -7.38561     2.62996    -2.99230
 C    -7.17591     2.50702    -1.59284
 H    -7.81954     2.79179    -0.88222
 C    -5.92312     1.87674    -1.36527
 H    -5.55159     1.60932    -0.47586
 C    -5.35853     1.56976    -2.63178
 H    -4.53661     1.02329    -2.79090
 C    -6.26074     2.03526    -3.63434
 H    -6.17256     1.87033    -4.61629
 C    -8.59713     3.17906    -3.70100
 H    -8.97331     3.93904    -3.19011
 H    -8.34318     3.50517    -4.60066
 C    -9.63657     2.07163    -3.82592
 H   -10.07297     1.94699    -2.94582
 H    -9.17428     1.22601    -4.05264
 C   -11.32158     3.68180    -4.68823
 H   -10.65704     4.37067    -4.89780
 H   -12.09030     3.77520    -5.28967
 H   -11.61856     3.78652    -3.76036
 C   -11.77562     1.28939    -4.68386
 H   -12.46485     1.40419    -5.36941
 H   -11.37738     0.39817    -4.76590
 H   -12.17866     1.38620    -3.79548
 C   -10.13316     2.19844    -6.23601
 H    -9.44940     2.88757    -6.37114
 H    -9.72425     1.31231    -6.33374
 H   -10.84350     2.30613    -6.90133
 W    -3.46746     2.24372   -13.32299
 I    -3.43686    -0.31187   -14.55651
 O    -3.34970     2.95727   -16.38601
 O    -1.56754     4.73503   -13.29605
 O    -0.80621     0.90320   -12.32811
 N    -4.45118     0.06391    -7.86114
 C    -3.36970     2.69996   -15.28265
 C    -2.25920     3.82435   -13.31122
 C    -1.74848     1.40985   -12.72719
 C    -4.56483     1.67040   -11.33306
 C    -5.47550     1.37832   -12.38410
 H    -5.86739     0.47898   -12.57886
 C    -5.77185     2.57566   -13.08893
 H    -6.43112     2.67231   -13.83500
 C    -5.06945     3.63415   -12.45200
 H    -5.17108     4.60912   -12.65247
 C    -4.32599     3.07486   -11.37194
 H    -3.81495     3.59601   -10.68768
 C    -4.01950     0.72692   -10.29326
 H    -3.86724    -0.16754   -10.69265
 H    -3.15414     1.06511    -9.95119
 C    -5.02267     0.62150    -9.15161
 H    -5.77198     0.04242    -9.44104
 H    -5.39327     1.52153    -8.97057
 C    -3.71174    -1.21168    -8.10219
 H    -2.90503    -1.02638    -8.62629
 H    -3.46060    -1.61127    -7.24368
 H    -4.28586    -1.83340    -8.59611
 C    -5.60285    -0.21010    -6.93907
 H    -5.26237    -0.53229    -6.07821
 H    -6.11334     0.61451    -6.80111
 H    -6.18474    -0.89145    -7.33680
 C    -3.55219     1.07327    -7.22586
 H    -2.78564     1.24329    -7.81326
 H    -4.04647     1.90873    -7.08560
 H    -3.23550     0.73195    -6.36444
 I     1.99627    -5.32987    -1.08803
 I    -8.80373    -1.49943    -5.34447
 I    -4.95551    -6.30833    -2.03330
 I    -2.67026    -1.00764    -3.99078
