   36
 
Pb     0.00000     0.00000     0.00000
Pb     3.10405    -2.00339     0.00000
Pb     1.97580     3.12168     0.00000
Pb    -1.21737    -4.14829    -7.24546
Pb     2.51809     0.55434     2.62390
Pb    -1.15393    -4.33247    -3.53976
Pb    -1.99225    -0.52444    -7.05195
Pb     2.51809     0.55434    -2.62390
Pb    -4.11301    -2.98760    -5.29586
Pb     5.05801     1.11349     0.00000
Pb     0.94500    -1.87412    -5.29586
 O    -3.11790    -2.90061    -3.04902
 O     4.43099    -0.64557     1.59958
 O     3.75027     2.44662    -1.59958
 O    -3.17337    -2.64867    -7.54270
 O     0.62347     1.77514     1.58312
 O     0.46068    -4.28138    -5.42484
 O    -0.50544     0.10722    -5.16687
 O     1.31128    -1.34922    -1.58312
 O     3.92654    -0.34783    -1.20314
 O    -3.08956    -1.03563    -5.22143
 O    -2.36448    -4.32933    -5.37027
 O     3.41749     1.96456     1.20314
 O    -0.45700    -2.10656    -6.98214
 O     1.12733     1.48011    -1.18387
 O     1.64466    -0.86988     1.18388
 O    -0.42500    -2.25191    -3.60957
 H    -3.78798    -2.90808    -2.32250
 H     5.20740    -1.12112     1.98419
 H     4.25520     3.20425    -1.98419
 H    -3.78463    -2.92329    -8.26921
 H    -0.09988     2.00971     2.21447
 H     1.25754    -4.84986    -5.28807
 H    -0.02097     0.95778    -5.30364
 H     0.75330    -1.86587    -2.21447
Pb    -1.97248    -0.71823    -3.34625
