  240
 
 C     0.00000     0.00000     0.00000
 H     0.94986     0.00000     0.00000
 C    -0.67551     1.20575     0.00000
 H    -0.19004     2.02309     0.01804
 C    -2.06956     1.22017    -0.02429
 H    -2.53771     2.04602    -0.02909
 C    -2.76625     0.02874    -0.04083
 H    -3.71601     0.04639    -0.06965
 C    -4.26070    -2.50574     0.08534
 H    -4.73570    -1.68542     0.03931
 C    -4.96416    -3.68250     0.19033
 H    -5.91385    -3.67028     0.21992
 C    -4.27769    -4.89331     0.25146
 H    -4.75775    -5.70752     0.31815
 C    -2.89758    -4.90408     0.21424
 H    -2.44182    -5.73517     0.26151
 C     0.04380    -4.93490     0.13767
 H    -0.43008    -5.75571     0.18826
 C     1.42625    -4.95405     0.10254
 H     1.89264    -5.78182     0.11496
 C     2.12911    -3.75603     0.04693
 H     3.07837    -3.76331     0.02609
 C     1.44906    -2.55765     0.02057
 H     1.94172    -1.74571    -0.01575
 C    -0.68841    -1.22896     0.00172
 C    -2.09845    -1.21699    -0.01454
 C    -2.84785    -2.48508     0.04377
 C    -2.14806    -3.71004     0.10794
 C    -0.67977    -3.72777     0.09932
 C     0.03505    -2.50776     0.04768
 C    -3.84934    -6.57920     5.00782
 H    -4.79808    -6.54157     4.98139
 C    -3.12686    -6.19795     3.89300
 H    -3.57989    -5.91911     3.10493
 C    -1.73321    -6.22628     3.92706
 H    -1.23277    -5.96087     3.16527
 C    -1.08405    -6.64066     5.07164
 H    -0.13393    -6.64604     5.09184
 C     0.30474    -7.67611     7.45324
 H     0.81295    -7.37407     6.71085
 C     0.95783    -8.20087     8.54353
 H     1.90607    -8.26218     8.54842
 C     0.22251    -8.64087     9.64204
 H     0.66787    -8.99891    10.39883
 C    -1.15541    -8.55566     9.62697
 H    -1.64484    -8.86246    10.37904
 C    -4.09242    -8.37759     9.60011
 H    -3.65300    -8.72085    10.36725
 C    -5.47301    -8.29546     9.59099
 H    -5.97201    -8.56958    10.35262
 C    -6.12605    -7.80995     8.46396
 H    -7.07393    -7.75604     8.45205
 C    -5.39859    -7.40660     7.36515
 H    -5.85749    -7.07820     6.60040
 C    -3.21049    -7.02476     6.18241
 C    -1.80115    -7.06046     6.21534
 C    -1.10451    -7.57488     7.40919
 C    -1.85376    -8.02118     8.51903
 C    -3.32080    -7.96091     8.49777
 C    -3.98503    -7.47204     7.34897
 C     4.84371    -5.85504     9.03612
 H     5.03445    -5.34301     9.81308
 C     5.35805    -7.13315     8.92633
 H     5.91089    -7.48436     9.61558
 C     5.06605    -7.90367     7.80150
 H     5.41331    -8.78379     7.72395
 C     4.27034    -7.38301     6.80202
 H     4.06559    -7.91814     6.04380
 C     2.70721    -6.22114     4.59304
 H     3.01639    -7.11590     4.52611
 C     2.01748    -5.66981     3.53903
 H     1.85758    -6.18016     2.75359
 C     1.55263    -4.35952     3.62885
 H     1.07189    -3.97583     2.90709
 C     1.79353    -3.62024     4.76971
 H     1.47568    -2.72804     4.81696
 C     2.30491    -2.03940     7.19827
 H     1.80864    -1.65491     6.48742
 C     2.54343    -1.29337     8.33819
 H     2.20105    -0.40912     8.40964
 C     3.28490    -1.84300     9.37766
 H     3.45456    -1.33260    10.16011
 C     3.77278    -3.12764     9.27312
 H     4.27969    -3.49086     9.99033
 C     4.04442    -5.29313     8.02039
 C     3.75441    -6.06910     6.87918
 C     2.96807    -5.48963     5.77414
 C     2.50072    -4.16113     5.86890
 C     2.77895    -3.35935     7.06724
 C     3.53793    -3.91694     8.12223
 C     1.28518     1.31520     4.55581
 H     1.09334     0.76554     3.80528
 C     0.72387     1.00631     5.78042
 H     0.13859     0.26135     5.86120
 C     1.01628     1.79074     6.89548
 H     0.63672     1.57959     7.73961
 C     1.85952     2.87590     6.76692
 H     2.06390     3.39876     7.53376
 C     3.52830     5.28397     6.46812
 H     3.18591     5.05637     7.32347
 C     4.26839     6.43416     6.32686
 H     4.42975     6.99359     7.07782
 C     4.78211     6.77467     5.07739
 H     5.29754     7.56323     4.97568
 C     4.53901     5.96095     3.98882
 H     4.89054     6.20665     3.14223
 C     4.02327     4.23285     1.66370
 H     4.55399     5.01244     1.55682
 C     3.78289     3.42384     0.56803
 H     4.15789     3.64149    -0.27748
 C     2.99160     2.28994     0.71119
 H     2.82056     1.73291    -0.03850
 C     2.45631     1.97285     1.94090
 H     1.91565     1.19572     2.02475
 C     2.13403     2.42782     4.39522
 C     2.42475     3.22752     5.51977
 C     3.26384     4.43057     5.37264
 C     3.78066     4.77332     4.10387
 C     3.50118     3.92900     2.93542
 C     2.69161     2.77769     3.08087
 C     3.33524    -2.41852    -3.30233
 H     4.28510    -2.41852    -3.30233
 C     2.65973    -1.21277    -3.30233
 H     3.14521    -0.39543    -3.28430
 C     1.26568    -1.19835    -3.32663
 H     0.79753    -0.37250    -3.33142
 C     0.56899    -2.38978    -3.34317
 H    -0.38077    -2.37213    -3.37199
 C    -0.92546    -4.92426    -3.21699
 H    -1.40046    -4.10394    -3.26302
 C    -1.62892    -6.10102    -3.11201
 H    -2.57861    -6.08880    -3.08242
 C    -0.94245    -7.31183    -3.05087
 H    -1.42251    -8.12604    -2.98419
 C     0.43767    -7.32260    -3.08810
 H     0.89342    -8.15369    -3.04082
 C     3.37904    -7.35342    -3.16467
 H     2.90516    -8.17423    -3.11408
 C     4.76149    -7.37257    -3.19980
 H     5.22788    -8.20034    -3.18737
 C     5.46435    -6.17455    -3.25540
 H     6.41361    -6.18184    -3.27625
 C     4.78430    -4.97617    -3.28176
 H     5.27696    -4.16423    -3.31808
 C     2.64683    -3.64748    -3.30061
 C     1.23679    -3.63551    -3.31688
 C     0.48739    -4.90360    -3.25856
 C     1.18718    -6.12856    -3.19439
 C     2.65547    -6.14629    -3.20302
 C     3.37029    -4.92628    -3.25466
 C    -0.51410    -8.99772     1.70549
 H    -1.46284    -8.96009     1.67906
 C     0.20838    -8.61647     0.59066
 H    -0.24464    -8.33763    -0.19741
 C     1.60203    -8.64480     0.62473
 H     2.10247    -8.37939    -0.13707
 C     2.25119    -9.05918     1.76931
 H     3.20131    -9.06456     1.78950
 C     3.63998   -10.09463     4.15090
 H     4.14819    -9.79259     3.40851
 C     4.29307   -10.61939     5.24119
 H     5.24131   -10.68070     5.24608
 C     3.55775   -11.05939     6.33971
 H     4.00311   -11.41743     7.09650
 C     2.17983   -10.97418     6.32464
 H     1.69040   -11.28098     7.07670
 C    -0.75718   -10.79611     6.29777
 H    -0.31776   -11.13937     7.06491
 C    -2.13777   -10.71398     6.28865
 H    -2.63677   -10.98810     7.05029
 C    -2.79081   -10.22847     5.16162
 H    -3.73869   -10.17456     5.14971
 C    -2.06335    -9.82512     4.06282
 H    -2.52225    -9.49672     3.29807
 C     0.12475    -9.44328     2.88007
 C     1.53409    -9.47898     2.91300
 C     2.23073    -9.99340     4.10685
 C     1.48148   -10.43970     5.21670
 C     0.01444   -10.37943     5.19544
 C    -0.64979    -9.89056     4.04663
 C     8.17895    -8.27356     5.73378
 H     8.36969    -7.76153     6.51074
 C     8.69329    -9.55167     5.62399
 H     9.24613    -9.90288     6.31324
 C     8.40129   -10.32219     4.49916
 H     8.74855   -11.20231     4.42161
 C     7.60558    -9.80153     3.49969
 H     7.40083   -10.33666     2.74147
 C     6.04245    -8.63966     1.29071
 H     6.35163    -9.53442     1.22378
 C     5.35272    -8.08834     0.23669
 H     5.19282    -8.59868    -0.54875
 C     4.88787    -6.77804     0.32652
 H     4.40713    -6.39435    -0.39525
 C     5.12877    -6.03876     1.46738
 H     4.81092    -5.14657     1.51463
 C     5.64015    -4.45792     3.89594
 H     5.14388    -4.07343     3.18509
 C     5.87867    -3.71189     5.03585
 H     5.53629    -2.82764     5.10731
 C     6.62014    -4.26152     6.07532
 H     6.78980    -3.75112     6.85778
 C     7.10802    -5.54617     5.97078
 H     7.61493    -5.90938     6.68800
 C     7.37966    -7.71165     4.71806
 C     7.08965    -8.48762     3.57685
 C     6.30331    -7.90815     2.47181
 C     5.83596    -6.57965     2.56656
 C     6.11419    -5.77787     3.76490
 C     6.87317    -6.33546     4.81989
 C     4.62042    -1.10332     1.25347
 H     4.42858    -1.65298     0.50295
 C     4.05911    -1.41221     2.47809
 H     3.47383    -2.15717     2.55887
 C     4.35153    -0.62778     3.59315
 H     3.97196    -0.83893     4.43728
 C     5.19476     0.45738     3.46458
 H     5.39914     0.98024     4.23142
 C     6.86354     2.86545     3.16578
 H     6.52115     2.63785     4.02113
 C     7.60364     4.01564     3.02452
 H     7.76499     4.57507     3.77548
 C     8.11735     4.35615     1.77505
 H     8.63278     5.14471     1.67334
 C     7.87425     3.54243     0.68649
 H     8.22578     3.78813    -0.16010
 C     7.35851     1.81433    -1.63864
 H     7.88924     2.59392    -1.74551
 C     7.11813     1.00532    -2.73430
 H     7.49313     1.22297    -3.57981
 C     6.32684    -0.12858    -2.59114
 H     6.15580    -0.68561    -3.34084
 C     5.79155    -0.44567    -1.36143
 H     5.25089    -1.22280    -1.27758
 C     5.46928     0.00930     1.09289
 C     5.75999     0.80900     2.21743
 C     6.59908     2.01205     2.07031
 C     7.11590     2.35480     0.80154
 C     6.83642     1.51048    -0.36692
 C     6.02685     0.35917    -0.22146
