  284
 
Ta     0.00000     0.00000     0.00000
 C    -2.21876     3.19691     1.72183
 H    -1.42061     3.78009     1.35314
 H    -1.96653     2.20945     2.00084
 H    -3.13660     3.29824     1.21410
 C    -1.63096    -1.02661     1.16428
 H    -1.54642    -2.07188     0.85907
 H    -2.55406    -0.53068     0.85036
 H    -1.38347    -0.83932     2.21475
 C     1.99963    -1.06880     0.00902
 H     2.70836    -0.59503    -0.66301
 H     1.70864    -2.08305    -0.29608
 H     2.27813    -1.02035     1.06793
 C    -0.65447     1.78880    -1.06222
 H    -1.01763     2.40993    -0.19699
 H    -1.51436     1.42227    -1.65416
 H     0.12563     2.26760    -1.65692
 C     1.22824     1.46132     1.15293
 H     2.03598     1.86443     0.54650
 H     1.55309     0.87368     2.02273
 H     0.44416     2.19741     1.42422
 C     0.16678    -0.73415    -2.13697
 H    -0.83283    -0.51824    -2.53090
 H     0.33881    -1.80882    -2.00324
 H     0.96501    -0.20157    -2.65007
Ta     1.35892     8.06002    -1.69041
 C     3.88611    10.49633    -3.99924
 H     3.13170    11.21191    -3.81914
 H     3.56221     9.49039    -4.00878
 H     4.80708    10.66574    -3.51624
 C     2.82010     6.65253    -2.66995
 H     2.67969     5.70598    -2.14455
 H     3.79875     7.11772    -2.51986
 H     2.52094     6.62910    -3.72291
 C    -0.76043     7.26827    -1.49960
 H    -1.37954     7.94458    -0.91776
 H    -0.59052     6.29648    -1.01795
 H    -1.05962     7.16517    -2.54796
 C     2.25303     9.91738    -0.97280
 H     2.67222    10.32127    -1.93536
 H     3.07287     9.56189    -0.32069
 H     1.55080    10.59223    -0.47910
 C     0.29345     9.43215    -3.08646
 H    -0.43745    10.04910    -2.56860
 H    -0.12828     8.73344    -3.82294
 H     1.15838     9.99217    -3.49845
 C     1.15129     7.74002     0.54087
 H     2.18146     7.88701     0.88387
 H     0.83351     6.69165     0.59817
 H     0.44112     8.45586     0.95045
Ta    -8.24888     6.90838     0.87256
 C    -9.02879     4.58594     4.34025
 H    -9.17165     3.84010     3.60729
 H    -9.25050     5.57169     4.03245
 H    -8.16871     4.48403     4.94062
 C    -8.36187     8.39933     2.55612
 H    -8.02712     9.33714     2.10803
 H    -7.70058     8.00076     3.33056
 H    -9.41456     8.39599     2.85808
 C    -9.10467     7.62386    -1.10285
 H    -8.92008     6.90979    -1.89975
 H    -8.58125     8.58047    -1.23608
 H   -10.16185     7.76434    -0.85148
 C    -7.19973     5.06385     1.38975
 H    -7.84427     4.69715     2.23446
 H    -6.23461     5.43837     1.78042
 H    -7.10259     4.35688     0.56340
 C   -10.00252     5.54785     0.68958
 H    -9.91677     4.89006    -0.17261
 H   -10.84267     6.25583     0.65027
 H    -9.94109     5.03146     1.66957
 C    -6.39717     7.13931    -0.40911
 H    -5.59505     7.02059     0.32768
 H    -6.49203     8.17327    -0.76364
 H    -6.39085     6.38591    -1.19482
Ta    -8.52157    -1.39796     0.72807
 C    -8.00473    -4.61318    -2.00937
 H    -7.92560    -5.17834    -1.12195
 H    -7.69151    -3.60675    -1.93674
 H    -8.87663    -4.77221    -2.57959
 C    -8.25884    -0.33358    -1.23930
 H    -8.39589     0.71632    -0.96553
 H    -9.03335    -0.73984    -1.89495
 H    -7.24622    -0.58413    -1.57017
 C    -7.60848    -0.33068     2.51626
 H    -7.90695    -0.79446     3.45138
 H    -7.99312     0.68874     2.38232
 H    -6.53809    -0.40281     2.29357
 C    -9.77709    -3.17323     0.61893
 H    -9.17363    -3.79610    -0.09992
 H   -10.69629    -2.80516     0.12433
 H    -9.95496    -3.66086     1.58051
 C    -6.93359    -2.86251     1.28230
 H    -7.10185    -3.26956     2.27724
 H    -6.00886    -2.27982     1.17173
 H    -7.05476    -3.59930     0.46138
 C   -10.33599    -0.65203     1.86403
 H   -11.15382    -0.89464     1.17653
 H   -10.12815     0.42493     1.90598
 H   -10.41649    -1.14329     2.83141
 O    -1.89286     6.28603     3.67683
 C    -2.03881     7.24202     2.62959
 H    -1.06698     7.40656     2.12679
 H    -2.38295     8.18619     3.09352
 C    -0.75161     6.49229     4.48771
 H    -0.93812     5.81208     5.34510
 H    -0.74648     7.53210     4.86619
 C    -3.06234     6.66338     1.66419
 H    -3.22076     7.33096     0.81007
 H    -4.03191     6.48973     2.14655
 H    -2.72100     5.69661     1.24746
 C     0.53525     6.14094     3.74839
 H     0.90542     6.98030     3.14389
 H     0.38412     5.29861     3.05957
 H     1.33265     5.86815     4.44886
 O    -1.35801     3.37928     5.58203
 C    -2.01826     3.19825     6.82033
 H    -1.72675     2.23730     7.27798
 H    -3.08504     3.13751     6.51601
 C     0.03184     3.10685     5.58773
 H     0.50883     3.55541     6.47821
 H     0.38318     3.64285     4.68351
 C    -1.76194     4.37825     7.75161
 H    -2.42255     4.33735     8.62481
 H    -1.94928     5.33442     7.24345
 H    -0.72457     4.40230     8.10995
 C     0.29807     1.61210     5.48285
 H     1.35086     1.40902     5.25024
 H    -0.30239     1.15548     4.68401
 H     0.06377     1.08533     6.41421
 O    -4.48728     4.18020     4.80872
 C    -4.83551     5.30845     5.58956
 H    -5.33622     4.96487     6.51564
 H    -3.84553     5.73802     5.84767
 C    -5.59336     3.35911     4.43618
 H    -6.17624     3.89057     3.65774
 H    -6.23998     3.19560     5.31856
 C    -5.69860     6.30582     4.83110
 H    -5.85269     7.21880     5.41666
 H    -6.69896     5.89400     4.60366
 H    -5.24649     6.59638     3.87744
 C    -4.99803     2.05741     3.92130
 H    -4.34763     1.58456     4.66588
 H    -4.41180     2.19995     2.99822
 H    -5.80090     1.34615     3.67831
Li    -2.57398     4.11752     3.60532
 O    -2.88239    -1.66726     5.11130
 C    -2.66780    -0.51688     5.92583
 H    -3.62098    -0.19924     6.38920
 H    -2.28846     0.28846     5.26822
 C    -3.99942    -1.55639     4.24894
 H    -3.86766    -2.42499     3.57044
 H    -3.91710    -0.62951     3.64977
 C    -1.65400    -0.92644     6.98313
 H    -1.44396    -0.09786     7.66868
 H    -0.70644    -1.25387     6.53962
 H    -2.03186    -1.75822     7.60770
 C    -5.31555    -1.62461     5.01688
 H    -5.60078    -0.64772     5.43044
 H    -5.25034    -2.32073     5.86383
 H    -6.13458    -1.95586     4.36783
 O    -2.87198    11.25593     2.19170
 C    -2.25432    10.67373     1.05970
 H    -2.66751     9.66922     0.86547
 H    -1.19831    10.56841     1.38830
 C    -4.28236    11.13678     2.24078
 H    -4.72468    11.33955     1.24881
 H    -4.56419    11.95401     2.93443
 C    -2.37985    11.58883    -0.15334
 H    -1.74330    11.23918    -0.97361
 H    -2.06843    12.61475     0.08957
 H    -3.41193    11.64404    -0.52102
 C    -4.69393     9.77735     2.78860
 H    -5.76702     9.74732     3.01595
 H    -4.15586     9.54676     3.71873
 H    -4.49205     8.96706     2.07962
 O     0.31290    11.83448     2.72602
 C     0.83031    12.69627     1.72967
 H     1.33178    12.09157     0.94885
 H    -0.08659    13.15094     1.30211
 C     1.27889    10.95064     3.29479
 H     1.96233    11.53999     3.93869
 H     1.86449    10.48336     2.48080
 C     1.76732    13.74840     2.30382
 H     2.06168    14.47471     1.53854
 H     2.69543    13.29601     2.69736
 H     1.30556    14.30403     3.12624
 C     0.48560     9.92173     4.08480
 H    -0.27281     9.43103     3.46412
 H    -0.02392    10.36655     4.95603
 H     1.15944     9.14457     4.47384
Li    -1.53943    12.39233     3.88384
 O    -5.45909     0.45624    -4.44588
 C    -4.58996    -0.66446    -4.58966
 H    -4.60411    -1.02167    -5.63689
 H    -4.96488    -1.46182    -3.91993
 C    -6.73103     0.27913    -5.04148
 H    -7.31037     1.13342    -4.63205
 H    -7.18899    -0.65814    -4.67257
 C    -3.20156    -0.18469    -4.19342
 H    -2.46264    -0.98627    -4.30382
 H    -3.16599     0.17333    -3.15768
 H    -2.86084     0.64569    -4.84103
 C    -6.65457     0.31498    -6.56453
 H    -6.40804    -0.67023    -6.98379
 H    -5.88013     1.01167    -6.91293
 H    -7.61043     0.62405    -7.00236
 O    -7.01159     3.60020    -4.58314
 C    -7.70513     4.12363    -3.46574
 H    -8.15421     5.10150    -3.70966
 H    -6.89163     4.27659    -2.72559
 C    -7.68894     3.71097    -5.82222
 H    -8.75460     3.44268    -5.70547
 H    -7.18476     2.93816    -6.43647
 C    -8.74559     3.12917    -2.96405
 H    -9.15120     3.44444    -1.99592
 H    -8.30793     2.12980    -2.82917
 H    -9.58247     3.02115    -3.66561
 C    -7.50800     5.09950    -6.41894
 H    -7.82058     5.12708    -7.47031
 H    -6.45458     5.40967    -6.38670
 H    -8.09434     5.85728    -5.88697
 O    -4.85271     3.08498    -2.02623
 C    -5.49781     2.22170    -1.10859
 H    -5.99517     2.82993    -0.32808
 H    -6.27055     1.73174    -1.73522
 C    -3.89580     3.95907    -1.42666
 H    -3.00109     3.36476    -1.15368
 H    -4.32845     4.39930    -0.50857
 C    -4.54478     1.20573    -0.49655
 H    -5.08751     0.46154     0.09602
 H    -3.81064     1.68527     0.17666
 H    -3.97307     0.67085    -1.26188
 C    -3.58492     5.01918    -2.47122
 H    -4.48995     5.54197    -2.79984
 H    -3.09236     4.59463    -3.36170
 H    -2.89580     5.76856    -2.05460
Li    -4.80864     2.63247    -4.27626
 O    -5.05358     8.61691    -4.46721
 C    -5.99626     7.59289    -4.16036
 H    -5.95695     7.34771    -3.08206
 H    -5.71021     6.70304    -4.75268
 C    -3.80871     8.46655    -3.80969
 H    -3.15993     9.18020    -4.35916
 H    -3.41900     7.44369    -3.97219
 C    -7.36225     8.13733    -4.54926
 H    -8.15640     7.42400    -4.30244
 H    -7.42768     8.36252    -5.62055
 H    -7.59709     9.06789    -3.99828
 C    -3.91495     8.81193    -2.32792
 H    -4.23978     7.95067    -1.72811
 H    -4.64824     9.61062    -2.15387
 H    -2.95127     9.14473    -1.92690
 O    -4.16753    -4.64941    -3.14629
 C    -3.40933    -4.45333    -4.32610
 H    -2.90518    -3.47220    -4.30801
 H    -4.18870    -4.43867    -5.11724
 C    -3.52651    -4.26755    -1.94292
 H    -2.46121    -4.56149    -1.95635
 H    -4.05773    -4.87446    -1.18265
 C    -2.42590    -5.60111    -4.52531
 H    -1.96930    -5.55574    -5.52019
 H    -2.92813    -6.57543    -4.44242
 H    -1.62228    -5.58756    -3.77748
 C    -3.70809    -2.77765    -1.69155
 H    -3.39075    -2.50317    -0.67782
 H    -4.76193    -2.48355    -1.79440
 H    -3.12533    -2.17037    -2.39278
 O    -5.49359    10.73993    -7.26956
 C    -4.93340     9.62146    -7.93229
 H    -4.28398     9.97726    -8.75552
 H    -4.30208     9.16467    -7.14146
 C    -6.27919    11.58837    -8.10593
 H    -7.21261    11.05255    -8.37112
 H    -5.71403    11.80803    -9.03088
 C    -5.98750     8.64822    -8.43925
 H    -5.53085     7.71072    -8.77554
 H    -6.55257     9.05952    -9.29428
 H    -6.72012     8.40129    -7.66397
 C    -6.55252    12.84487    -7.29269
 H    -5.62727    13.35548    -7.00411
 H    -7.12400    12.63435    -6.37350
 H    -7.15688    13.54897    -7.88341
Li    -5.61754    10.77655    -5.00762
