  376
 
Mo     0.00000     0.00000     0.00000
Mo     2.68474     0.00000     0.00000
Cl    -1.41967     1.96274     0.00000
Cl    -1.32222    -0.98308    -1.75472
Cl    -1.37149    -0.97633     1.71455
Cl     1.36041     1.09066    -1.74720
Cl     1.34793    -2.04975     0.06807
Cl     1.35224     1.08588     1.76542
Cl     4.14243     1.93281    -0.02234
Cl     4.01345    -1.01093    -1.69562
Cl     4.11833    -0.96236     1.70163
Mo     1.71262    -9.46748     3.90107
Mo     2.11895    -6.81653     4.02437
Cl     3.43579   -11.16993     3.91318
Cl     0.46122   -10.69158     5.55314
Cl     0.61975   -10.60462     2.08823
Cl     2.91597    -8.35942     5.75054
Cl    -0.10348    -7.81911     3.81333
Cl     3.07057    -8.22906     2.24376
Cl     4.24698    -5.67403     4.18875
Cl     1.24393    -5.41638     5.73710
Cl     1.46523    -5.18665     2.35373
Mo     3.52083    -9.22110    -5.35927
Mo     0.83608    -9.22110    -5.35927
Cl     4.94050   -11.18383    -5.35927
Cl     4.84304    -8.23802    -3.60455
Cl     4.89232    -8.24477    -7.07382
Cl     2.16042   -10.31176    -3.61207
Cl     2.17290    -7.17134    -5.42734
Cl     2.16859   -10.30698    -7.12469
Cl    -0.62161   -11.15391    -5.33693
Cl    -0.49262    -8.21017    -3.66365
Cl    -0.59686    -8.25949    -7.06100
Mo     1.80820     0.24638    -9.26034
Mo     1.40252    -2.40532    -9.38374
Cl     0.08504     1.94884    -9.27245
Cl     3.05960     1.47048   -10.91241
Cl     2.90107     1.38352    -7.44750
Cl     0.60486    -0.86167   -11.10981
Cl     3.62431    -1.40199    -9.17260
Cl     0.45025    -0.99204    -7.60303
Cl    -0.72620    -3.54697    -9.54901
Cl     2.27690    -3.80472   -11.09637
Cl     2.05624    -4.03520    -7.71310
 N     4.75974    -5.15153     0.88351
 C     4.60594    -4.17512     0.00256
 C     5.16249    -4.24805    -1.11481
 C     5.89881    -5.29571    -1.44371
 C     6.05536    -6.30773    -0.52711
 C     5.44286    -6.18639     0.62153
 N    -2.61240    -3.94300     3.03391
 C    -1.71273    -4.27987     3.94560
 C    -1.75182    -3.76316     5.08362
 C    -2.68920    -2.88794     5.40449
 C    -3.62956    -2.55061     4.46014
 C    -3.54283    -3.12036     3.28702
 N    -1.23895    -4.06947    -6.24378
 C    -1.08447    -5.04673    -5.36193
 C    -1.64166    -4.97305    -4.24446
 C    -2.37798    -3.92539    -3.91556
 C    -2.53453    -2.91336    -4.83216
 C    -1.92204    -3.03471    -5.98080
 N     6.13388    -5.27885    -8.39328
 C     5.23356    -4.94123    -9.30487
 C     5.27265    -5.45793   -10.44289
 C     6.21003    -6.33316   -10.76376
 C     7.15038    -6.67049    -9.81941
 C     7.06366    -6.10073    -8.64629
 N    -1.49315     3.61899     5.61778
 C    -2.58980     3.23680     5.97323
 C    -3.21920     2.27737     5.40653
 C    -2.69028     1.64997     4.38979
 C    -1.48379     2.04275     3.93649
 C    -0.86656     3.05569     4.59754
 N    -4.19480    -0.25015    -0.14876
 C    -4.72178    -1.26055    -0.56798
 C    -5.79118    -1.75804    -0.06905
 C    -6.37675    -1.17883     0.94429
 C    -5.82727    -0.06541     1.46749
 C    -4.70374     0.41391     0.87716
 N    -4.49966    -1.81597    -9.49339
 C    -3.40296    -1.43388    -9.84785
 C    -2.77356    -0.47444    -9.28115
 C    -3.30282     0.15347    -8.26490
 C    -4.50971    -0.23869    -7.81308
 C    -5.12621    -1.25277    -8.47216
 N    -1.79797     2.05308    -3.72586
 C    -1.27098     3.06348    -3.30664
 C    -0.20158     3.56097    -3.80557
 C     0.38398     2.98176    -4.81892
 C    -0.16549     1.86834    -5.34211
 C    -1.28902     1.38902    -4.75178
 N     3.81293    -2.73743    -5.14618
 C     3.19870    -3.72200    -4.56149
 C     2.04892    -3.45582    -4.02709
 C     1.50133    -2.23522    -4.01944
 C     2.20172    -1.25720    -4.67387
 C     3.38579    -1.57568    -5.24099
 N     1.06693    -6.62250    -9.49135
 C     0.02864    -7.05516   -10.14196
 C     0.14077    -8.21217   -10.71275
 C     1.26158    -8.94233   -10.69258
 C     2.30337    -8.42615    -9.96800
 C     2.14670    -7.22380    -9.37461
 N    -0.29211    -6.48366    -0.21309
 C     0.32213    -5.49910    -0.79778
 C     1.47434    -5.76403    -1.32753
 C     2.02451    -6.98349    -1.33055
 C     1.32387    -7.96154    -0.67643
 C     0.13285    -7.64655    -0.12247
 N     2.45390    -2.59860     4.13208
 C     3.49219    -2.16594     4.78269
 C     3.38006    -1.00892     5.35347
 C     2.25925    -0.27875     5.33328
 C     1.21746    -0.79493     4.60870
 C     1.37413    -1.99728     4.01533
 H     5.18553    -4.72860     1.70827
 H    -3.06659    -4.80958     2.74556
 H    -1.66540    -4.49234    -7.06823
 H     6.58813    -4.41240    -8.10464
 H    -1.59312     4.60709     5.38527
 H    -1.02105     1.56583     3.07248
 H     0.12319     3.39719     4.29441
 H    -4.16313     0.40486    -0.93002
 H    -6.26844     0.43112     2.33174
 H    -4.23024     1.32625     1.23982
 H    -4.40030    -2.80435    -9.26183
 H    -4.97377     0.24015    -6.95084
 H    -6.11497    -1.59564    -8.16737
 H    -2.74822     2.31156    -3.99157
 H     0.27567     1.37182    -6.20637
 H    -1.76253     0.47667    -5.11444
 H     4.70983    -2.65667    -4.66716
 H     1.81137    -0.24139    -4.73599
 H     1.30156    -5.72816    -9.92207
 H     3.24007    -8.97533    -9.87253
 H    -0.44166    -6.17562     0.74771
 H     1.71961    -8.97459    -0.60421
 H     2.77956    -2.75562     3.17831
 H     0.28078    -0.24575     4.51322
 H     3.99429    -3.30788     0.25130
 H     5.03853    -3.43442    -1.82947
 H     6.37280    -5.35569    -2.42342
 H     6.66862    -7.18085    -0.74998
 H     5.52051    -6.98320     1.36124
 H    -0.93811    -5.00763     3.70390
 H    -1.00041    -4.03902     5.82347
 H    -2.71598    -2.44227     6.39886
 H    -4.41968    -1.83324     4.68189
 H    -4.27870    -2.88550     2.51797
 H    -0.47244    -5.91384    -5.61022
 H    -1.51803    -5.78654    -3.52959
 H    -2.85197    -3.86541    -2.93585
 H    -3.14780    -2.04025    -4.60929
 H    -1.99964    -2.23755    -6.72013
 H     4.45913    -4.21336    -9.06289
 H     4.52123    -5.18208   -11.18274
 H     6.23681    -6.77883   -11.75813
 H     7.94051    -7.38786   -10.04116
 H     7.79961    -6.33551    -7.87730
 H    -3.06240     3.73684     6.81864
 H    -4.20193     1.98198     5.77409
 H    -3.21688     0.82170     3.91568
 H    -4.26040    -1.77097    -1.41339
 H    -6.21451    -2.66902    -0.49213
 H    -7.29636    -1.58999     1.36068
 H    -2.92985    -1.93417   -10.69281
 H    -1.79056    -0.17948    -9.64830
 H    -2.77616     0.98140    -7.79028
 H    -1.73236     3.57390    -2.46123
 H     0.22175     4.47195    -3.38249
 H     1.30359     3.39292    -5.23530
 H     3.62957    -4.72247    -4.52257
 H     1.49763    -4.27083    -3.55812
 H     0.55339    -2.03118    -3.52156
 H     3.96046    -0.82001    -5.77655
 H    -0.89091    -6.47321   -10.20417
 H    -0.72573    -8.61318   -11.23857
 H     1.34119    -9.89206   -11.22152
 H     2.96100    -6.78485    -8.79812
 H    -0.11070    -4.49962    -0.84043
 H     2.02558    -4.94890    -1.79635
 H     2.97463    -7.18664    -1.82462
 H    -0.44950    -8.40612     0.39910
 H     4.41173    -2.74789     4.84491
 H     4.24656    -0.60791     5.87928
 H     2.17965     0.67099     5.86221
 H     0.55983    -2.43624     3.43884
Mo     7.19657     6.17189     0.28706
Mo     9.88131     6.17189     0.28706
Cl     5.77690     8.13462     0.28706
Cl     5.87435     5.18881    -1.46766
Cl     5.82508     5.19556     2.00161
Cl     8.55698     7.26255    -1.46014
Cl     8.54450     4.12214     0.35513
Cl     8.54881     7.25777     2.05248
Cl    11.33900     8.10470     0.26472
Cl    11.21002     5.16096    -1.40856
Cl    11.31490     5.20953     1.98869
Mo     8.90919    -3.29559     4.18813
Mo     9.31552    -0.64464     4.31143
Cl    10.63236    -4.99804     4.20024
Cl     7.65779    -4.51969     5.84020
Cl     7.81632    -4.43273     2.37529
Cl    10.11254    -2.18754     6.03760
Cl     7.09309    -1.64722     4.10039
Cl    10.26714    -2.05717     2.53082
Cl    11.44355     0.49786     4.47581
Cl     8.44050     0.75551     6.02416
Cl     8.66180     0.98524     2.64079
Mo    10.71740    -3.04921    -5.07221
Mo     8.03265    -3.04921    -5.07221
Cl    12.13707    -5.01194    -5.07221
Cl    12.03961    -2.06613    -3.31749
Cl    12.08888    -2.07288    -6.78676
Cl     9.35699    -4.13987    -3.32501
Cl     9.36947    -0.99945    -5.14028
Cl     9.36516    -4.13509    -6.83763
Cl     6.57496    -4.98202    -5.04987
Cl     6.70395    -2.03828    -3.37659
Cl     6.59971    -2.08760    -6.77394
Mo     9.00477     6.41827    -8.97328
Mo     8.59909     3.76657    -9.09668
Cl     7.28160     8.12073    -8.98539
Cl    10.25617     7.64237   -10.62535
Cl    10.09764     7.55541    -7.16044
Cl     7.80143     5.31022   -10.82275
Cl    10.82088     4.76990    -8.88554
Cl     7.64682     5.17985    -7.31597
Cl     6.47037     2.62492    -9.26195
Cl     9.47347     2.36717   -10.80931
Cl     9.25281     2.13669    -7.42604
 N    11.95631     1.02036     1.17057
 C    11.80251     1.99677     0.28962
 C    12.35906     1.92384    -0.82775
 C    13.09538     0.87618    -1.15665
 C    13.25193    -0.13584    -0.24005
 C    12.63943    -0.01450     0.90859
 N     4.58417     2.22889     3.32097
 C     5.48384     1.89202     4.23266
 C     5.44475     2.40873     5.37068
 C     4.50737     3.28395     5.69155
 C     3.56701     3.62128     4.74720
 C     3.65374     3.05153     3.57408
 N     5.95762     2.10242    -5.95672
 C     6.11210     1.12516    -5.07487
 C     5.55491     1.19884    -3.95740
 C     4.81859     2.24650    -3.62850
 C     4.66204     3.25852    -4.54510
 C     5.27453     3.13718    -5.69374
 N    13.33045     0.89304    -8.10622
 C    12.43013     1.23066    -9.01781
 C    12.46922     0.71395   -10.15583
 C    13.40660    -0.16127   -10.47670
 C    14.34695    -0.49860    -9.53235
 C    14.26023     0.07116    -8.35923
 N     5.70342     9.79088     5.90484
 C     4.60677     9.40869     6.26029
 C     3.97737     8.44926     5.69359
 C     4.50629     7.82186     4.67685
 C     5.71278     8.21464     4.22355
 C     6.33001     9.22758     4.88460
 N     3.00177     5.92174     0.13830
 C     2.47479     4.91133    -0.28092
 C     1.40539     4.41385     0.21801
 C     0.81982     4.99306     1.23135
 C     1.36930     6.10648     1.75455
 C     2.49283     6.58580     1.16422
 N     2.69690     4.35592    -9.20633
 C     3.79361     4.73801    -9.56079
 C     4.42301     5.69745    -8.99409
 C     3.89375     6.32536    -7.97784
 C     2.68686     5.93320    -7.52602
 C     2.07036     4.91912    -8.18510
 N     5.39860     8.22496    -3.43880
 C     5.92559     9.23537    -3.01958
 C     6.99499     9.73286    -3.51851
 C     7.58055     9.15365    -4.53186
 C     7.03107     8.04023    -5.05505
 C     5.90755     7.56091    -4.46472
 N    11.00950     3.43446    -4.85912
 C    10.39527     2.44989    -4.27443
 C     9.24549     2.71607    -3.74003
 C     8.69790     3.93667    -3.73238
 C     9.39829     4.91469    -4.38681
 C    10.58236     4.59621    -4.95393
 N     8.26350    -0.45061    -9.20429
 C     7.22521    -0.88327    -9.85490
 C     7.33734    -2.04028   -10.42569
 C     8.45815    -2.77045   -10.40552
 C     9.49994    -2.25427    -9.68094
 C     9.34327    -1.05192    -9.08755
 N     6.90446    -0.31178     0.07397
 C     7.51870     0.67279    -0.51072
 C     8.67091     0.40786    -1.04047
 C     9.22108    -0.81160    -1.04349
 C     8.52044    -1.78965    -0.38937
 C     7.32942    -1.47467     0.16459
 N     9.65047     3.57329     4.41914
 C    10.68876     4.00595     5.06975
 C    10.57663     5.16297     5.64053
 C     9.45582     5.89314     5.62034
 C     8.41403     5.37696     4.89576
 C     8.57070     4.17460     4.30239
 H    12.38210     1.44329     1.99533
 H     4.12997     1.36231     3.03262
 H     5.53117     1.67955    -6.78117
 H    13.78470     1.75949    -7.81758
 H     5.60345    10.77898     5.67233
 H     6.17552     7.73772     3.35954
 H     7.31976     9.56908     4.58147
 H     3.03344     6.57675    -0.64296
 H     0.92813     6.60300     2.61880
 H     2.96633     7.49814     1.52688
 H     2.79627     3.36754    -8.97477
 H     2.22280     6.41204    -6.66378
 H     1.08160     4.57624    -7.88031
 H     4.44835     8.48344    -3.70451
 H     7.47224     7.54371    -5.91931
 H     5.43404     6.64856    -4.82738
 H    11.90640     3.51521    -4.38010
 H     9.00794     5.93050    -4.44893
 H     8.49813     0.44372    -9.63501
 H    10.43664    -2.80344    -9.58547
 H     6.75491    -0.00373     1.03477
 H     8.91618    -2.80270    -0.31715
 H     9.97613     3.41627     3.46537
 H     7.47734     5.92614     4.80028
 H    11.19086     2.86401     0.53836
 H    12.23510     2.73747    -1.54241
 H    13.56937     0.81620    -2.13636
 H    13.86519    -1.00896    -0.46292
 H    12.71708    -0.81131     1.64830
 H     6.25846     1.16426     3.99096
 H     6.19616     2.13287     6.11053
 H     4.48059     3.72962     6.68592
 H     2.77688     4.33865     4.96895
 H     2.91787     3.28639     2.80503
 H     6.72413     0.25805    -5.32316
 H     5.67854     0.38535    -3.24253
 H     4.34460     2.30648    -2.64879
 H     4.04877     4.13164    -4.32223
 H     5.19692     3.93434    -6.43307
 H    11.65570     1.95853    -8.77583
 H    11.71780     0.98981   -10.89568
 H    13.43338    -0.60694   -11.47107
 H    15.13708    -1.21597    -9.75410
 H    14.99618    -0.16362    -7.59024
 H     4.13417     9.90873     7.10570
 H     2.99464     8.15387     6.06115
 H     3.97969     6.99359     4.20274
 H     2.93617     4.40092    -1.12633
 H     0.98206     3.50287    -0.20507
 H    -0.09979     4.58190     1.64774
 H     4.26672     4.23772   -10.40575
 H     5.40601     5.99241    -9.36124
 H     4.42041     7.15329    -7.50322
 H     5.46421     9.74578    -2.17417
 H     7.41832    10.64384    -3.09543
 H     8.50016     9.56481    -4.94824
 H    10.82614     1.44942    -4.23551
 H     8.69420     1.90106    -3.27106
 H     7.74996     4.14071    -3.23450
 H    11.15703     5.35188    -5.48949
 H     6.30566    -0.30132    -9.91711
 H     6.47084    -2.44129   -10.95151
 H     8.53776    -3.72017   -10.93446
 H    10.15757    -0.61296    -8.51106
 H     7.08587     1.67226    -0.55337
 H     9.22215     1.22299    -1.50929
 H    10.17120    -1.01475    -1.53756
 H     6.74707    -2.23423     0.68616
 H    11.60830     3.42399     5.13197
 H    11.44313     5.56397     6.16634
 H     9.37622     6.84288     6.14927
 H     7.75640     3.73565     3.72590
