  100
 
Sb     0.00000     0.00000     0.00000
 S     2.36771     0.61939    -0.39233
 S     1.58907     3.62118    -0.13283
 S    -0.26954     0.92683     2.23308
 S    -2.27053     2.96873     0.93558
 S     0.70977    -2.29365     0.48268
 S    -2.23099    -1.61511     0.32281
 O     3.87639     2.50832    -0.90010
 O    -1.54432     2.62056     3.47083
 O    -1.11944    -4.09311     0.46643
 C     2.62369     2.40857    -0.47551
 C     4.45562     3.80726    -1.08444
 C    -1.48152     2.30039     2.18326
 C    -2.37934     3.70612     3.89077
 C    -1.03315    -2.79624     0.42299
 C    -2.41724    -4.71557     0.48073
 H     5.47193     3.55352    -1.41500
 H     4.48435     4.36190    -0.14007
 H     3.91200     4.37393    -1.84838
 H    -2.19013     3.71496     4.97506
 H    -3.43469     3.50311     3.67807
 H    -2.05722     4.64929     3.43571
 H    -2.14555    -5.78079     0.53455
 H    -2.96483    -4.49173    -0.44298
 H    -2.98465    -4.41255     1.36715
Sb    -1.70710     8.83688     7.11571
 S    -4.09894     8.28659     7.45483
 S    -3.41634     5.25001     7.36134
 S    -1.46352     7.97579     4.85792
 S     0.68430     6.00001     6.01323
 S    -2.37331    11.15366     6.69957
 S     0.56005    10.44375     6.87413
 O    -5.65923     6.48110     8.07845
 O    -0.18605     6.36494     3.52689
 O    -0.53258    12.93451     6.76747
 C    -4.40612     6.51167     7.64185
 C    -6.28848     5.21719     8.32811
 C    -0.19505     6.65570     4.82286
 C     0.67100     5.32807     3.03768
 C    -0.62497    11.63775     6.78556
 C     0.76682    13.55386     6.77266
 H    -7.28875     5.52911     8.66127
 H    -6.35110     4.62262     7.41001
 H    -5.76203     4.66127     9.11084
 H     0.42549     5.34163     1.96520
 H     1.72654     5.56743     3.20429
 H     0.40918     4.36081     3.48067
 H     0.49448    14.61992     6.74133
 H     1.31438    13.30536     7.69059
 H     1.33107    13.27428     5.87712
Sb    -1.31673     5.05014    -3.41955
 S     1.03874     5.63150    -3.91297
 S     0.36391     8.66370    -3.66443
 S    -1.43578     5.92547    -1.15756
 S    -3.72304     7.81547    -2.17655
 S    -0.60482     2.74554    -2.99721
 S    -3.54776     3.43441    -3.02185
 O     2.58207     7.46319    -4.50011
 O    -2.69748     7.48018     0.25440
 O    -2.43616     0.95200    -2.97040
 C     1.34370     7.41421    -4.02865
 C     3.20471     8.73511    -4.72770
 C    -2.75014     7.19367    -1.04157
 C    -3.55438     8.49471     0.78958
 C    -2.34997     2.24913    -2.98983
 C    -3.73302     0.32863    -2.93112
 H     4.19618     8.43133    -5.09449
 H     3.29374     9.30252    -3.79431
 H     2.65706     9.31298    -5.47937
 H    -3.26142     8.47629     1.84972
 H    -4.61129     8.23695     0.66363
 H    -3.33261     9.47134     0.34529
 H    -3.45736    -0.73482    -2.86968
 H    -4.29042     0.54291    -3.85173
 H    -4.28879     0.63656    -2.03945
Sb    -2.99616    13.86798     3.67912
 S    -5.38511    13.26955     3.98967
 S    -4.63162    10.25454     3.82041
 S    -2.69971    12.95247     1.44384
 S    -0.70588    10.88971     2.71642
 S    -3.68525    16.16439     3.17849
 S    -0.74875    15.48124     3.37428
 O    -6.88293    11.40971     4.62784
 O    -1.38132    11.31597     0.17941
 O    -1.85326    17.95786     3.15144
 C    -5.64622    11.48625     4.15520
 C    -7.46869    10.12119     4.86015
 C    -1.47411    11.59248     1.47558
 C    -0.53772    10.24391    -0.25572
 C    -1.94054    16.66298     3.23315
 C    -0.55714    18.58375     3.15155
 H    -8.47121    10.39225     5.21889
 H    -7.53419     9.54748     3.92892
 H    -6.90681     9.56587     5.61878
 H    -0.69000    10.27925    -1.34481
 H     0.51150    10.42856    -0.00100
 H    -0.88082     9.28619     0.15075
 H    -0.83103    19.64722     3.07847
 H    -0.02591    18.37684     4.08852
 H     0.02699    18.26840     2.28135
