  152
 
Zr     0.00000     0.00000     0.00000
 F    -3.09086    -8.27829     2.50728
 F    -3.52795    -5.79459     2.84633
 F    -4.95612    -7.44333     4.51904
 F    -2.50018    -5.27268     5.02382
 F    -2.49236    -9.26289     4.82121
 F    -0.86213    -7.12376     3.87496
 F    -2.99370    -7.43338     6.41695
Zr    -2.88140    -7.22039     4.32545
Zr    -4.99660     1.44111     5.20330
 F    -5.01721     0.03626     3.62041
 F    -4.49806    -0.45021     6.11013
 F    -6.91371     0.67620     5.58886
 F    -4.05330     1.86230     7.03144
 F    -5.48894     2.61988     3.50504
 F    -3.05054     1.83937     4.56334
 F    -6.00571     3.15796     5.89985
Zr     1.71029    -2.26218     8.64403
 F     1.93941    -1.14622    10.42459
 F     1.25837    -0.25035     8.12822
 F    -0.33439    -2.35227     8.98915
 F     2.01431    -1.99472     6.57431
 F     2.03588    -3.69342    10.21986
 F     3.79731    -2.23569     8.59156
 F     1.33753    -4.17244     7.84120
 F    -0.01836     1.40674     1.58673
 F     0.49446    -1.18842     1.69607
 F    -1.94714    -0.35277     0.65867
 F     0.96300    -1.72697    -0.72719
 F    -0.31109     1.90321    -0.96234
 F     1.96183     0.71381    -0.26644
 F    -0.97187    -0.37716    -1.81775
 N    -6.79790    -2.34660     4.57786
 N    -4.53349    -3.12789     4.64608
 N    -6.11684    -4.20430     3.22063
 C    -5.81290    -3.23440     4.16561
 H    -6.49242    -1.51730     5.12134
 H    -7.57793    -2.15378     3.91674
 H    -3.86217    -3.91794     4.55036
 H    -4.30950    -2.39335     5.33140
 H    -5.49573    -5.02443     3.13417
 H    -7.11510    -4.35422     2.98696
 N    -6.09053    -1.22013    10.79409
 N    -4.63291     0.05126     9.38928
 N    -6.00988    -1.64820     8.43277
 C    -5.58270    -0.92268     9.53806
 H    -5.60723    -0.81291    11.61559
 H    -6.47502    -2.17109    10.95335
 H    -4.40590     0.43962     8.45194
 H    -4.25249     0.53081    10.21521
 H    -5.84735    -1.24768     7.49254
 H    -6.87094    -2.21946     8.53795
 N    -1.74248    -0.83564     4.00756
 N     0.23792     0.03926     5.03641
 N    -1.60824    -0.63523     6.39738
 C    -1.05960    -0.47090     5.15838
 H    -1.40804    -0.43216     3.10864
 H    -2.76482    -0.96551     4.06293
 H     0.82991     0.00897     5.88668
 H     0.74896    -0.17860     4.16355
 H    -1.03793    -0.51264     7.24771
 H    -2.62912    -0.73989     6.51189
 N    -0.92101    -5.96768     0.86276
 N     0.77818    -4.30000     1.10227
 N    -1.41140    -3.89265     1.95881
 C    -0.53546    -4.71780     1.30270
 H    -0.18195    -6.64947     0.60140
 H    -1.79621    -6.38299     1.21219
 H     0.96500    -3.28215     1.12552
 H     1.36262    -4.83194     0.43577
 H    -1.19059    -2.89614     2.10392
 H    -2.32440    -4.24413     2.28175
 N     1.84193     3.78271     0.66736
 N    -0.42449     4.55401     0.54048
 N     1.13441     5.68267     1.95219
 C     0.85787     4.69048     1.03138
 H     1.53147     2.88754     0.23886
 H     2.65685     3.67931     1.30609
 H    -1.06276     5.38078     0.54618
 H    -0.59551     3.84682    -0.18664
 H     0.49534     6.50193     2.01189
 H     2.12363     5.85578     2.20512
 N     1.58231     2.93017    -5.46130
 N     0.07190     1.61375    -4.15900
 N     1.42191     3.28183    -3.09765
 C     1.01994     2.59306    -4.24448
 H     1.13618     2.56372    -6.32386
 H     2.03320     3.86142    -5.55933
 H    -0.26267     1.26616    -3.24070
 H    -0.37096     1.23990    -5.01101
 H     1.19731     2.86794    -2.17618
 H     2.30715     3.81019    -3.15204
 N    -3.06507     2.37728     1.32350
 N    -5.00103     1.44180     0.25971
 N    -3.18723     2.25408    -1.07433
 C    -3.72484     2.01502     0.15247
 H    -3.36213     1.88281     2.19070
 H    -2.04823     2.54939     1.27214
 H    -5.59191     1.50437    -0.58406
 H    -5.51323     1.61354     1.14294
 H    -3.74667     2.12434    -1.93390
 H    -2.17612     2.41114    -1.18455
 N    -3.74104     7.37488     4.20876
 N    -5.42022     5.67972     4.10400
 N    -3.32341     5.33923     3.01839
 C    -4.14686     6.12572     3.80329
 H    -4.42665     8.01554     4.65431
 H    -2.90003     7.80936     3.80344
 H    -5.63604     4.67050     4.01254
 H    -5.99400     6.21458     4.77031
 H    -3.53663     4.33609     2.90200
 H    -2.37572     5.65684     2.78310
 N    -4.65547    -1.71234     1.27559
 N    -5.58948    -3.41717    -0.11004
 C    -4.90343    -2.22103     0.01231
 H    -4.27972    -0.75407     1.34940
 H    -6.23050    -3.68314     0.65401
 H    -5.84713    -3.73934    -1.05753
 H    -5.22491    -2.03767     2.06066
 N    -4.38741    -1.57565    -1.09771
 H    -3.65890    -0.85566    -0.95021
 H    -4.33249    -2.10137    -1.98864
 N    -3.05771    -3.32074     9.39924
 N    -4.18061    -4.42867     7.60840
 C    -3.04989    -4.27512     8.41143
 H    -2.19540    -3.06741     9.89974
 H    -5.06494    -4.03397     7.96886
 H    -4.26478    -5.31014     7.07639
 H    -3.90905    -2.80738     9.61905
 N    -1.93787    -5.06002     8.21440
 H    -1.06106    -4.82170     8.69715
 H    -1.86598    -5.63566     7.35610
 N    -0.34153     3.15048     3.88700
 N    -0.70644     3.10545     6.25129
 C    -0.14855     3.70889     5.14426
 H     0.25403     3.46587     3.11687
 H    -1.40567     2.35759     6.11194
 H    -0.78466     3.65238     7.12817
 H    -0.65021     2.16744     3.84395
 N     0.51181     4.92079     5.24455
 H     1.16840     5.17534     4.49071
 H     0.73198     5.28125     6.18754
 N     1.91601    -6.09294     3.61175
 N     0.86087    -4.23819     4.66192
 C     1.94001    -5.09547     4.55467
 H     2.74042    -6.65813     3.43757
 H    -0.03920    -4.52983     4.25021
 H     0.80868    -3.61208     5.48608
 H     1.12153    -6.18524     2.96952
 N     3.03659    -4.99098     5.40417
 H     3.91730    -5.42791     5.09031
 H     3.13038    -4.13283     5.97123
