  102
 
Ta     0.00000     0.00000     0.00000
 F     1.16576    -1.29377     0.74736
 F     1.06405     1.37765     0.74736
 F     1.06404     0.04066    -1.56765
 F    -1.16576     1.29377    -0.74735
 F    -1.06405    -1.37765    -0.74735
 F    -1.06404    -0.04066     1.56765
Ta    -5.77313     4.10445     2.61956
 F    -4.60738     2.81068     3.36692
 F    -4.70909     5.48209     3.36692
 F    -4.70906     4.14460     1.05278
 F    -6.93885     5.39771     1.87308
 F    -6.83718     2.72680     1.87221
 F    -6.83717     4.06379     4.18721
Ta   -11.21745    -0.42805     5.23837
 F   -10.05169    -1.72182     5.98573
 F   -10.15340     0.94960     5.98573
 F   -10.15341    -0.38739     3.67072
 F   -12.38320     0.86571     4.49102
 F   -12.28150    -1.80570     4.49102
 F   -12.28148    -0.46871     6.80603
Ta    -8.49579    -0.32346     0.18685
 F    -9.54051    -1.68931     0.97592
 F    -9.64132     0.95880     0.97631
 F    -9.64132    -0.36687    -1.31831
 F    -7.45007     1.04243    -0.60224
 F    -7.34926    -1.60568    -0.60263
 F    -7.34927    -0.28002     1.69199
Ta     2.72266     4.42791     2.43271
 F     1.67694     3.06202     3.22180
 F     1.57613     5.71013     3.22219
 F     1.57617     4.38396     0.92844
 F     3.76742     5.79326     1.64451
 F     3.86819     3.14565     1.64326
 F     3.86818     4.47131     3.93787
Ta    -2.72166    -0.10459     5.05153
 F    -3.76737    -1.47048     5.84061
 F    -3.86819     1.17763     5.84100
 F    -3.86818    -0.14804     3.54639
 F    -1.67694     1.26126     4.26246
 F    -1.57612    -1.38685     4.26207
 F    -1.57613    -0.06118     6.55668
 C     4.33581     0.16508    -0.09536
 N     4.09664     1.26749    -0.73268
 H     4.08966     1.21964    -1.58814
 N     4.18117    -0.95264    -0.73284
 N     4.18117     0.15863     1.19101
 H     4.08966     1.98499    -0.26334
 H     4.22874    -1.66820    -0.26376
 H     4.17054    -0.90467    -1.58835
 H     4.17053     0.92404     1.57723
 H     4.22874    -0.60483     1.57703
 C    -4.33581    -0.16508     0.09536
 N    -4.09665    -1.26749     0.73268
 H    -4.08966    -1.98500     0.26334
 N    -4.18117    -0.15863    -1.19101
 N    -4.18117     0.95263     0.73284
 H    -4.08966    -1.21964     1.58814
 H    -4.22874     0.60483    -1.57703
 H    -4.17053    -0.92405    -1.57723
 H    -4.17054     0.90467     1.58835
 H    -4.22874     1.66819     0.26376
 C    -1.43732     4.26952     2.52421
 N    -1.67649     5.37194     1.88688
 H    -1.68343     5.32359     1.03229
 N    -1.59196     3.15181     1.88672
 N    -1.59192     4.26258     3.81144
 H    -1.68347     6.08944     2.35622
 H    -1.54439     2.43625     2.35580
 H    -1.60256     3.19928     1.03207
 H    -1.60256     5.02799     4.19766
 H    -1.54440     3.49961     4.19659
 C   -10.10894     3.93937     2.71492
 N    -9.86974     2.83646     3.35311
 H    -9.86275     2.11895     2.88377
 N    -9.95430     3.94582     1.42856
 N    -9.95430     5.05708     3.35240
 H    -9.86279     2.88480     4.20770
 H   -10.00183     4.70878     1.04340
 H    -9.94367     3.18040     1.04233
 H    -9.94367     5.00912     4.20792
 H   -10.00183     5.77214     2.88419
 C    -6.88164    -0.26297     5.14302
 N    -7.12080     0.83944     4.50569
 H    -7.12779     0.79159     3.65023
 N    -7.03628    -1.38069     4.50554
 N    -7.03628    -0.26942     6.42938
 H    -7.12779     1.55694     4.97503
 H    -6.98871    -2.09625     4.97461
 H    -7.04691    -1.33272     3.65002
 H    -7.04692     0.49599     6.81561
 H    -6.98871    -1.03288     6.81540
 C     1.43732     0.05376     4.96006
 N     1.67651    -1.04952     5.59688
 H     1.68348    -1.76616     5.12804
 N     1.59199     0.05934     3.67319
 N     1.59197     1.17147     5.59754
 H     1.68347    -1.00081     6.45284
 H     1.54440     0.82366     3.28767
 H     1.60260    -0.70521     3.28746
 H     1.60260     1.12350     6.45305
 H     1.54440     1.88703     5.12846
