  102
 
Cu     0.00000     0.00000     0.00000
 N     2.05897     0.00000     0.00000
 H     2.35831     0.84832     0.00000
 H     2.35892    -0.40180     0.74619
 C     2.58148    -0.70390    -1.18155
 H     3.51912    -0.91009    -1.04574
 H     2.50838    -0.12817    -1.95809
 C     1.82055    -1.97376    -1.42542
 H     2.14338    -2.40471    -2.23266
 H     1.94302    -2.58476    -0.68143
 N     0.39777    -1.62929    -1.56851
 H    -0.11933    -2.34982    -1.41566
 H     0.22695    -1.32202    -2.39672
 N    -0.14377    -1.36392     1.62421
 H    -0.76552    -1.98851     1.44186
 H     0.64531    -1.77899     1.74143
 C    -0.50943    -0.64396     2.84400
 H    -0.32269    -1.20038     3.61621
 H    -1.46009    -0.45115     2.83287
 C     0.25860     0.63864     2.95331
 H    -0.02129     1.11797     3.74939
 H     1.20639     0.44558     3.03476
 N     0.02434     1.46994     1.76840
 H     0.68203     2.07618     1.66927
 H    -0.76241     1.90279     1.83290
 N    -2.02743    -0.06452    -0.29482
 H    -2.30213    -0.92098    -0.34911
 H    -2.44886     0.32284     0.39969
 C    -2.35926     0.64215    -1.53489
 H    -3.30831     0.84009    -1.56279
 H    -2.13735     0.09199    -2.30242
 C    -1.56237     1.91554    -1.56246
 H    -1.71911     2.38858    -2.39547
 H    -1.82811     2.49195    -0.82897
 N    -0.14727     1.56877    -1.44175
 H     0.32718     2.28432    -1.17215
 H     0.17507     1.29340    -2.23520
Cu    -6.37175    -1.62429     2.62391
 N    -8.43072    -1.62429     2.62391
 H    -8.73006    -2.47260     2.62391
 H    -8.73081    -1.22172     1.87837
 C    -8.95323    -0.92038     3.80547
 H    -9.89088    -0.71420     3.66965
 H    -8.88026    -1.49535     4.58264
 C    -8.19230     0.34947     4.04934
 H    -8.51527     0.78118     4.85721
 H    -8.31457     0.96066     3.30673
 N    -6.76965     0.00577     4.19306
 H    -6.25242     0.72554     4.03958
 H    -6.59850    -0.30207     5.02203
 N    -6.22798    -0.26036     0.99971
 H    -5.60623     0.36422     1.18205
 H    -7.01706     0.15471     0.88248
 C    -5.86245    -0.97957    -0.21945
 H    -6.04874    -0.42447    -0.99155
 H    -4.91180    -1.17238    -0.20832
 C    -6.63035    -2.26293    -0.32939
 H    -6.35059    -2.74149    -1.12484
 H    -7.57815    -2.06987    -0.41085
 N    -6.39609    -3.09422     0.85552
 H    -7.05391    -3.69971     0.95528
 H    -5.60934    -3.52708     0.79101
 N    -4.34432    -1.55977     2.91874
 H    -4.06962    -0.70331     2.97302
 H    -3.92270    -1.94694     2.22561
 C    -4.01262    -2.26568     4.15944
 H    -3.06312    -2.46495     4.18745
 H    -4.23453    -1.71552     4.92697
 C    -4.80938    -3.53982     4.18637
 H    -4.65277    -4.01211     5.02002
 H    -4.54377    -4.11548     3.45352
 N    -6.22448    -3.19306     4.06567
 H    -6.69893    -3.90861     3.79607
 H    -6.54682    -2.91769     4.85912
 C     0.71204     0.35938    -5.29577
 C     0.23091    -1.08159    -5.54490
 O     0.96941     0.62517    -4.11580
 O     0.79252     1.05947    -6.29093
 F     0.89083    -1.97049    -4.75929
 F     0.40612    -1.51799    -6.76992
 C    -8.39786    -5.96726    -6.17440
 C    -7.91660    -4.52705    -5.92590
 O    -8.65429    -6.23274    -7.35455
 O    -8.47821    -6.66812    -5.17988
 F    -8.57633    -3.63797    -6.71013
 F    -8.09181    -4.09065    -4.70088
 F    -6.62598    -4.29895    -6.19894
 C    -5.22248    -1.52008    -8.10622
 C    -4.04298    -2.48268    -8.15689
 O    -5.00095    -0.37163    -7.72981
 O    -6.29798    -2.01349    -8.42687
 C    -2.46334    -4.08780    -3.36395
 C    -3.64271    -3.12596    -3.31392
 O    -2.68474    -5.23702    -3.74100
 O    -1.38751    -3.59497    -3.04255
 F    -0.78923    -1.09608    -4.72222
 F    -2.85392    -1.90645    -8.12502
 F    -4.06158    -3.22345    -9.27247
 F    -4.03403    -3.36326    -7.14950
 F    -4.83176    -3.70220    -3.34578
 F    -3.62411    -2.38520    -2.19833
 F    -3.65166    -2.24538    -4.32130
