  176
 
Ir     0.00000     0.00000     0.00000
 N    -4.18425    -3.63668    -8.36880
 N    -6.77322    -2.51485    -8.16479
 C    -5.40993    -4.49486    -8.63285
 C    -6.48811    -3.54926    -9.23687
 C    -7.74342    -4.32755    -9.65529
 C    -7.38699    -5.47706   -10.61137
 C    -6.36482    -6.42176    -9.96451
 C    -5.09794    -5.65197    -9.58279
 H    -3.49379    -4.15656    -7.77380
 H    -3.72456    -3.38731    -9.28568
 H    -7.22108    -1.65782    -8.58153
 H    -7.46194    -2.90454    -7.46242
 H    -5.75914    -4.91723    -7.63587
 H    -6.07401    -3.00577   -10.14259
 H    -8.43413    -3.60747   -10.15634
 H    -8.25650    -4.75624    -8.75560
 H    -8.30871    -6.05892   -10.84663
 H    -6.96839    -5.06055   -11.55789
 H    -6.08803    -7.23150   -10.67756
 H    -6.81245    -6.88520    -9.05001
 H    -4.63053    -5.24286   -10.51719
 H    -4.39796    -6.33647    -9.04983
 N    -5.34090    -2.98767    -5.65023
 N    -3.00977    -1.50042    -6.75965
 N    -5.74328    -0.30948    -6.44316
 N    -4.53179    -0.81681    -9.06349
 C    -5.51023    -1.89282    -4.60955
 H    -4.59068    -3.65915    -5.36084
 H    -6.24526    -3.53209    -5.73281
 C    -2.32772    -0.85225    -7.95113
 H    -2.44511    -2.36656    -6.54242
 H    -2.98969    -0.88093    -5.91234
 C    -6.47624    -0.84334    -5.22697
 H    -6.43137     0.14123    -7.10064
 H    -5.06550     0.43764    -6.12764
 C    -3.35990     0.05914    -8.66459
 H    -5.37946    -0.21177    -9.25287
 H    -4.30891    -1.33449    -9.95751
 C    -6.04987    -2.43334    -3.28664
 H    -4.48450    -1.43539    -4.41132
 C    -1.08092    -0.05718    -7.55024
 H    -2.01033    -1.69425    -8.65048
 C    -6.83590     0.26801    -4.22639
 H    -7.43303    -1.33666    -5.59012
 C    -2.73320     0.72595    -9.89069
 H    -3.74392     0.85900    -7.95906
 C    -6.31999    -1.29214    -2.30550
 H    -7.00469    -2.98794    -3.47449
 H    -5.26162    -3.10354    -2.86877
 C    -0.44877     0.55834    -8.80318
 H    -1.35316     0.74889    -6.82471
 H    -0.36111    -0.76286    -7.06947
 C    -7.34820    -0.32880    -2.90945
 H    -7.61769     0.91322    -4.69870
 H    -5.93921     0.89881    -4.00801
 C    -1.44760     1.47410    -9.52377
 H    -3.49302     1.44144   -10.28972
 H    -2.49625    -0.03973   -10.67681
 H    -6.69963    -1.70821    -1.34611
 H    -5.36873    -0.74183    -2.09080
 H     0.44722     1.14395    -8.50319
 H    -0.12388    -0.25535    -9.49821
 H    -7.53963     0.47180    -2.16065
 H    -8.29964    -0.86404    -3.12370
 H    -0.98572     1.84008   -10.46951
 H    -1.69546     2.34687    -8.87685
Ir    -4.92765    -1.96601    -7.39752
 N    -0.33734    -1.99821     0.38611
 N    -1.91627     0.35883     0.71007
 C    -1.62117    -2.05159     1.18737
 C    -2.59681    -0.99256     0.60224
 C    -3.92558    -1.00726     1.36005
 C    -4.52946    -2.41625     1.38028
 C    -3.54678    -3.43665     1.96606
 C    -2.25002    -3.44645     1.15582
 H     0.43463    -2.39083     0.99319
 H    -0.40052    -2.57636    -0.49054
 H    -2.39727     1.04590     0.06948
 H    -2.00257     0.73437     1.69688
 H    -1.36426    -1.78556     2.26256
 H    -2.79626    -1.19455    -0.49754
 H    -4.60918    -0.30349     0.82426
 H    -3.77566    -0.65584     2.41398
 H    -5.44328    -2.39983     2.01349
 H    -4.81304    -2.71286     0.34415
 H    -3.98750    -4.45625     1.93421
 H    -3.33123    -3.18110     3.03245
 H    -2.46561    -3.75189     0.09979
 H    -1.53085    -4.16335     1.61128
 N     0.70836     0.24499     1.93461
 N     1.85341    -0.50123    -0.78305
 N     0.33076     2.02785    -0.24769
 N    -0.70489    -0.15812    -1.94413
 C     1.45186     1.56895     1.88848
 H     1.34246    -0.51403     2.27462
 H    -0.08540     0.32927     2.63320
 C     1.58415    -0.98723    -2.19767
 H     2.30035    -1.31081    -0.27332
 H     2.52721     0.30456    -0.76994
 C     0.49617     2.55691     1.16596
 H    -0.51779     2.46530    -0.68968
 H     1.17078     2.30570    -0.82840
 C     0.51197    -0.07006    -2.84749
 H    -1.35059     0.65186    -2.14165
 H    -1.23567    -1.04616    -2.17490
 C     1.81058     2.05726     3.29347
 H     2.41049     1.41658     1.29418
 C     2.85608    -1.04643    -3.04825
 H     1.16926    -2.04920    -2.10923
 C     1.03813     3.98655     1.18977
 H    -0.53089     2.55587     1.65514
 C     0.19077    -0.53217    -4.28144
 H     0.85465     1.00891    -2.86415
 C     2.35072     3.48739     3.27791
 H     0.88819     2.03146     3.93643
 H     2.59478     1.37004     3.69094
 C     2.48528    -1.59447    -4.43041
 H     3.30473    -0.02618    -3.14120
 H     3.57888    -1.73698    -2.55267
 C     1.32933     4.43065     2.63068
 H     0.25216     4.62971     0.72521
 H     1.97952     4.05948     0.58292
 C     1.47424    -0.66259    -5.11088
 H    -0.50067     0.21433    -4.74424
 H    -0.32767    -1.52406    -4.26616
 H     2.54531     3.80202     4.32675
 H     3.31084     3.52402     2.70690
 H     3.39833    -1.69894    -5.05209
 H     2.03361    -2.61540    -4.32218
 H     1.75059     5.46164     2.63394
 H     0.38116     4.43091     3.21843
 H     1.24301    -1.08144    -6.11695
 H     1.90401     0.35592    -5.22786
 N    -2.24773     5.74335    -2.11470
 O    -2.35783     6.52110    -3.07570
 O    -1.10306     5.33996    -1.77285
 O    -3.24478     5.33863    -1.49058
 N     6.53732     5.64632    -3.67039
 O     5.77359     5.65570    -4.64795
 O     7.58251     4.95042    -3.70509
 O     6.28070     6.30862    -2.64518
 N    -3.84044     2.25160    -4.91973
 O    -4.98420     2.35719    -5.40068
 O    -3.27433     1.13781    -4.90418
 O    -3.26911     3.25793    -4.44327
 N     3.14566     3.26733    -1.98890
 O     2.02576     3.78972    -1.81640
 O     3.37660     2.14510    -1.48575
 O     4.01499     3.86176    -2.65265
 N    -5.65122     3.27505    -0.64955
 O    -6.14092     4.39475    -0.43427
 O    -5.27073     2.56819     0.31529
 O    -5.52616     2.84707    -1.81385
 N    -2.29168    -3.04165    -3.17933
 O    -2.50877    -1.86117    -3.50685
 O    -1.40453    -3.28939    -2.32452
 O    -2.93365    -3.97516    -3.69903
 O    -2.46910     3.17236     0.09259
 H    -3.42128     3.01617     0.24624
 H    -2.36851     3.98653    -0.46575
 O     0.53503    -4.51719    -4.29452
 H    -0.09564    -4.10140    -3.67147
 H     0.34772    -4.19585    -5.20954
 O    -1.13092     2.68968    -2.81787
 H    -1.10399     3.61423    -2.49940
 H    -1.85470     2.60107    -3.49377
 O     6.56053     2.76338    -2.23646
 H     6.93405     3.44902    -2.82751
 H     5.61072     2.98659    -2.05735
 O    -3.52208     0.87862    -1.84784
 H    -3.47339     0.92511    -2.82291
 H    -4.24442     1.47585    -1.53044
 O    -1.73366    -6.40927    -3.34871
 H    -2.43080    -6.83295    -3.89388
 H    -1.99252    -5.46298    -3.18992
