  152
 
Zr     0.00000     0.00000     0.00000
 F    -1.74134    -7.36774     1.82185
 F    -3.20129    -5.42590     2.09323
 F    -3.69620    -7.33412     3.61369
 F    -1.74724    -4.30464     4.15094
 F    -0.69183    -7.72545     4.12913
 F    -0.10893    -5.58406     2.90139
 F    -2.50921    -6.31555     5.50145
Zr    -1.93893    -6.22387     3.50811
Zr    -5.29033     0.58890     4.60502
 F    -4.99107    -0.88812     3.19120
 F    -4.82487    -1.13443     5.62552
 F    -7.13618    -0.37953     4.64938
 F    -4.44883     1.55121     6.19126
 F    -5.63260     1.49872     2.81049
 F    -3.40588     1.12646     4.06795
 F    -6.73276     1.89079     5.31486
Zr     1.32105    -0.64392     8.30742
 F     1.14713     0.51243     9.98782
 F     0.07615     0.84488     7.65906
 F    -0.49942    -1.27530     8.95197
 F     1.91984    -0.57496     6.32434
 F     2.55869    -1.46070     9.73391
 F     3.09807     0.43078     8.21421
 F     1.07177    -2.54991     7.64573
 F    -0.26810     1.47387     1.42450
 F     0.34536    -0.90028     1.79848
 F    -1.88541    -0.53556     0.53681
 F     1.38855    -1.36688    -0.67849
 F    -0.38450     1.74586    -1.01541
 F     1.86957     0.91852    -0.10769
 F    -0.89437    -0.87461    -1.60692
 N    -6.69700    -3.25890     3.81675
 N    -4.55146    -4.14907     4.22801
 N    -5.97538    -5.23066     2.70642
 C    -5.72667    -4.19138     3.54789
 H    -6.43976    -2.46418     4.39717
 H    -7.39364    -3.03245     3.11408
 H    -3.95327    -4.96525     4.26464
 H    -4.33673    -3.42442     4.89614
 H    -5.28160    -5.93224     2.48839
 H    -6.78885    -5.20545     2.10076
 N    -7.12245    -1.30906     9.70257
 N    -5.67523    -0.14628     8.25264
 N    -7.07412    -1.84715     7.38425
 C    -6.61273    -1.13314     8.43688
 H    -6.47368    -1.16959    10.48344
 H    -7.74815    -2.09221     9.87012
 H    -5.42699     0.12963     7.30194
 H    -5.68470     0.64389     8.89666
 H    -6.81489    -1.61500     6.43405
 H    -7.45899    -2.77709     7.50940
 N    -2.14564    -1.20234     3.66258
 N    -0.56498     0.32626     4.57698
 N    -1.90024    -0.98919     6.01352
 C    -1.58387    -0.59579     4.75152
 H    -2.19422    -0.67982     2.78962
 H    -2.95373    -1.80175     3.81614
 H     0.01674     0.55157     5.37664
 H    -0.03759     0.31169     3.70567
 H    -1.41559    -0.61360     6.82232
 H    -2.80129    -1.38385     6.22334
 N    -0.43065    -5.38993     0.13619
 N     1.09423    -3.73566     0.84394
 N    -1.23172    -3.46957     1.29235
 C    -0.21165    -4.21457     0.80758
 H     0.31314    -6.08851     0.13830
 H    -1.35019    -5.80929     0.21621
 H     1.23743    -2.80591     1.21744
 H     1.67053    -3.91371     0.02832
 H    -1.06649    -2.58395     1.76137
 H    -2.12317    -3.86868     1.54562
 N     1.47243     3.84545     0.75360
 N    -0.75667     4.59408     0.46923
 N     0.70462     5.80312     1.85472
 C     0.46421     4.72851     1.05547
 H     1.20514     2.96788     0.30528
 H     2.25200     3.73693     1.39676
 H    -1.40162     5.37577     0.46415
 H    -0.91938     3.92364    -0.27164
 H    -0.00881     6.48868     2.06401
 H     1.49398     5.79090     2.49134
 N     1.89660     1.92155    -5.10100
 N     0.48062     0.73274    -3.63496
 N     1.83539     2.47743    -2.78747
 C     1.39608     1.74078    -3.83214
 H     1.26108     1.73232    -5.88130
 H     2.48670     2.72909    -5.28437
 H     0.29596     0.43102    -2.67593
 H     0.48596    -0.05138    -4.28576
 H     1.57557     2.25725    -1.83454
 H     2.22039     3.40587    -2.92341
 N    -3.13383     1.77627     0.90826
 N    -4.74365     0.29924    -0.03710
 N    -3.27448     1.48971    -1.44698
 C    -3.66942     1.16090    -0.19024
 H    -3.12972     1.27110     1.79388
 H    -2.30499     2.35207     0.77393
 H    -5.28748     0.06963    -0.86156
 H    -5.32743     0.38857     0.79090
 H    -3.73535     1.10093    -2.26280
 H    -2.33924     1.81456    -1.63523
 N    -4.82724     6.03803     4.44184
 N    -6.35786     4.35094     3.81360
 N    -4.04380     4.07874     3.33362
 C    -5.05547     4.83909     3.81715
 H    -5.56847     6.73959     4.41786
 H    -3.90310     6.44648     4.35255
 H    -6.49809     3.40172     3.48617
 H    -6.93450     4.56589     4.61887
 H    -4.21365     3.17044     2.91547
 H    -3.15980     4.46869     3.05073
 N    -4.22077    -2.53762     0.89730
 N    -4.82556    -4.34644    -0.51021
 C    -4.27430    -3.08327    -0.35015
 H    -3.92951    -1.56753     1.01563
 H    -5.38474    -4.70766     0.25938
 H    -5.20221    -4.56899    -1.42281
 H    -4.75041    -2.93314     1.65741
 N    -3.71603    -2.44774    -1.40850
 H    -3.24029    -1.55241    -1.28686
 H    -3.47889    -2.94788    -2.26044
 N    -3.29989    -2.24616     8.58972
 N    -4.08638    -3.84377     7.02123
 C    -3.08091    -3.36617     7.85174
 H    -2.62716    -1.95901     9.30530
 H    -5.02194    -3.45923     7.15504
 H    -4.08555    -4.84134     6.84454
 H    -4.22484    -1.84632     8.67609
 N    -1.86051    -3.95333     7.83389
 H    -1.07970    -3.54388     8.34543
 H    -1.59680    -4.60572     7.10124
 N    -1.04387     3.17660     3.75944
 N    -1.64859     3.02716     6.03532
 C    -1.01887     3.67273     5.02691
 H    -0.46193     3.56731     3.03551
 H    -2.09358     2.12078     5.87539
 H    -1.93299     3.50316     6.88591
 H    -1.36350     2.22140     3.59445
 N    -0.42515     4.91001     5.24453
 H     0.16342     5.27648     4.49720
 H    -0.05350     5.08389     6.17104
 N     2.71565    -4.64971     3.24420
 N     1.28280    -2.93847     4.01178
 C     2.49719    -3.54204     4.00000
 H     3.63556    -5.05912     3.16179
 H     0.49615    -3.34427     3.50651
 H     1.02326    -2.28757     4.74706
 H     2.03980    -4.92287     2.52323
 N     3.50262    -3.08333     4.84224
 H     4.43739    -3.46595     4.69776
 H     3.50247    -2.09042     5.04385
