   84
 
 W     0.00000     0.00000     0.00000
 W   -10.58949    -5.52052    -0.00596
 W    -6.69247    -0.07213    -0.00926
Br   -10.86286    -7.92938    -0.41504
Br   -11.79720    -5.01998    -2.08571
Br   -12.70543    -5.48351     1.24511
Br    -6.41773     2.33804     0.40628
Br    -5.48671    -0.57046     2.07573
Br    -4.57291    -0.10264    -1.25144
Br    -6.96663    -2.47898    -0.41829
Br    -7.89988     0.43223    -2.08913
Br    -8.81409    -0.03819     1.23639
Br     0.27718     2.40741     0.41590
Br     1.20021    -0.51008     2.08541
Br     2.12524    -0.03510    -1.23267
Br    -0.28115    -2.40800    -0.41352
Br    -1.20371     0.50746    -2.08192
Br    -2.12371     0.03771     1.24241
Br   -10.31013    -3.11136     0.40485
Br    -9.37938    -6.01997     2.07671
Br    -8.46910    -5.55417    -1.25160
 W    -0.02216     3.38852    -4.98825
 W   -10.60271    -2.13395    -4.99511
 W    -6.71229     3.31913    -4.99364
Br   -10.87084    -4.54302    -5.40232
Br   -11.81727    -1.63660    -7.07558
Br   -12.72071    -2.10373    -3.74420
Br    -6.43945     5.72844    -4.58575
Br    -5.50407     2.81994    -2.91306
Br    -4.59438     3.28597    -6.24196
Br    -6.98549     0.91199    -5.40840
Br    -7.92789     3.81707    -7.07321
Br    -8.82947     3.34804    -3.74640
Br     0.25623     5.79821    -4.57740
Br     1.18817     2.88492    -2.90746
Br     2.09582     3.34837    -6.23685
Br    -0.30299     0.98349    -5.40283
Br    -1.23758     3.89278    -7.06615
Br    -2.13831     3.42670    -3.73570
Br   -10.32944     0.27740    -4.58948
Br    -9.39701    -2.62615    -2.91084
Br    -8.48495    -2.16432    -6.24054
 W     2.78326    -5.34814     0.00003
 W    -7.80118   -10.86380    -0.00242
 W    -3.91574    -5.41187    -0.00565
Br    -8.08329   -13.27276    -0.41574
Br    -9.00617   -10.36254    -2.08579
Br    -9.92271   -10.82938     1.24201
Br    -3.64031    -3.00415     0.41093
Br    -2.70615    -5.91571     2.07606
Br    -1.79351    -5.44441    -1.25138
Br    -4.19479    -7.82184    -0.41394
Br    -5.11492    -4.90843    -2.09209
Br    -6.03862    -5.37563     1.23328
Br     3.05654    -2.94226     0.41737
Br     3.98584    -5.86074     2.08306
Br     4.90767    -5.38181    -1.23937
Br     2.49944    -7.75714    -0.41241
Br     1.58209    -4.84283    -2.08565
Br     0.65686    -5.31347     1.23546
Br    -7.52943    -8.45676     0.41229
Br    -6.58790   -11.36781     2.07544
Br    -5.68580   -10.89508    -1.25229
 W     2.75780    -1.95459    -4.98191
 W    -7.82449    -7.47391    -4.97935
 W    -3.93657    -2.02146    -4.98748
Br    -8.09752    -9.88437    -5.39414
Br    -9.03129    -6.97297    -7.06306
Br    -9.94258    -7.44586    -3.73453
Br    -3.66054     0.38518    -4.57760
Br    -2.72539    -2.52462    -2.90818
Br    -1.81811    -2.05645    -6.23728
Br    -4.21399    -4.43046    -5.40334
Br    -5.14482    -1.52056    -7.07060
Br    -6.05620    -1.98956    -3.74523
Br     3.03519     0.45131    -4.56879
Br     3.97093    -2.46144    -2.90276
Br     4.87275    -1.99471    -6.23374
Br     2.47410    -4.36326    -5.39336
Br     1.54388    -1.45405    -7.06087
Br     0.63872    -1.91677    -3.73208
Br    -7.55065    -5.06618    -4.57135
Br    -6.61269    -7.97426    -2.90214
Br    -5.70470    -7.50391    -6.23082
