  104
 
 O     0.00000     0.00000     0.00000
 H     0.35361    -3.76261    -3.01050
 H    -0.20892    -5.22169    -2.28518
 H    -2.62936    -5.73149    -2.43631
 H    -3.64169    -4.56655    -3.23680
 H    -1.18261    -2.04427    -3.32664
 N    -0.43137    -4.29779    -2.64486
 N    -2.74227    -4.81827    -2.85026
 O    -1.97004    -2.78031    -3.47698
 C    -1.69447    -3.97836    -3.00041
 C    -0.15442    -0.11285     2.59778
 H    -2.15772     0.36315     2.40747
 H    -1.76915    -1.26758     2.02193
 H     0.60447    -2.00337     2.25767
 H     1.73282    -0.85638     2.91761
 H    -0.46791     1.87492     2.75157
 N    -1.43945    -0.34245     2.27210
 N     0.81081    -1.06100     2.56157
 O     0.25115     1.09888     2.94861
 C     1.80725     5.06673    -0.48412
 H    -0.23415     4.80105    -0.56326
 H     0.30895     6.33323    -1.13313
 H     2.74306     6.83888    -0.99211
 H     3.74037     5.66449    -0.18904
 H     1.29282     3.13107    -0.15604
 N     0.54774     5.39161    -0.83712
 N     2.86034     5.90652    -0.62404
 O     2.09339     3.86044    -0.03780
 C    -3.77504     1.20851    -0.17886
 H    -1.76628     0.75511    -0.01382
 H    -2.16886     2.37008     0.41931
 H    -4.57759     3.06094     0.22636
 H    -5.68038     1.92676    -0.44488
 H    -3.44352    -0.77825    -0.33613
 N    -2.49384     1.44566     0.15487
 N    -4.72098     2.17870    -0.24646
 O    -4.17708    -0.00328    -0.51408
 N    -0.58164     0.15478    -3.00242
 O    -0.14638    -1.02225    -3.16424
 O    -1.65519     0.36172    -2.42290
 O     0.12479     1.09402    -3.38800
 N    -0.96131     4.09964     2.33352
 O    -1.46579     2.96179     2.53963
 O     0.12284     4.22669     1.75115
 O    -1.60285     5.09381     2.70392
 N     0.69796     0.93878    -0.40409
 O     0.25326     2.11541    -0.25990
 O     1.77131     0.73102    -0.98129
 N    -2.91638    -2.95915     0.18614
 O    -2.43085    -1.82028    -0.07236
 O    -4.02539    -3.07369     0.72205
 O    -2.21482    -3.95008    -0.05328
 O     4.11319    -0.02496    -5.93886
 H     4.37572    -3.67205    -8.70845
 H     3.84778    -5.22382    -8.18643
 H     1.40608    -5.74918    -8.36045
 H     0.42091    -4.61277    -9.20072
 H     2.81335    -2.03347    -9.14098
 N     3.59609    -4.28029    -8.47144
 N     1.34876    -4.91076    -8.92293
 O     2.02780    -2.77353    -9.28131
 C     2.34240    -3.98440    -8.86930
 C     3.89456    -0.09083    -3.27599
 H     1.88772     0.35936    -3.46990
 H     2.30555    -1.24143    -3.93905
 H     4.70808    -1.94743    -3.65795
 H     5.78547    -0.81278    -2.94127
 H     3.55609     1.90032    -3.11947
 N     2.62162    -0.32290    -3.64851
 N     4.83531    -1.06477    -3.18138
 O     4.29287     1.11840    -2.93543
 C     5.85495     5.03062    -6.30280
 H     3.82536     4.69765    -6.45846
 H     4.33275     6.26845    -6.95595
 H     6.76110     6.80433    -6.81888
 H     7.77626     5.67666    -5.99798
 H     5.37285     3.08340    -6.05292
 N     4.59168     5.33151    -6.66129
 N     6.84571     5.96013    -6.26738
 O     6.16883     3.81432    -5.90870
 C     0.28668     1.18975    -6.09791
 H     2.29503     0.72383    -5.93947
 H     1.90773     2.34850    -5.54356
 H    -0.46019     3.09036    -5.78914
 H    -1.60208     1.93544    -6.40513
 H     0.60520    -0.80131    -6.26958
 N     1.57437     1.41991    -5.77393
 N    -0.67789     2.13838    -6.05197
 O    -0.12296    -0.02210    -6.43404
 N     3.39217     0.15219    -8.85555
 O     3.85055    -1.02241    -8.96004
 O     2.30381     0.36410    -8.30692
 O     4.09024     1.08646    -9.26887
 N     3.03760     4.04408    -3.72149
 O     2.55406     2.91262    -3.41830
 O     4.17118     4.14645    -4.20396
 O     2.30528     5.03123    -3.58593
 N     4.79923     0.91648    -6.35235
 O     4.32941     2.08780    -6.23751
 O     5.88344     0.72051    -6.91343
 N     1.10445    -3.02094    -5.89314
 O     1.60449    -1.88747    -6.13433
 O     0.00192    -3.13479    -5.34514
 O     1.73591    -4.02432    -6.25783
