  152
 
 C     0.00000     0.00000     0.00000
 C     2.36529    -0.31766    -0.03990
 C     2.58170     1.07352     0.01885
 C     1.50096     1.98888     0.11764
 C     4.61396     0.07204     0.06073
 N     0.22377     1.37305     0.16830
 H    -0.60954     1.99220     0.16100
 N     1.10826    -0.86757    -0.04863
 H     0.93174    -1.88924    -0.07587
 N     3.97770     1.30853    -0.04618
 H     4.39698     2.19039     0.26175
 N     3.59712    -0.93840    -0.08154
 H     3.77886    -1.93173    -0.05965
 O    -1.12800    -0.45549    -0.05602
 O     1.57291     3.20151     0.18119
 O     5.79860    -0.16471     0.11124
 C    -8.77830     5.56114    -3.10915
 C    -6.44261     5.97791    -2.84880
 C    -6.15690     4.60394    -2.96832
 C    -7.19364     3.63570    -3.08740
 C    -4.17898     5.68377    -2.74990
 N    -8.48145     4.19742    -3.24342
 H    -9.27852     3.53125    -3.29731
 N    -7.71812     6.47494    -2.91663
 H    -7.96139     7.45632    -2.67960
 N    -4.76001     4.43487    -2.87651
 H    -4.27102     3.57879    -3.12097
 N    -5.24169     6.64830    -2.67141
 H    -5.10199     7.64859    -2.70264
 O    -9.92237     5.96533    -3.19884
 O    -7.08958     2.42611    -3.06872
 O    -2.99926     5.94409    -2.62477
 C    -3.33245     2.46080    -0.13304
 C    -5.69471     2.79360    -0.04199
 C    -5.92590     1.41220    -0.19484
 C    -4.84834     0.48349    -0.24817
 C    -7.94882     2.43146    -0.05911
 N    -3.56798     1.09151    -0.31332
 H    -2.73869     0.46604    -0.30491
 N    -4.43192     3.32480     0.02188
 H    -4.25302     4.35233     0.08928
 N    -7.32074     1.20310    -0.16374
 H    -7.77062     0.32524    -0.40199
 N    -6.91831     3.42363     0.09766
 H    -7.09388     4.41966     0.09395
 O    -2.20201     2.91319    -0.11283
 O    -4.91607    -0.72866    -0.24446
 O    -9.14300     2.64313     0.04566
 C     5.23458     3.31163    -2.59128
 C     2.90680     2.86284    -2.85271
 C     2.59581     4.23429    -2.78520
 C     3.61595     5.21436    -2.63009
 C     0.64081     3.10500    -2.98229
 N     4.92756     4.67912    -2.60609
 H     5.70035     5.35175    -2.42967
 N     4.18686     2.37826    -2.76513
 H     4.39260     1.37502    -2.61057
 N     1.19709     4.37950    -2.95286
 H     0.69100     5.21698    -2.66324
 N     1.72606     2.16896    -3.04539
 H     1.60461     1.16545    -3.01541
 O     6.37726     2.91924    -2.45339
 O     3.48460     6.41906    -2.55657
 O    -0.52100     2.78542    -3.12098
 O   -11.82387     3.20030    -0.43765
 O    -3.06143     2.18647    -3.02423
 O    -8.66865    -1.28375    -0.40551
 O    -0.55664     0.19995     2.99739
 H   -11.07085     3.42989    -0.99604
 H   -11.42799     3.19859     0.45241
 H    -2.35965     2.35738    -2.37610
 H    -2.56428     2.15162    -3.86709
 H    -8.95677    -1.21775    -1.33504
 H    -9.51133    -1.38487     0.06606
 H    -1.27798     0.08746     3.64819
 H    -1.05222     0.22808     2.16592
 C     0.38513    -3.73886    -3.08286
 C     2.75135    -4.04754    -3.15821
 C     2.96483    -2.65736    -3.10980
 C     1.87929    -1.74554    -3.00931
 C     4.99461    -3.66050    -3.07092
 N     0.60429    -2.36219    -2.95076
 H    -0.22974    -1.74370    -2.96536
 N     1.49668    -4.60048    -3.16845
 H     1.33219    -5.62782    -3.09162
 N     4.35892    -2.42444    -3.17220
 H     4.78640    -1.53841    -2.89015
 N     3.98340    -4.67260    -3.19914
 H     4.16850    -5.66315    -3.14401
 O    -0.74005    -4.20766    -3.09739
 O     1.94926    -0.53447    -2.94480
 O     6.18241    -3.88489    -2.98426
 C    -8.42235     1.80728    -6.22150
 C    -6.08484     2.23923    -6.00094
 C    -5.78324     0.87062    -6.14315
 C    -6.81170    -0.09922    -6.30273
 C    -3.81771     1.97348    -5.88152
 N    -8.11339     0.44970    -6.35716
 H    -8.90124    -0.22260    -6.44447
 N    -7.36561     2.71974    -6.01414
 H    -7.60307     3.73109    -5.90787
 N    -4.38469     0.70914    -6.00635
 H    -3.89130    -0.10787    -6.36337
 N    -4.89509     2.92157    -5.80353
 H    -4.76948     3.92268    -5.79313
 O    -9.56943     2.20585    -6.29389
 O    -6.70235    -1.30714    -6.40123
 O    -2.65159     2.25668    -5.69095
 C    -2.91473    -1.26399    -3.23020
 C    -5.27647    -0.93543    -3.14439
 C    -5.50674    -2.31601    -3.31184
 C    -4.42706    -3.24037    -3.39178
 C    -7.52693    -1.29892    -3.18162
 N    -3.14576    -2.63039    -3.43787
 H    -2.31703    -3.25639    -3.41628
 N    -4.01591    -0.39986    -3.10328
 H    -3.83195     0.61040    -2.90206
 N    -6.90297    -2.53306    -3.27621
 H    -7.34797    -3.40307    -3.55710
 N    -6.49899    -0.30552    -3.02120
 H    -6.67900     0.68733    -2.95802
 O    -1.78590    -0.80701    -3.19962
 O    -4.49385    -4.45216    -3.43760
 O    -8.71454    -1.05560    -3.08263
 C     5.58870    -0.41391    -5.75390
 C     3.26156    -0.86561    -5.98481
 C     2.94894     0.50734    -5.92939
 C     3.97078     1.49071    -5.79792
 C     1.00008    -0.63113    -6.12720
 N     5.28374     0.95140    -5.77645
 H     6.06551     1.63131    -5.68367
 N     4.54077    -1.34529    -5.89991
 H     4.75538    -2.35503    -5.78702
 N     1.54914     0.64472    -6.09178
 H     1.03287     1.49504    -5.87003
 N     2.08570    -1.56576    -6.16514
 H     1.97425    -2.57412    -6.16099
 O     6.73208    -0.81266    -5.62077
 O     3.83447     2.69586    -5.73974
 O    -0.15520    -0.96733    -6.26737
 O   -11.32363    -0.67028    -3.62613
 O    -2.64737    -1.41360    -6.28867
 O    -8.21127    -5.00232    -3.54824
 O    -0.13680    -3.47618    -0.18681
 H   -10.65365    -0.44533    -4.28590
 H   -10.77848    -0.80388    -2.82659
 H    -2.05932    -1.27644    -5.52645
 H    -2.02809    -1.29945    -7.04048
 H    -8.35154    -4.95642    -4.51084
 H    -9.11181    -5.14356    -3.22083
 H    -0.70470    -3.58325     0.59775
 H    -0.78580    -3.43527    -0.90353
