   72
 
 V     0.00000     0.00000     0.00000
 V     2.78552    -3.40028    -0.39384
 F     2.76342    -1.62066    -1.32304
 F     0.28150    -1.88920     0.26508
 F    -0.14314    -2.79372    -1.63792
 F    -1.04506     1.59917    -0.78667
 V     4.70286    -0.24101     2.60383
 V     6.24237    -3.77199     2.63813
 F     5.09554    -2.08771     2.56594
 F     3.53407    -1.27643     3.83066
 F     2.65124    -2.52787     1.33790
 F     2.11261     1.70435     2.48599
 V     3.78955    -3.33332    -4.05794
 V     5.51349    -6.49800    -2.69218
 F     4.38018    -5.19219    -3.50588
 F     3.05790    -3.88251    -2.37273
 F     2.35428    -5.94489    -4.94672
 F     0.77838    -2.16360    -3.52370
 V     6.00463    -3.10434    -0.75567
 V     8.94893    -6.58605    -0.83666
 F     8.68817    -4.68331    -1.44781
 F     6.19282    -5.05247    -0.03545
 F     5.87606    -4.65527    -2.06391
 F     4.84256    -1.40737    -0.49042
 V     1.55282     2.98201    -2.59266
 V     3.64865     0.08435    -0.86763
 F     2.57478     1.61987    -1.64284
 F     0.67607     1.93800     0.52365
 F     1.26384     1.11490    -3.25521
 F     0.62163     4.70138    -2.29469
 V     4.87065     3.30848     1.07007
 V     7.71508    -0.35584     1.57227
 F     6.34686     2.29298     0.05113
 F     4.92013     1.41746     1.91683
 F     4.20503     1.78744    -0.11767
 F     3.21781     4.29327     1.77073
 V     3.73727     0.01593    -5.96591
 V     7.16550    -2.71542    -5.16119
 F     6.70725    -1.13042    -6.09827
 F     4.07567    -1.81376    -4.99249
 F     3.97169    -1.45968    -7.14171
 F     2.24798     0.93768    -5.19672
 V     7.02838     0.28548    -2.46510
 V     9.30316    -2.88085    -1.68969
 F     8.45939    -1.25107    -2.13664
 F     6.92194    -1.57295     0.24751
 F     6.34801    -1.43368    -1.99422
 F     5.84525     1.96311    -2.56456
 V     3.27720     7.07856    -2.30927
 V     5.16400     3.76779    -2.76627
 F     3.83345     5.14087    -2.27508
 F     2.14880     5.95012    -1.14888
 F     1.65196     4.25464    -4.12276
 F     0.16260     8.17694    -2.02270
 V     5.02807     7.15599     0.60315
 V     7.54423     3.69035     0.08493
 F     8.05651     5.58673    -0.08463
 F     5.34702     4.74561     2.38758
 F     4.81367     5.33531     0.38936
 F     4.19286     8.88944     1.10401
 V     4.34023     3.76874    -5.74630
 V     6.95569     0.97258    -6.05516
 F     7.33587     2.88570    -5.63099
 F     4.68415     2.56393    -4.25908
 F     3.90888     1.94061    -6.18420
 F     3.66308     5.52156    -5.44488
 V     8.90526     3.98392    -2.73894
 V    11.38015     0.67534    -3.34277
 F     9.97368     1.84968    -3.06266
 F     7.96740     2.37825    -2.43502
 F     7.23936     1.26578    -4.19190
 F     5.90864     5.61797    -2.37514
