   96
 
Cl     0.00000     0.00000     0.00000
Cl    -1.62645    -2.75610    -0.00939
Cl    -3.17170     0.02135    -0.00959
Cl    -3.12924     1.83935    -3.03422
Cl    -1.55246    -0.91439    -3.03882
Cl    -0.01615    -3.68898    -3.03384
Cl    -1.60415    -2.77510   -11.63409
Cl    -3.17691    -0.01120   -11.63277
Cl     0.02084    -0.05216   -11.62384
Cl    -0.03938    -3.70810     2.77417
Cl    -3.15954     1.86693     2.77569
Cl    -1.61159    -0.90750     2.77160
Cl    -3.13246     0.03658    -5.82587
Cl     0.03776    -0.01689    -5.81019
Cl    -1.56225    -2.76137    -5.82520
Cl    -1.59151    -0.96168    -8.85123
Cl    -0.02048    -3.72307    -8.84820
Cl    -3.16857     1.84026    -8.85012
 V    -1.58545     0.92960     1.38586
 V    -1.53954     0.92312    -4.42318
 V    -3.19052    -1.84742   -10.24912
 V    -3.20040    -1.81467     1.37695
 V     0.02233    -1.85535    -4.42626
 V    -0.00611    -1.88936   -10.23627
Cl     0.04892     5.51979     0.01784
Cl    -1.56944     2.76890     0.00393
Cl    -3.12092     5.54297     0.00716
Cl    -3.08146     7.37175    -3.02468
Cl    -1.50915     4.60776    -3.02475
Cl     0.03750     1.83535    -3.01966
Cl    -1.55368     2.75606   -11.62606
Cl    -3.12971     5.51280   -11.61875
Cl     0.07232     5.47149   -11.60930
Cl     0.00963     1.81493     2.78536
Cl    -3.10532     7.39140     2.79027
Cl    -1.56593     4.61376     2.79125
Cl    -3.08633     5.56325    -5.81194
Cl     0.08128     5.50430    -5.79702
Cl    -1.51219     2.76017    -5.81076
Cl    -1.54797     4.56294    -8.83714
Cl     0.02524     1.79827    -8.83579
Cl    -3.12257     7.36418    -8.83241
 V    -1.53295     6.44916     1.40356
 V    -1.49290     6.44615    -4.40782
 V    -3.14309     3.67502   -10.23657
 V    -3.14838     3.70524     1.39173
 V     0.06858     3.66934    -4.41034
 V     0.03891     3.63475   -10.22128
Cl     4.75166    -2.81634     0.01256
Cl     3.11364    -5.58305     0.00037
Cl     1.57815    -2.80338    -0.00073
Cl     1.61947    -0.98097    -3.02152
Cl     3.19261    -3.73917    -3.02881
Cl     4.73602    -6.51382    -3.02730
Cl     3.13902    -5.59855   -11.61834
Cl     1.56810    -2.82792   -11.62374
Cl     4.76923    -2.87323   -11.61135
Cl     4.70564    -6.53120     2.78762
Cl     1.58184    -0.95989     2.78530
Cl     3.13555    -3.73431     2.78176
Cl     1.60722    -2.78378    -5.81266
Cl     4.78426    -2.84059    -5.79882
Cl     3.18730    -5.58814    -5.81631
Cl     3.14889    -3.78149    -8.83879
Cl     4.72995    -6.53914    -8.83455
Cl     1.57930    -0.98184    -8.83927
 V     3.16035    -1.89598     1.39801
 V     3.20539    -1.90194    -4.41257
 V     1.55200    -4.66589   -10.23826
 V     1.54320    -4.63902     1.38927
 V     4.76918    -4.67913    -4.41564
 V     4.73740    -4.70729   -10.22243
Cl     4.79889     2.70263     0.02931
Cl     3.17387    -0.05671     0.01536
Cl     1.62848     2.71743     0.01579
Cl     1.66837     4.55289    -3.01247
Cl     3.23487     1.78214    -3.01423
Cl     4.78941    -0.99071    -3.01400
Cl     3.19132    -0.06659   -11.61041
Cl     1.61706     2.69542   -11.60787
Cl     4.82013     2.64974   -11.59528
Cl     4.75336    -1.00934     2.80030
Cl     1.64049     4.56698     2.80296
Cl     3.17874     1.78709     2.80276
Cl     1.65366     2.74303    -5.79874
Cl     4.82849     2.68112    -5.78453
Cl     3.23619    -0.06667    -5.80191
Cl     3.19534     1.74131    -8.82247
Cl     4.77490    -1.01934    -8.82334
Cl     1.62306     4.54166    -8.82197
 V     3.21325     3.62342     1.41577
 V     3.25263     3.62140    -4.39670
 V     1.60110     0.85690   -10.22442
 V     1.59549     0.88033     1.40305
 V     4.81508     0.84514    -4.39983
 V     4.78488     0.81695   -10.20718
