  360
 
Ca     0.00000     0.00000     0.00000
 O    -5.17487     1.53052     1.50363
 O    -5.92265     3.64344     1.50363
 O    -7.36715     1.98584     1.15736
Ca    -3.03122     4.18385    -2.31820
Ca    -3.78450     4.30153     2.09125
Ca    -4.14802     0.64434    -0.52928
 C    -6.65967    -1.39403    -1.34048
 O    -5.10832     5.14836    -1.74710
 O    -7.80972    -0.93246    -0.93623
 O    -5.58853    -1.31102    -0.60235
 C    -1.76497     2.73061     0.28794
 O    -2.82957     2.70045    -0.45495
 O    -1.81569     3.26432     1.46298
 O    -0.63883     2.23124    -0.11770
 O    -2.24360    -0.28542     0.48503
 O    -6.05517     1.55652    -1.55649
 O    -3.79765    -1.07215     1.87159
 O    -4.49417     2.41272    -2.89355
Ca     0.99951     3.25893    -1.48455
Ca    -7.05278     5.20386    -3.08220
Ca    -8.27687     1.48146    -0.92048
Ca     0.71043     0.01139    -4.00220
Ca    -7.88022     4.91275     1.22396
 O    -0.80303     4.75181    -1.79016
 O    -2.98926    -0.22406    -2.47942
 C    -6.15233     2.37700     1.38889
 C    -2.01205    -1.08541    -2.41754
 O    -0.77891    -0.71074    -2.22239
 C    -2.54964    -0.98382     1.52830
 O     0.30946     2.38873    -3.60148
 C     1.38840    -2.79905     0.19485
 O     1.63323     3.94878     0.71446
 O     1.67971    -1.54981     0.35090
 O     2.34070    -3.67490     0.29078
 O     2.77661    -0.12789    -2.89180
 O     1.62233     0.97882    -1.34466
Ca     5.06251     2.43918    -0.69882
Ca     4.81601    -0.93829    -3.62332
Ca     3.96575    -1.23863     0.80000
 O     3.30973     3.42465    -1.93456
 O     0.80806     0.80912     2.17750
 C     1.72801     0.16265     2.83782
 O     2.98292     0.20675     2.48723
 C     2.73368     0.43124    -1.72834
 O     3.78967     0.43335    -0.97267
 C     6.08416    -2.59591    -1.28924
 O     4.82416    -2.67067    -0.98432
 O     6.45962    -1.88929    -2.30277
 O     6.98875    -3.21626    -0.59693
 O     6.24669    -0.92871     1.27043
 O     5.60160     1.20142     1.24712
Ca     9.14751     1.62604    -0.02904
Ca     7.97631    -2.46142     1.36689
Ca     8.79344    -1.93519    -2.58034
 O     7.17009     1.57745    -1.31680
 O     4.29126    -2.91538     2.52755
 C     5.32692    -2.94806     3.31838
 O     6.44149    -3.52534     2.96683
 C     6.54365     0.32252     1.39707
 O     7.76371     0.67300     1.67055
 C     9.75562    -1.74860     3.84164
 O    10.54690     2.74646    -1.60867
 O     9.87362    -2.29753     2.67850
 O    10.78608    -1.73784     4.62916
 O    11.12808    -1.96307    -2.84535
 O     8.66806    -4.67361     1.20389
Ca   -11.09660     6.21638    -3.72986
Ca   -12.02130     5.50640     0.59057
Ca   -12.27812     2.36405    -1.97499
 O    10.97137     0.14085     0.16005
 O     9.50128    -1.48889    -0.30006
 C    10.70979    -1.12179     0.02465
 O   -12.65729     3.50871    -4.08527
 C     9.57692    -5.24968     1.92866
 O   -13.48038     0.34926    -2.65927
 C   -11.08172     0.34660     0.30479
 O   -12.05320     1.19551     0.15933
 O    -9.83489     6.18289     0.92301
 O    -9.87714     0.73471     0.59034
 O   -10.10524     1.54568    -2.33608
 O   -11.04082     0.91062    -4.25240
 O    -9.35450     5.13430    -2.56313
 O   -10.96275     4.27518    -1.25679
 C    -9.69699     4.42740    -1.53053
 O    -8.76619     3.88904    -0.79336
 C    -9.99530     0.97046    -3.48724
 O    -7.38345     7.57136    -3.09151
 C    -5.74645     2.28011    -2.58272
 O    -6.68397     2.85085    -3.27585
Ca     1.92421     3.96891    -5.80498
 O    -3.25066     5.49943    -4.30135
 O    -3.99845     7.61235    -4.30135
 O    -5.44295     5.95475    -4.64762
Ca    -1.10702     8.15277    -8.12318
Ca    -1.86030     8.27044    -3.71373
Ca    -2.22381     4.61325    -6.33426
 C    -4.73547     2.57488    -7.14546
 O    -3.18411     9.11727    -7.55208
 O    -5.88552     3.03645    -6.74121
 O    -3.66432     2.65789    -6.40733
 C     0.15923     6.69952    -5.51704
 O    -0.90536     6.66936    -6.25993
 O     0.10851     7.23323    -4.34200
 O     1.28538     6.20015    -5.92268
 O    -0.31940     3.68349    -5.31995
 O    -4.13097     5.52543    -7.36147
 O    -1.87344     2.89676    -3.93339
 O    -2.56996     6.38163    -8.69853
Ca     2.92372     7.22784    -7.28953
Ca    -5.12857     9.17277    -8.88718
Ca    -6.35266     5.45037    -6.72546
Ca     2.63464     3.98030    -9.80718
Ca    -5.95602     8.88166    -4.58102
 O     1.12117     8.72072    -7.59514
 O    -1.06505     3.74485    -8.28440
 C    -4.22812     6.34591    -4.41609
 C    -0.08784     2.88350    -8.22252
 O     1.14529     3.25818    -8.02737
 C    -0.62543     2.98509    -4.27668
 O     2.23367     6.35764    -9.40646
 C     3.31261     1.16986    -5.61013
 O     3.55743     7.91769    -5.09052
 O     3.60391     2.41911    -5.45408
 O     4.26490     0.29401    -5.51420
 O     4.70082     3.84102    -8.69678
 O     3.54653     4.94773    -7.14964
Ca     6.98672     6.40809    -6.50380
Ca     6.74021     3.03062    -9.42830
Ca     5.88996     2.73029    -5.00498
 O     5.23394     7.39356    -7.73954
 O     2.73227     4.77803    -3.62748
 C     3.65222     4.13156    -2.96716
 O     4.90712     4.17566    -3.31775
 C     4.65789     4.40015    -7.53332
 O     5.71388     4.40226    -6.77765
 C     8.00837     1.37300    -7.09422
 O     6.74836     1.29825    -6.78930
 O     8.38383     2.07962    -8.10775
 O     8.91296     0.75265    -6.40191
 O     8.17090     3.04020    -4.53455
 O     7.52581     5.17033    -4.55786
Ca    11.07172     5.59495    -5.83402
Ca     9.90052     1.50750    -4.43809
Ca    10.71765     2.03372    -8.38532
 O     9.09430     5.54636    -7.12178
 O     6.21547     1.05353    -3.27743
 C     7.25113     1.02085    -2.48660
 O     8.36569     0.44357    -2.83815
 C     8.46786     4.29143    -4.40791
 O     9.68791     4.64191    -4.13443
 C    11.67982     2.22031    -1.96334
 O    12.47111     6.71537    -7.41365
 O    11.79783     1.67139    -3.12648
 O    12.71029     2.23107    -1.17582
 O    13.05228     2.00584    -8.65033
 O    10.59226    -0.70470    -4.60109
Ca    -9.17240    10.18529    -9.53484
Ca   -10.09709     9.47531    -5.21441
Ca   -10.35391     6.33296    -7.77997
 O    12.89557     4.10976    -5.64493
 O    11.42549     2.48002    -6.10504
 C    12.63400     2.84712    -5.78033
 O   -10.73309     7.47762    -9.89025
 C    11.50113    -1.28077    -3.87632
 O   -11.55618     4.31817    -8.46425
 C    -9.15752     4.31551    -5.50019
 O   -10.12900     5.16442    -5.64565
 O    -7.91068    10.15180    -4.88197
 O    -7.95294     4.70363    -5.21464
 O    -8.18103     5.51460    -8.14106
 O    -9.11661     4.87953   -10.05738
 O    -7.43030     9.10321    -8.36811
 O    -9.03855     8.24409    -7.06177
 C    -7.77278     8.39631    -7.33551
 O    -6.84198     7.85795    -6.59834
 C    -8.07109     4.93937    -9.29222
 O    -5.45925    11.54027    -8.89649
 C    -3.82225     6.24902    -8.38770
 O    -4.75976     6.81976    -9.08083
Ca    -0.45361     3.13096     6.56776
 O    -5.62848     4.66148     8.07138
 O    -6.37627     6.77440     8.07138
 O    -7.82077     5.11679     7.72511
Ca    -3.48484     7.31481     4.24956
Ca    -4.23812     7.43248     8.65901
Ca    -4.60163     3.77530     6.03848
 C    -7.11329     1.73692     5.22728
 O    -5.56193     8.27932     4.82065
 O    -8.26334     2.19850     5.63153
 O    -6.04214     1.81994     5.96540
 C    -2.21859     5.86157     6.85570
 O    -3.28318     5.83141     6.11281
 O    -2.26931     6.39528     8.03074
 O    -1.09244     5.36220     6.45006
 O    -2.69722     2.84553     7.05279
 O    -6.50879     4.68748     5.01127
 O    -4.25126     2.05881     8.43935
 O    -4.94779     5.54368     3.67421
Ca     0.54590     6.38989     5.08321
Ca    -7.50639     8.33482     3.48555
Ca    -8.73048     4.61242     5.64727
Ca     0.25682     3.14235     2.56556
Ca    -8.33384     8.04371     7.79172
 O    -1.25665     7.88277     4.77759
 O    -3.44287     2.90690     4.08834
 C    -6.60594     5.50796     7.95664
 C    -2.46566     2.04555     4.15022
 O    -1.23253     2.42022     4.34536
 C    -3.00325     2.14714     8.09606
 O    -0.14415     5.51968     2.96628
 C     0.93479     0.33191     6.76261
 O     1.17961     7.07974     7.28222
 O     1.22609     1.58115     6.91866
 O     1.88708    -0.54394     6.85853
 O     2.32300     3.00307     3.67596
 O     1.16871     4.10978     5.22309
Ca     4.60890     5.57014     5.86894
Ca     4.36239     2.19267     2.94444
Ca     3.51214     1.89233     7.36775
 O     2.85612     6.55561     4.63320
 O     0.35445     3.94008     8.74526
 C     1.27439     3.29360     9.40558
 O     2.52930     3.33771     9.05499
 C     2.28007     3.56220     4.83941
 O     3.33606     3.56431     5.59508
 C     5.63055     0.53505     5.27852
 O     4.37054     0.46029     5.58343
 O     6.00601     1.24167     4.26499
 O     6.53514    -0.08530     5.97083
 O     5.79308     2.20225     7.83819
 O     5.14799     4.33238     7.81487
Ca     8.69390     4.75700     6.53871
Ca     7.52270     0.66954     7.93464
Ca     8.33983     1.19577     3.98742
 O     6.71648     4.70841     5.25096
 O     3.83765     0.21558     9.09530
 C     4.87331     0.18290     9.88613
 O     5.98787    -0.39438     9.53459
 C     6.09004     3.45348     7.96482
 O     7.31009     3.80396     8.23831
 C     9.30200     1.38236    10.40939
 O    10.09329     5.87742     4.95909
 O     9.42001     0.83343     9.24626
 O    10.33247     1.39312    11.19692
 O    10.67446     1.16789     3.72241
 O     8.21444    -1.54265     7.77165
Ca   -11.55022     9.34734     2.83790
Ca   -12.47491     8.63736     7.15833
Ca   -12.73173     5.49500     4.59277
 O    10.51775     3.27181     6.72780
 O     9.04767     1.64207     6.26770
 C    10.25618     2.00916     6.59240
 O   -13.11091     6.63966     2.48248
 C     9.12331    -2.11872     8.49642
 O   -13.93400     3.48022     3.90849
 C   -11.53534     3.47756     6.87254
 O   -12.50682     4.32646     6.72709
 O   -10.28850     9.31385     7.49077
 O   -10.33076     3.86567     7.15810
 O   -10.55885     4.67664     4.23167
 O   -11.49444     4.04158     2.31535
 O    -9.80812     8.26526     4.00463
 O   -11.41637     7.40614     5.31096
 C   -10.15060     7.55835     5.03723
 O    -9.21980     7.02000     5.77440
 C   -10.44891     4.10142     3.08052
 O    -7.83707    10.70232     3.47625
 C    -6.20007     5.41107     3.98504
 O    -7.13758     5.98181     3.29190
Ca     1.47059     7.09987     0.76278
 O    -3.70428     8.63039     2.26640
 O    -4.45206    10.74331     2.26640
 O    -5.89656     9.08571     1.92013
Ca    -1.56063    11.28372    -1.55542
Ca    -2.31391    11.40140     2.85403
Ca    -2.67743     7.74421     0.23350
 C    -5.18908     5.70583    -0.57770
 O    -3.63772    12.24823    -0.98433
 O    -6.33913     6.16741    -0.17345
 O    -4.11793     5.78885     0.16042
 C    -0.29438     9.83048     1.05072
 O    -1.35898     9.80032     0.30783
 O    -0.34510    10.36419     2.22576
 O     0.83176     9.33111     0.64508
 O    -0.77301     6.81445     1.24781
 O    -4.58458     8.65639    -0.79371
 O    -2.32706     6.02772     2.63437
 O    -3.02358     9.51259    -2.13077
Ca     2.47011    10.35880    -0.72177
Ca    -5.58219    12.30373    -2.31943
Ca    -6.80627     8.58133    -0.15771
Ca     2.18103     7.11126    -3.23942
Ca    -6.40963    12.01262     1.98674
 O     0.66756    11.85168    -1.02739
 O    -1.51866     6.87581    -1.71664
 C    -4.68174     9.47687     2.15166
 C    -0.54146     6.01446    -1.65476
 O     0.69168     6.38913    -1.45962
 C    -1.07904     6.11605     2.29108
 O     1.78005     9.48859    -2.83870
 C     2.85899     4.30082     0.95763
 O     3.10382    11.04865     1.47724
 O     3.15030     5.55006     1.11368
 O     3.81129     3.42497     1.05355
 O     4.24720     6.97198    -2.12902
 O     3.09292     8.07869    -0.58189
Ca     6.53310     9.53905     0.06396
Ca     6.28660     6.16158    -2.86054
Ca     5.43634     5.86124     1.56277
 O     4.78032    10.52452    -1.17178
 O     2.27865     7.90899     2.94028
 C     3.19860     7.26252     3.60060
 O     4.45351     7.30662     3.25001
 C     4.20428     7.53111    -0.96557
 O     5.26027     7.53322    -0.20990
 C     7.55475     4.50396    -0.52646
 O     6.29475     4.42920    -0.22155
 O     7.93022     5.21058    -1.53999
 O     8.45934     3.88361     0.16585
 O     7.71729     6.17116     2.03321
 O     7.07219     8.30129     2.00989
Ca    10.61810     8.72591     0.73373
Ca     9.44690     4.63845     2.12967
Ca    10.26404     5.16468    -1.81756
 O     8.64069     8.67732    -0.55402
 O     5.76185     4.18449     3.29032
 C     6.79752     4.15181     4.08115
 O     7.91208     3.57453     3.72961
 C     8.01424     7.42239     2.15984
 O     9.23430     7.77287     2.43333
 C    11.22621     5.35127     4.60441
 O    12.01749     9.84633    -0.84589
 O    11.34421     4.80234     3.44128
 O    12.25667     5.36203     5.39194
 O    12.59867     5.13680    -2.08257
 O    10.13865     2.42626     1.96667
Ca    -9.62601    13.31625    -2.96708
Ca   -10.55070    12.60627     1.35335
Ca   -10.80752     9.46392    -1.21221
 O    12.44196     7.24072     0.92282
 O    10.97187     5.61098     0.46272
 C    12.18038     5.97807     0.78742
 O   -11.18670    10.60858    -3.32250
 C    11.04751     1.85019     2.69144
 O   -12.00979     7.44913    -1.89649
 C    -9.61113     7.44647     1.06756
 O   -10.58261     8.29538     0.92211
 O    -8.36429    13.28276     1.68579
 O    -8.40655     7.83458     1.35312
 O    -8.63465     8.64555    -1.57331
 O    -9.57023     8.01049    -3.48963
 O    -7.88391    12.23417    -1.80035
 O    -9.49216    11.37505    -0.49402
 C    -8.22640    11.52727    -0.76775
 O    -7.29559    10.98891    -0.03058
 C    -8.52471     8.07033    -2.72446
 O    -5.91286    14.67123    -2.32873
 C    -4.27586     9.37998    -1.81994
 O    -5.21337     9.95072    -2.51308
