  168
 
Mg     0.00000     0.00000     0.00000
Si     3.26327     0.00222     0.01169
Si     1.76660     2.74231     0.02799
 O     1.96630    -0.71909    -0.48260
 O     0.45295     2.04949    -0.46284
 O     2.88926     1.57586     0.16836
 O     4.39954    -0.25803    -1.12119
 O     2.16764     3.83918    -1.10304
Si    -3.27662    -0.01075    -0.01501
Si    -1.77808    -2.74774    -0.03088
 O    -2.90406    -1.58492    -0.17056
 O    -4.41514     0.25137     1.11548
 O    -2.17431    -3.84653     1.09903
 O    -1.97852     0.70897     0.47859
 O    -0.46551    -2.05232     0.45922
Mg     1.50250    -2.73503    -0.00915
Mg     1.47541    -0.96994    -2.57126
 O     0.28610     0.15148     1.98674
 O    -0.29967    -0.16017    -1.98540
Si     1.77335     4.51693    -2.52763
 O     1.94331    -2.46517     2.07682
 O     3.65711    -0.67690     1.43564
Si    -1.77252     0.80444    -5.12835
 O    -3.66673     0.66874    -1.44000
 O     1.03714    -1.23585    -4.65580
Mg     0.00868     1.77709    -2.54981
Mg    -0.02730    -1.78923     2.54136
 O     1.78885     0.97134    -3.12746
 O     1.18932    -4.67284     0.55234
Mg     1.49449    -4.51367     2.53858
Si     3.25743    -1.77261     2.56787
 O     0.47727     3.79380    -3.02156
 O     4.37870    -2.94057     2.70778
 O     2.90133    -1.07205     3.99205
Si    -0.27490    -1.93256    -5.14560
 O    -1.39977    -0.76915    -5.28776
 O     0.08391    -2.63393    -6.56860
 O    -0.47548     1.52572    -4.63465
Mg   -10.74091    -7.64653    -5.31879
Si    -7.46865    -7.63235    -5.31200
Si    -8.96822    -6.66721    -2.75041
 O    -8.76655    -8.34295    -5.81903
 O   -10.28107    -7.36665    -3.23396
 O    -7.84293    -6.93908    -3.89067
 O    -6.33434    -8.78723    -5.16394
 O    -8.57171    -7.34923    -1.32923
Si   -14.00904    -7.65620    -5.32455
Si   -12.50738    -8.62062    -7.88482
 O   -13.63461    -8.34734    -6.74690
 O   -15.14598    -6.50324    -5.47239
 O   -12.90088    -7.93976    -9.30772
 O   -12.71228    -6.94428    -4.81703
 O   -11.19497    -7.92057    -7.40103
Mg    -9.22561    -8.59869    -7.87505
Mg    -9.24922   -10.38554    -5.32867
 O   -10.44304    -5.72951    -5.85739
 O   -11.02981    -9.56205    -4.77528
Si    -8.96919    -8.44900    -0.19934
 O    -8.78264    -6.55078    -8.34546
 O    -7.07251    -6.53264    -6.44220
Si   -12.51197   -12.17118    -2.78522
 O   -14.40345    -8.75726    -4.19494
 O    -9.69921   -12.43629    -4.86173
Mg   -10.72486    -9.41507    -2.76272
Mg   -10.74713    -5.87391    -7.87132
 O    -8.94624   -10.24348    -3.31494
 O    -9.53479    -8.74613    -9.88751
Mg    -9.23753    -6.83019   -10.43070
Si    -7.46954    -5.85117    -7.86329
 O   -10.26455    -9.16195    -0.70725
 O    -6.34730    -6.12449    -9.00549
 O    -7.82388    -4.27250    -7.70005
Si   -11.01141   -13.13706    -5.34605
 O   -12.13605   -12.86511    -4.20548
 O   -10.65310   -14.71515    -5.50948
 O   -11.21567   -11.45903    -2.27580
 H   -10.32287    -9.18451   -10.16890
 H    -8.15835    -9.80709    -3.02886
 H   -11.81575   -10.00208    -5.06039
 H    -9.65508    -5.29253    -5.57275
 H     0.39795    -5.08591     0.24263
 H    -1.08963    -0.57651    -2.29456
 H     1.07348     0.56662     2.30367
 H     2.57664     1.38560    -2.81009
Mg     2.99340    -3.69811    -2.57330
Si     6.25652    -3.69642    -2.56101
Si     4.75704    -0.95719    -2.54528
 O     4.96066    -4.41882    -3.05571
 O     3.44337    -1.65050    -3.03634
 O     5.87986    -2.12317    -2.40565
 O     7.39390    -3.95522    -3.69334
 O     5.15565     0.13965    -3.67669
Si    -0.28137    -3.70555    -2.58730
Si     1.21458    -6.44580    -2.60538
 O     0.09221    -5.27954    -2.74373
 O    -1.41960    -3.44420    -1.45639
 O     0.81829    -7.54297    -1.47391
 O     1.01615    -2.98483    -2.09429
 O     2.52874    -5.75195    -2.11733
Mg     4.49223    -6.43545    -2.58237
Mg     4.46657    -4.67131    -5.14420
 O     3.27860    -3.55064    -0.58732
 O     2.69244    -3.86114    -4.55826
Si     4.76317     0.81720    -5.10170
 O     4.93638    -6.16271    -0.49633
 O     6.65064    -4.37332    -1.13579
Si     1.22014    -2.89382    -7.70183
 O    -0.67267    -3.02838    -4.01278
 O     4.02949    -4.93525    -7.22799
Mg     2.99840    -1.92358    -5.12366
Mg     2.96071    -5.49030    -0.03332
 O     4.77955    -2.72988    -5.69782
 O     4.18516    -8.37319    -2.01665
Mg     4.49198    -8.20983    -0.03150
Si     6.25006    -5.47029    -0.00499
 O     3.46763     0.09406    -5.59666
 O     7.37225    -6.63752     0.13511
 O     5.89245    -4.77099     1.41937
Si     2.71749    -5.63152    -7.71799
 O     1.59323    -4.46717    -7.86203
 O     3.07593    -6.33249    -9.14122
 O     2.51786    -2.17386    -7.20840
Mg    -7.74755   -11.34438    -7.89255
Si    -4.47583   -11.33081    -7.88587
Si    -5.97761   -10.36581    -5.32509
 O    -5.77265   -12.04173    -8.39422
 O    -7.28994   -11.06559    -5.80972
 O    -4.85184   -10.63885    -6.46438
 O    -3.34034   -12.48471    -7.73607
 O    -5.58378   -11.04771    -3.90346
Si   -11.01321   -11.35218    -7.89435
Si    -9.51452   -12.32029   -10.45753
 O   -10.63772   -12.04352    -9.31665
 O   -12.15000   -10.19943    -8.04319
 O    -9.90752   -11.63739   -11.87961
 O    -9.71701   -10.64058    -7.38518
 O    -8.20014   -11.62280    -9.97513
Mg    -6.23469   -12.29710   -10.45024
Mg    -6.26033   -14.08547    -7.90611
 O    -7.45118    -9.42884    -8.43480
 O    -8.03933   -13.26091    -7.35220
Si    -5.97973   -12.14863    -2.77407
 O    -5.78958   -10.24866   -10.91844
 O    -4.07916   -10.22916    -9.01461
Si    -9.51988   -15.87016    -5.35856
 O   -11.40833   -12.45494    -6.76655
 O    -6.70675   -16.13454    -7.43734
Mg    -7.73565   -13.11468    -5.33865
Mg    -7.75906    -9.57429   -10.44719
 O    -5.95648   -13.94050    -5.89314
 O    -6.53845   -12.44098   -12.46403
Mg    -6.24085   -10.52502   -13.00384
Si    -4.47686    -9.54862   -10.43618
 O    -7.27501   -12.86217    -3.28275
 O    -3.35321    -9.82069   -11.57706
 O    -4.83332    -7.97029   -10.27489
Si    -8.01895   -16.83527    -7.92026
 O    -9.14307   -16.56408    -6.77844
 O    -7.66135   -18.41329    -8.08399
 O    -8.22221   -15.15834    -4.85056
 H    -7.32643   -12.87778   -12.74808
 H    -5.16981   -13.50139    -5.60876
 H    -8.82626   -13.69921    -7.63695
 H    -6.66212    -8.99309    -8.15200
 H     3.39471    -8.78901    -2.32442
 H     1.90239    -4.27812    -4.86603
 H     4.06732    -3.13765    -0.27144
 H     5.56591    -2.31535    -5.37776
