  360
 
 O     0.00000     0.00000     0.00000
Na    12.39073    -3.34250   -11.57464
Na     8.31113     1.72957     0.31048
Na     3.73844    -4.96671    -0.22552
Na     7.17533     3.26524   -11.73137
 O     8.37440     3.78071    -9.71002
 C    10.56970     4.22400   -11.71460
 H    11.69764     4.53472   -11.79082
 O     9.99590     7.49982    -9.82236
 C     9.95392     5.21396   -10.76141
 O    11.02335     7.14336   -11.72518
 C     9.06222     4.81036    -9.72337
 C     9.02753     5.69899    -8.53370
 O    12.89547     2.84575   -10.55308
 C     8.59766     5.23290    -7.27989
 H     8.28710     4.18889    -7.18487
 C     8.55479     6.09921    -6.19210
 H     8.24685     5.73971    -5.21525
 C     8.87696     7.45842    -6.35888
 H     8.78414     8.14120    -5.50899
 C     9.31095     7.94213    -7.58674
 H     9.54376     8.99606    -7.72040
 C     9.44657     7.03327    -8.65563
 C    10.38889     6.55005   -10.86932
 C     9.99907     4.33729   -13.12619
 C     8.77212     3.80395   -13.53219
 H     8.11148     3.28292   -12.78578
 C     8.35071     3.95398   -14.86341
 H     7.40832     3.51236   -15.20521
 C     9.11602     4.69140   -15.76954
 H     8.76872     4.83346   -16.79183
 C    10.33339     5.25367   -15.36438
 H    10.90636     5.85051   -16.07659
 C    10.78749     5.04082   -14.06457
 H    11.78669     5.40650   -13.72241
 C    10.59843     2.77582   -11.18513
 H     9.61243     2.49363   -10.69094
 H    10.76007     2.03942   -12.01871
 C    11.74374     2.64490   -10.20223
 C    11.41195     2.24740    -8.79968
 H    12.30742     2.37018    -8.14266
 H    11.08087     1.17864    -8.78946
 H    10.57556     2.87558    -8.40408
 O     5.04396    -5.34359     1.75850
 C     7.25852    -5.79169    -0.15839
 H     8.40131    -6.00299    -0.27417
 O     7.16541    -8.84396     2.13658
 C     6.77117    -6.73650     0.91223
 O     7.97686    -8.66412     0.11439
 C     5.75785    -6.35523     1.83669
 C     5.62230    -7.21348     3.04071
 O     9.20694    -4.36636     1.45947
 C     4.76370    -6.84985     4.09173
 H     4.12490    -5.96947     3.97372
 C     4.74730    -7.58912     5.26888
 H     4.05744    -7.34235     6.07055
 C     5.63986    -8.66191     5.42499
 H     5.67023    -9.16629     6.38681
 C     6.48355    -9.06377     4.39754
 H     7.18344    -9.88146     4.52375
 C     6.42492    -8.35903     3.17806
 C     7.34805    -8.02279     0.94363
 C     6.56616    -6.08481    -1.48528
 C     5.41918    -5.39804    -1.91671
 H     4.83213    -4.75053    -1.20224
 C     4.93869    -5.57029    -3.22320
 H     4.07692    -4.99833    -3.58138
 C     5.55643    -6.47836    -4.08615
 H     5.22651    -6.57620    -5.11886
 C     6.59689    -7.27905    -3.60770
 H     7.00047    -8.07481    -4.23377
 C     7.10207    -7.08080    -2.32210
 H     7.88245    -7.75882    -1.96475
 C     7.14545    -4.29979     0.24852
 H     6.07203    -4.04211     0.52136
 H     7.43953    -3.61358    -0.59432
 C     8.04438    -3.99686     1.43147
 C     7.44506    -3.21621     2.55647
 H     8.17956    -3.08221     3.38102
 H     7.11745    -2.20657     2.19491
 H     6.54241    -3.74928     2.95336
 O     7.15677     1.18896    -1.77998
 C     4.82991     0.66086     0.00474
 H     3.69343     0.38573     0.05920
 O     5.29016    -2.41827    -2.19892
 C     5.45652    -0.27448    -0.99693
 O     4.42302    -2.29671    -0.19484
 C     6.44698     0.18335    -1.91803
 C     6.53312    -0.58799    -3.18514
 O     2.83893     1.80783    -1.68458
 C     7.17069    -0.05898    -4.32001
 H     7.67174     0.90978    -4.23687
 C     7.14695    -0.75261    -5.52540
 H     7.63967    -0.34555    -6.40493
 C     6.48422    -1.98983    -5.60696
 H     6.45230    -2.51604    -6.56089
 C     5.86502    -2.54970    -4.49683
 H     5.36129    -3.50963    -4.55814
 C     5.89602    -1.83684    -3.28125
 C     5.00055    -1.60568    -1.02233
 C     5.40830     0.43804     1.39301
 C     6.50434     1.15000     1.89724
 H     7.12121     1.82048     1.22866
 C     6.88091     0.96682     3.23549
 H     7.66400     1.57830     3.68134
 C     6.25661     0.00982     4.03740
 H     6.58767    -0.14106     5.06093
 C     5.22499    -0.76974     3.50662
 H     4.76546    -1.55219     4.11130
 C     4.79485    -0.54272     2.20002
 H     3.99702    -1.17688     1.78638
 C     4.86864     2.13236    -0.46799
 H     5.92302     2.45817    -0.72654
 H     4.49925     2.83330     0.32463
 C     3.96989     2.27220    -1.68203
 C     4.52143     3.01818    -2.84995
 H     3.85774     2.91019    -3.74969
 H     4.60083     4.10611    -2.59029
 H     5.54052     2.64496    -3.11533
 O    10.42882    -3.04225   -12.94201
 C     8.83514    -1.97613   -10.65805
 H     7.95647    -1.41536   -10.22098
 O     8.88775     0.71782   -13.37991
 C     9.18462    -1.28447   -11.94627
 O     8.36429     0.87038   -11.26045
 C     9.80488    -1.97991   -13.02770
 C     9.60200    -1.36993   -14.37178
 O     7.21025    -3.21251   -12.89054
 C     9.84311    -2.11527   -15.53654
 H    10.21026    -3.14298   -15.44896
 C     9.62355    -1.54561   -16.78624
 H     9.79636    -2.12239   -17.69019
 C     9.18453    -0.21573   -16.88053
 H     9.02531     0.19351   -17.87642
 C     8.95365     0.55830   -15.74933
 H     8.64073     1.59899   -15.82437
 C     9.13995    -0.04524   -14.48794
 C     8.79504     0.05674   -12.06002
 C     9.93864    -1.88520    -9.60767
 C    11.07158    -2.71210    -9.60759
 H    11.35638    -3.30433   -10.52936
 C    11.86782    -2.79463    -8.45528
 H    12.64976    -3.55481    -8.36856
 C    11.63357    -1.95114    -7.36582
 H    12.25386    -2.03352    -6.47500
 C    10.59099    -1.02175    -7.42391
 H    10.42860    -0.32805    -6.60016
 C     9.73694    -1.00555    -8.52728
 H     8.90358    -0.30034    -8.55380
 C     8.36971    -3.44775   -10.78219
 H     9.22676    -4.13492   -10.51992
 H     7.57634    -3.64694   -10.00638
 C     7.81158    -3.91782   -12.09889
 C     8.00550    -5.37001   -12.40493
 H     7.09823    -5.78274   -12.90935
 H     8.20475    -5.96971   -11.48685
 H     8.88117    -5.47973   -13.09824
 C     3.97262     3.47722   -14.53169
 H     4.62725     2.86822   -15.22684
 O     5.55048     1.20230   -13.78350
 O     4.18257     3.57044   -10.70533
 C     4.29487     3.08280   -13.11647
 O     3.13467     4.91698   -12.06973
 C     5.02588     1.88182   -12.88537
 C     5.17162     1.47294   -11.45168
 O     6.28285     5.13454   -13.48585
 C     5.69465     0.21749   -11.06987
 H     5.97158    -0.52840   -11.88382
 C     5.82567    -0.09482    -9.71744
 H     6.19967    -1.06393    -9.38618
 C     5.47542     0.84210    -8.72444
 H     5.62124     0.58586    -7.67144
 C     4.92701     2.06960    -9.06156
 H     4.58974     2.78363    -8.30144
 C     4.76927     2.36521   -10.43305
 C     3.81042     3.90325   -12.07998
 C     2.54033     3.09707   -14.91575
 C     1.97809     3.55245   -16.12161
 H     2.53558     4.22339   -16.78114
 C     0.73492     3.08194   -16.55742
 H     0.31979     3.43732   -17.50372
 C     0.04573     2.12050   -15.81387
 H    -0.90463     1.72050   -16.17457
 C     0.60302     1.64407   -14.62281
 H     0.10941     0.82894   -14.08504
 C     1.82826     2.14060   -14.16472
 H     2.26059     1.71477   -13.24530
 C     4.26746     4.97279   -14.79686
 H     4.02181     5.22594   -15.85534
 H     3.63033     5.60054   -14.10658
 C     5.66785     5.43456   -14.48690
 C     6.23745     6.41928   -15.47779
 H     7.30122     6.65627   -15.22866
 H     5.64535     7.36688   -15.43377
 H     6.19262     6.01524   -16.51288
 C     0.99705    -4.81755    -2.53795
 H     1.78941    -4.11240    -2.93578
 O     1.79553    -2.47120    -1.16963
 O     0.94963    -5.74265     1.19397
 C     1.04750    -4.71224    -1.04015
 O     0.25295    -6.91591    -0.51909
 C     1.44677    -3.43981    -0.49291
 C     1.48954    -3.37693     1.00462
 O     2.98111    -6.85659    -1.57340
 C     1.70478    -2.17052     1.69785
 H     1.75756    -1.20906     1.09994
 C     1.82431    -2.17165     3.08581
 H     1.99098    -1.25815     3.65303
 C     1.72215    -3.37577     3.80940
 H     1.81743    -3.35736     4.89633
 C     1.47705    -4.57495     3.16175
 H     1.37402    -5.51064     3.71642
 C     1.32338    -4.55461     1.75857
 C     0.70666    -5.80953    -0.24511
 C    -0.34909    -4.33944    -3.07906
 C    -1.57371    -4.88799    -2.66255
 H    -1.60853    -5.61386    -1.80565
 C    -2.75760    -4.48881    -3.29813
 H    -3.72378    -4.94591    -3.07544
 C    -2.74251    -3.48894    -4.27399
 H    -3.67710    -3.15712    -4.72843
 C    -1.53208    -2.89992    -4.64548
 H    -1.52367    -2.09971    -5.38317
 C    -0.34067    -3.34013    -4.06846
 H     0.60085    -2.88210    -4.37154
 C     1.27254    -6.21255    -3.15840
 H     1.77363    -6.06049    -4.14967
 H     0.29549    -6.71951    -3.37353
 C     2.13184    -7.18539    -2.38047
 C     1.95705    -8.62329    -2.74928
 H     2.26832    -9.28240    -1.90019
 H     0.90742    -8.89125    -3.01210
 H     2.59656    -8.85952    -3.63901
 C    -0.77293     2.06161     1.99591
 H    -1.00638     3.10847     2.39323
 O    -2.13103     4.18387     0.68663
 O    -0.93103     1.03598    -1.69605
 C    -1.03765     2.09711     0.52135
 C    -1.67378     3.27091    -0.00804
 C    -1.77491     3.31046    -1.50214
 O    -2.87935    -0.23630     1.16291
 C    -2.16017     4.47613    -2.18895
 H    -2.36273     5.39781    -1.57456
 C    -2.24859     4.48697    -3.57890
 H    -2.51727     5.38683    -4.13442
 C    -1.98329     3.30840    -4.30657
 H    -2.08101     3.32295    -5.39400
 C    -1.58107     2.14645    -3.66616
 H    -1.34344     1.23318    -4.20966
 C    -1.44669     2.16833    -2.25898
 C    -0.60524     1.02489    -0.26935
 C     0.70024     1.91060     2.34597
 C     1.17604     1.12917     3.40473
 H     0.51438     0.46134     3.96142
 C     2.50416     1.25360     3.83961
 H     2.85962     0.66480     4.68744
 C     3.35557     2.17837     3.24051
 H     4.37508     2.30795     3.61067
 C     2.88215     2.97688     2.18976
 H     3.51001     3.78541     1.80540
 C     1.58318     2.81720     1.71611
 H     1.20459     3.46842     0.91510
 C    -1.74465     1.12878     2.75639
 H    -2.68692     1.72348     2.86881
 H    -1.34605     0.94322     3.77930
 C    -2.08058    -0.18551     2.08223
 C    -1.51016    -1.44468     2.65636
 H    -2.32150    -2.04051     3.13610
 H    -1.08629    -2.07144     1.82437
 H    -0.71742    -1.27006     3.41794
 C     3.12844    -3.86600   -10.09836
 H     2.22226    -4.41348    -9.70678
 O     1.90297    -6.02192   -11.56505
 O     3.58505    -2.99372   -13.80474
 C     3.13279    -3.99542   -11.59989
 O     4.43221    -2.01979   -12.05002
 C     2.49208    -5.13388   -12.19236
 C     2.51396    -5.16578   -13.69124
 O     1.39397    -1.74358   -11.27471
 C     2.05970    -6.27592   -14.42404
 H     1.79228    -7.20269   -13.83938
 C     2.00514    -6.24472   -15.81522
 H     1.64707    -7.08841   -16.40708
 C     2.42604    -5.09189   -16.50769
 H     2.36485    -5.06228   -17.60020
 C     2.93440    -4.00219   -15.81957
 H     3.28115    -3.10982   -16.33298
 C     2.99389    -4.05687   -14.41004
 C     3.75979    -2.99602   -12.34890
 C     4.30594    -4.61609    -9.47585
 C     5.31877    -4.00943    -8.72432
 H     5.36204    -2.93234    -8.60856
 C     6.29341    -4.78940    -8.08759
 H     7.09935    -4.31829    -7.52612
 C     6.24033    -6.17910    -8.16456
 H     6.95721    -6.78629    -7.62017
 C     5.25656    -6.79528    -8.94425
 H     5.20819    -7.88392    -9.01346
 C     4.31401    -6.01844    -9.61173
 H     3.56679    -6.51912   -10.24216
 C     3.05309    -2.39529    -9.62445
 H     2.84798    -2.38046    -8.52661
 H     4.06553    -1.92962    -9.80806
 C     2.09079    -1.45985   -10.32041
 C     2.04702    -0.06887    -9.75488
 H     1.22443    -0.00940    -9.00544
 H     1.83227     0.67729   -10.56803
 H     3.00646     0.22828    -9.27181
 C     0.25778     4.71550    -7.22631
 H    -0.34639     5.28914    -6.48933
 H    -0.07547     3.65645    -7.22715
 H     0.09380     5.15216    -8.23708
 O     2.51334     3.91359    -7.69737
 H     2.51419     4.17851    -8.63768
 C     2.27727     6.20508    -6.89516
 H     3.37527     6.19474    -6.71192
 H     1.77148     6.83913    -6.14106
 H     2.10140     6.65154    -7.90203
 C     1.73794     4.77707    -6.84688
 H     1.91984     4.29695    -5.85058
 C    -2.12843     4.72339     4.33022
 H    -2.17213     3.66413     4.65194
 H    -3.02420     5.26825     4.70512
 H    -2.14894     4.76114     3.21197
 O    -0.97479     6.82267     4.66774
 H    -1.11169     7.03332     3.71844
 C     0.42463     4.88957     4.23378
 H     1.29462     5.44431     4.65080
 H     0.56140     3.80437     4.43431
 H     0.41008     5.04505     3.12723
 C    -0.86786     5.39892     4.86852
 H    -0.81852     5.33588     5.98159
 C     3.35253     0.40000    -5.42732
 H     3.58601    -0.20491    -6.32863
 H     4.24877     0.99686    -5.14484
 H     3.11054    -0.28870    -4.58607
 O     2.00402     2.27164    -4.63744
 H     1.88875     1.82439    -3.76421
 C     0.87085     0.57472    -5.94346
 H     0.05127     1.30825    -6.10921
 H     0.96807    -0.08355    -6.82995
 H     0.62653    -0.04647    -5.05193
 C     2.17956     1.33726    -5.71593
 H     2.40407     2.02847    -6.57209
 C    -1.01454     1.82328     6.86383
 H    -1.69040     2.70327     6.75935
 H    -0.10888     1.98689     6.23835
 H    -0.70920     1.76411     7.93582
 O    -0.80652    -0.52405     6.19594
 H     0.05331    -0.36404     6.62039
 C    -2.79748     0.09947     7.43870
 H    -3.08838    -0.95361     7.22284
 H    -3.69103     0.76029     7.35553
 H    -2.42213     0.15457     8.48340
 C    -1.74377     0.55488     6.43548
 H    -2.21887     0.66051     5.43118
Na     0.72671     4.81777   -13.21191
Na    -2.26202    -6.55178    -0.80291
Na     2.40975    -0.19755     0.28388
Na     6.44924    -1.06962   -13.19897
