  336
 
 O     0.00000     0.00000     0.00000
 O     3.44880    -2.52740    -0.35864
 O    -1.37810     6.66219     0.83475
 O    -0.56690    -4.13899    -0.10395
 O    -1.78209    -1.81156    -2.03746
 O    -1.87648     2.50911     0.70137
 O    -0.49170    -4.40545     2.53998
 O     0.17343     0.04178     2.64587
 O    -1.86325    -1.88550    -4.68935
 O     3.57144    -2.46027     2.29796
 O    -2.05265     2.49201    -1.95474
 O    -1.50564     6.89771    -1.79870
 O     2.29963    -0.05877     1.14793
 O     2.27366    -4.35257     1.03183
 O    -1.50695    -2.29837     1.40506
 O    -4.17719     2.57303    -0.45437
 O    -0.59045     0.01723    -3.42235
 O    -0.42883     4.81464    -0.65722
 O    -3.08265     0.02379    -3.56751
 O     0.82070     6.97372    -0.48729
 O     1.02275     2.07814     1.21109
 O    -2.89246     0.44574    -0.53057
 O    -2.78136    -4.45416     1.12007
 O     4.78962    -4.34420     1.11973
Si    -1.28770    -3.87735     1.28818
Si     0.80543     0.49888     1.26329
Si     3.53039    -3.35615     0.97197
Si    -0.66838     6.39192    -0.55402
Si    -2.67908     2.02632    -0.56456
Si    -1.84495    -0.98577    -3.36792
Zn    -1.41355    -1.14111     3.01521
Zn     2.83598     2.91905     1.38871
Zn     5.35595     1.87093    -0.41442
Zn    -4.70625    -0.36853    -0.71715
Zn    -7.23974     0.60456     1.09863
Zn    -0.44076     3.65152    -2.22785
Zn     3.25143    -0.49258    -0.56458
Zn     1.20584    -5.00894    -0.52068
Zn    -0.18697     3.58215     0.88686
Zn    -1.69444    -1.05091    -0.14745
Zn     0.48754     0.62165    -1.86005
Zn    -1.54457    -3.85786    -1.82947
 O     3.75948     7.01780    -3.11510
 O     7.25198     4.49458    -3.44379
 O     2.47197    13.67425    -2.25344
 O     3.35963     2.76780    -3.17445
 O     2.49132     5.07002    -5.19974
 O     1.92193     9.40899    -2.37540
 O     3.44860     2.56839    -0.53827
 O     3.94398     7.03978    -0.46324
 O     1.96605     5.02241    -7.83994
 O     7.37558     4.55159    -0.78165
 O     1.78270     9.41576    -5.01316
 O     2.36488    13.91087    -4.90062
 O     6.06391     6.93769    -1.95836
 O     6.15796     2.61635    -2.04803
 O     2.38256     4.63654    -1.71048
 O    -0.36986     9.42956    -3.54345
 O     2.53325     7.25859    -6.61963
 O     3.36031    11.80909    -3.74891
 O     0.26457     5.94853    -6.10843
 O     4.67155    13.96153    -3.54765
 O     4.79110     9.07889    -1.88175
 O     0.93668     7.32619    -3.73272
 O     1.14706     2.46809    -1.90126
 O     8.64620     2.69781    -1.97000
Si     2.63425     3.05516    -1.79435
Si     4.57320     7.49943    -1.84553
Si     7.37132     3.66738    -2.11320
Si     3.17741    13.39904    -3.64720
Si     1.14035     8.91781    -3.64129
Si     1.96396     5.77893    -6.47114
Zn     2.41371     5.78804    -0.09300
Zn     6.59187     9.92476    -1.63019
Zn     9.11249     8.89637    -3.45121
Zn    -0.93834     6.56504    -3.70109
Zn    -3.43815     7.55708    -1.92071
Zn     3.34695    10.71427    -5.37158
Zn     6.99370     6.52793    -3.67769
Zn     5.16210     1.90871    -3.61079
Zn     3.57594    10.57794    -2.20582
Zn     2.14160     5.84419    -3.25314
Zn     4.16166     7.68317    -4.96562
Zn     2.43148     2.96275    -4.90852
 O     3.55644    -6.87829    -3.12616
 O     7.07112    -9.34808    -3.50286
 O     2.26990    -0.22337    -2.29443
 O     3.07394   -10.98727    -3.23661
 O     1.81233    -8.72222    -5.16300
 O     1.68349    -4.38081    -2.38256
 O     3.17005   -11.23308    -0.59669
 O     3.71233    -6.84506    -0.47853
 O     1.71017    -8.78590    -7.82213
 O     7.17790    -9.27111    -0.85679
 O     1.51519    -4.42039    -5.03188
 O     2.17313     0.04848    -4.93348
 O     5.85398    -6.93620    -1.95537
 O     5.91706   -11.19104    -2.11560
 O     2.08399    -9.15653    -1.73081
 O    -0.61027    -4.29147    -3.54006
 O     2.97049    -6.88694    -6.53965
 O     3.16783    -2.07690    -3.80272
 O     0.45974    -6.91449    -6.64605
 O     4.47425     0.07262    -3.58397
 O     4.57764    -4.80720    -1.90428
 O     0.63744    -6.44415    -3.59228
 O     0.86634   -11.32870    -1.96815
 O     8.42384   -11.15647    -2.00691
Si     2.34843   -10.73282    -1.84632
Si     4.35438    -6.38745    -1.85782
Si     7.16064   -10.17917    -2.17696
Si     2.98493    -0.49500    -3.68633
Si     0.87922    -4.86662    -3.64954
Si     1.72091    -7.89548    -6.49367
Zn     2.09117    -8.00597    -0.12807
Zn     6.39172    -3.97407    -1.72521
Zn     8.93417    -4.95154    -3.53379
Zn    -1.15880    -7.27738    -3.83493
Zn    -3.72356    -6.21269    -2.03089
Zn     3.09802    -3.22734    -5.40658
Zn     6.82730    -7.30475    -3.67746
Zn     4.85821   -11.84339    -3.67278
Zn     3.37229    -3.30335    -2.24081
Zn     1.86193    -7.94246    -3.29132
Zn     4.02776    -6.23977    -4.98215
Zn     2.07807   -10.75550    -4.96849
 O     7.43669     0.11399    -6.21084
 O    10.85880    -2.36520    -6.57016
 O     5.88950     6.76453    -5.39816
 O     6.89395    -4.08420    -6.30921
 O     5.72958    -1.80400    -8.25111
 O     5.58546     2.56381    -5.48760
 O     6.99899    -4.34159    -3.66374
 O     7.59837     0.16072    -3.56144
 O     5.61797    -1.87281   -10.91121
 O    10.98438    -2.28962    -3.90604
 O     5.43740     2.50953    -8.14576
 O     5.80237     6.99587    -8.00518
 O     9.72992     0.09568    -5.05177
 O     9.73067    -4.20634    -5.16952
 O     5.99226    -2.23394    -4.80001
 O     3.30964     2.62597    -6.66529
 O     6.85894     0.05049    -9.64165
 O     6.91544     4.93810    -6.87900
 O     4.35928    -0.00513    -9.72779
 O     8.13387     7.10753    -6.62808
 O     8.42597     2.20943    -4.98669
 O     4.57780     0.48077    -6.70847
 O     4.69356    -4.38777    -5.01729
 O    12.23511    -4.15672    -5.09481
Si     6.18407    -3.81823    -4.91048
Si     8.22518     0.62730    -4.94559
Si    10.96505    -3.18246    -5.23226
Si     6.65971     6.51147    -6.76882
Si     4.81305     2.05559    -6.76031
Si     5.62960    -0.97765    -9.57923
Zn     6.06995    -1.09911    -3.18904
Zn    10.23341     3.05671    -4.77974
Zn    12.75638     2.04248    -6.60906
Zn     2.76778    -0.34734    -6.87590
Zn     0.26457     0.67110    -5.04830
Zn     6.95903     3.79221    -8.49544
Zn    10.67309    -0.32607    -6.77219
Zn     8.69893    -4.90509    -6.72440
Zn     7.22169     3.71512    -5.32516
Zn     5.78981    -1.02249    -6.36126
Zn     7.87768     0.76799    -8.07643
Zn     5.91031    -3.83654    -8.03343
 O    -8.25023    -0.00184    -3.30810
 O    -4.76113    -2.41327    -3.69111
 O    -9.64536     6.68466    -2.49484
 O    -8.77785    -4.20776    -3.42882
 O    -9.96325    -1.89822    -5.32841
 O   -10.11197     2.47720    -2.57607
 O    -8.64216    -4.73170    -0.83589
 O    -8.07975     0.05542    -0.66471
 O   -10.07718    -1.96460    -7.99176
 O    -4.69976    -2.37124    -1.01812
 O   -10.25684     2.40314    -5.22337
 O    -9.75233     6.91211    -5.14218
 O    -5.94956    -0.00753    -2.16291
 O    -5.93669    -4.25600    -2.32330
 O    -9.55892    -2.39632    -1.82624
 O   -12.39705     2.51725    -3.74570
 O    -8.82161    -0.05067    -6.72998
 O    -8.70437     4.82747    -3.99001
 O   -11.32514    -0.09790    -6.80652
 O    -7.44906     6.99506    -3.77666
 O    -7.24783     2.10260    -2.09836
 O   -11.11121     0.37779    -3.77396
 O   -10.96606    -4.48871    -2.10895
 O    -3.44417    -4.24347    -2.17783
Si    -9.46435    -3.95986    -2.02357
Si    -7.45732     0.52188    -2.04940
Si    -4.68310    -3.23169    -2.36381
Si    -8.93728     6.40857    -3.89019
Si   -10.90051     1.95975    -3.84121
Si   -10.05720    -1.07409    -6.66522
Zn    -9.63272    -1.18064    -0.29655
Zn    -5.43743     2.94432    -1.88640
Zn    -2.88226     1.99761    -3.72595
Zn   -12.92532    -0.44882    -3.98641
Zn   -15.45180     0.59130    -2.15815
Zn    -8.72978     3.67624    -5.59469
Zn    -4.99211    -0.36342    -3.88697
Zn    -6.95806    -5.00794    -3.84802
Zn    -8.45750     3.60742    -2.43287
Zn    -9.89435    -1.12982    -3.45181
Zn    -7.80235     0.66464    -5.17670
Zn    -9.78451    -3.93958    -5.14289
 O    -4.46345     6.98843    -6.35223
 O    -0.51619     4.77383    -6.61449
 O    -5.75401    13.63832    -5.52389
 O    -4.90941     2.85908    -6.47246
 O    -6.21497     5.12737    -8.39637
 O    -6.31853     9.47573    -5.61805
 O    -4.79239     2.60071    -3.84304
 O    -4.29992     7.03186    -3.69046
 O    -6.34159     5.05979   -11.06356
 O    -0.70404     4.56342    -3.98543
 O    -6.48220     9.43959    -8.26714
 O    -5.86058    13.85698    -8.16732
 O    -2.17244     6.90587    -5.17819
 O    -2.03019     2.89118    -5.48785
 O    -5.88377     4.67848    -4.95739
 O    -8.61600     9.55144    -6.77308
 O    -5.06376     6.95051    -9.79346
 O    -4.80780    11.77508    -7.02158
 O    -7.57943     6.92675    -9.88095
 O    -3.54671    13.92833    -6.81999
 O    -3.41784     9.05520    -5.15392
 O    -7.34781     7.40989    -6.85898
 O    -7.11777     2.50802    -5.19025
 O     0.49158     2.68585    -5.21889
Si    -5.63873     3.10279    -5.08058
Si    -3.68676     7.47867    -5.07302
Si    -0.71093     3.70134    -5.30702
Si    -5.04093    13.35843    -6.91678
Si    -7.12533     8.98880    -6.88338
Si    -6.31819     5.94375    -9.73311
Zn    -5.87741     5.81308    -3.33695
Zn    -1.61405     9.87090    -4.95558
Zn     1.08684     8.94968    -6.78341
Zn    -9.15308     6.56309    -7.08877
Zn   -11.65877     7.59184    -5.27518
Zn    -4.89922    10.63406    -8.62971
Zn    -1.26229     7.00109    -6.93357
Zn    -3.10975     2.04617    -6.91622
Zn    -4.64230    10.55880    -5.46287
Zn    -6.15899     5.89689    -6.50987
Zn    -4.05739     7.62819    -8.23882
Zn    -5.93637     3.09025    -8.19215
 O    -4.66985    -6.80440    -6.44575
 O    -1.20063    -9.33430    -6.79031
 O    -5.98618    -0.13292    -5.60721
 O    -5.18065   -11.05977    -6.54758
 O    -6.35255    -8.73239    -8.48783
 O    -6.52661    -4.34469    -5.69731
 O    -5.03301   -11.27727    -3.91068
 O    -4.52320    -6.76307    -3.79470
 O    -6.48663    -8.79065   -11.14053
 O    -1.10086    -9.26908    -4.12740
 O    -6.69276    -4.39812    -8.34053
 O    -6.09180     0.11956    -8.25003
 O    -2.38613    -6.86822    -5.27806
 O    -2.32409   -11.19204    -5.40811
 O    -6.06741    -9.17602    -5.06262
 O    -8.82769    -4.33914    -6.85514
 O    -5.24603    -6.86211    -9.87611
 O    -5.06294    -1.97523    -7.11170
 O    -7.74331    -6.92786    -9.93221
 O    -3.78390     0.19699    -6.87910
 O    -3.66389    -4.72411    -5.20078
 O    -7.52542    -6.44551    -6.89459
 O    -7.36806   -11.31988    -5.18263
 O     0.17310   -11.12962    -5.30451
Si    -5.86262   -10.76170    -5.15358
Si    -3.87502    -6.30161    -5.18341
Si    -1.09488   -10.15630    -5.45835
Si    -5.27393    -0.39219    -7.00241
Si    -7.31974    -4.86258    -6.96029
Si    -6.47086    -7.89826    -9.81575
Zn    -6.02628    -8.03199    -3.48312
Zn    -1.85296    -3.88042    -4.97891
Zn     0.65151    -4.93148    -6.79729
Zn    -9.34461    -7.27088    -7.09900
Zn   -11.88244    -6.31443    -5.29711
Zn    -5.15088    -3.14537    -8.70951
Zn    -1.44056    -7.30014    -7.00636
Zn    -3.35457   -11.87918    -6.96227
Zn    -4.86450    -3.21435    -5.56770
Zn    -6.30729    -7.95065    -6.62537
Zn    -4.21085    -6.16596    -8.32100
Zn    -6.14153   -10.76611    -8.28115
 O    -0.80255     0.17271    -9.44572
 O     2.63708    -2.38273    -9.82659
 O    -2.21008     6.70277    -8.62266
 O    -1.35430    -4.01046    -9.56320
 O    -2.55115    -1.71506   -11.48784
 O    -2.64812     2.67384    -8.77538
 O    -1.25410    -4.25220    -6.92237
 O    -0.62516     0.16826    -6.79116
 O    -2.66489    -1.78985   -14.15237
 O     2.75583    -2.32881    -7.16678
 O    -2.84890     2.60304   -11.41587
 O    -2.25116     7.00162   -11.26020
 O     1.50692     0.08458    -8.30903
 O     1.49144    -4.22611    -8.43368
 O    -2.27454    -2.15303    -8.06135
 O    -4.96551     2.72536    -9.90888
 O    -1.39088     0.11158   -12.87952
 O    -1.17021     4.92427   -10.16191
 O    -3.90558     0.07851   -12.97290
 O     0.02395     7.08690    -9.77582
 O     0.23165     2.21292    -8.12713
 O    -3.69020     0.58024    -9.96464
 O    -3.55740    -4.31288    -8.29058
 O     4.00298    -4.18937    -8.36499
Si    -2.06870    -3.73689    -8.17052
Si     0.00831     0.60561    -8.17454
Si     2.73407    -3.21403    -8.49723
Si    -1.45317     6.48860   -10.00813
Si    -3.48324     2.15523   -10.03307
Si    -2.63922    -0.89690   -12.82585
Zn    -2.22923    -1.01109    -6.44663
Zn     2.09262     2.96341    -8.11642
Zn     4.58053     1.98030    -9.91014
Zn    -5.49960    -0.27858   -10.18825
Zn    -8.03566     0.71993    -8.36728
Zn    -1.27362     3.78390   -11.83338
Zn     2.45070    -0.35212   -10.03649
Zn     0.42042    -4.87780    -9.98854
Zn    -0.89547     3.57581    -8.81677
Zn    -2.49482    -0.92884    -9.61226
Zn    -0.33297     0.76062   -11.32581
Zn    -2.34923    -3.75491   -11.28702
