   72
 
Zn     0.00000     0.00000     0.00000
 S    -0.00308    -0.00433     2.32939
Zn     1.87660     1.07413     3.19829
 S     1.88067     1.07390    -0.86599
Zn     3.75005    -0.01877     0.00703
 S     3.74135    -0.02760     2.33563
Zn     5.61887     1.05190     3.20156
 S     5.62818     1.05902    -0.86073
Zn     7.49240    -0.04023     0.01215
 S     7.48871    -0.04556     2.34150
Zn     9.36575     1.03227     3.21063
 S     9.37147     1.03936    -0.85410
Zn     1.87467     3.24054     0.00228
 S     1.86609     3.24036     2.33153
Zn     3.74235     4.31829     3.20074
 S     3.75205     4.32128    -0.86316
Zn     5.62032     3.22615     0.00797
 S     5.60932     3.21893     2.33702
Zn     7.48702     4.29611     3.20956
 S     7.50036     4.30481    -0.85608
Zn     9.36406     3.20415     0.01580
 S     9.35548     3.19837     2.34429
Zn    11.23282     4.27379     3.21527
 S    11.24429     4.27863    -0.85000
Zn     3.73960     6.48466     0.00843
 S     3.73388     6.48531     2.33742
Zn     5.61385     7.56223     3.20496
 S     5.61913     7.56465    -0.85744
Zn     7.48872     6.47137     0.01197
 S     7.48039     6.46236     2.34069
Zn     9.35820     7.53783     3.21482
 S     9.37120     7.54592    -0.85067
Zn    11.23398     6.44301     0.01944
 S    11.22482     6.44014     2.34832
Zn    13.09840     7.52037     3.21952
 S    13.11212     7.52325    -0.84568
Zn     0.00180    -0.00390    -6.39550
 S    -0.01332    -0.00588    -4.06560
Zn     1.86413     1.07012    -3.19549
 S     1.87830     1.07740    -7.26105
Zn     3.74821    -0.01392    -6.38956
 S     3.73330    -0.02882    -4.05972
Zn     5.61061     1.04816    -3.18968
 S     5.62951     1.05942    -7.25716
Zn     7.49221    -0.04187    -6.38223
 S     7.47932    -0.04859    -4.05248
Zn     9.35585     1.03118    -3.18336
 S     9.37219     1.03416    -7.24893
Zn     1.87311     3.24420    -6.39398
 S     1.86532     3.23709    -4.06463
Zn     3.74007     4.31589    -3.19274
 S     3.75346     4.31862    -7.25815
Zn     5.62206     3.22477    -6.38615
 S     5.60820     3.21540    -4.05705
Zn     7.48386     4.29515    -3.18518
 S     7.50158     4.30432    -7.25036
Zn     9.36519     3.19993    -6.37944
 S     9.35161     3.19722    -4.05075
Zn    11.23292     4.26993    -3.17964
 S    11.24277     4.28248    -7.24524
Zn     3.74026     6.48408    -6.39023
 S     3.73463     6.48338    -4.06027
Zn     5.61103     7.56089    -3.18765
 S     5.62150     7.56221    -7.25536
Zn     7.48960     6.47075    -6.38095
 S     7.47829     6.46117    -4.05144
Zn     9.35871     7.53597    -3.17979
 S     9.36727     7.54911    -7.24612
Zn    11.22996     6.44748    -6.37410
 S    11.22638     6.43751    -4.04493
Zn    13.10178     7.51642    -3.17539
 S    13.11061     7.52406    -7.24049
