  192
 
 Y     0.00000     0.00000     0.00000
 P    -2.55559    -2.76201     0.00000
 O    -1.83566    -1.40062     0.00000
 O    -2.17103    -3.64162    -1.20500
 O     2.27469     0.39639     0.00000
 O    -2.17103    -3.64162     1.20400
 P    -0.60328     1.37989     3.44700
 O    -0.21912     0.50119     2.24300
 O     0.11534     2.74180     3.44700
 O    -0.21912     0.50119    -2.24300
 O    -2.09193     1.77680     3.44700
 Y    -1.95192    -4.14282    -3.44700
 Y     0.60408    -1.38172     3.44700
 Y    -3.76254    -0.00132     0.00000
 O     0.82319    -1.88292     1.20500
 O     0.28038     2.36430    -0.00000
 O     0.82319    -1.88292    -1.20500
 O    -1.92689     1.39930     0.00000
 O    -3.54383    -0.50160    -2.24300
 O    -1.67062    -1.77811     3.44800
 O    -3.54383    -0.50160     2.24300
 O     2.43973     0.01889     3.44800
 P     1.20735    -2.76161     0.00000
 P    -3.15927    -1.38121    -3.44700
 Y     0.00000    -0.00000    -6.89500
 P    -2.55559    -2.76201    -6.89500
 O    -1.83566    -1.40062    -6.89500
 O    -2.17103    -3.64162    -8.10000
 O     2.27469     0.39639    -6.89500
 O    -2.17103    -3.64162    -5.69100
 P    -0.60328     1.37989    -3.44800
 O    -0.21912     0.50119    -4.65200
 O     0.11534     2.74180    -3.44800
 O    -0.21912     0.50119    -9.13800
 O    -2.09193     1.77680    -3.44800
 Y    -1.95192    -4.14282   -10.34200
 Y     0.60408    -1.38172    -3.44800
 Y    -3.76254    -0.00132    -6.89500
 O     0.82319    -1.88292    -5.69000
 O     0.28038     2.36430    -6.89500
 O     0.82319    -1.88292    -8.10000
 O    -1.92689     1.39930    -6.89500
 O    -3.54383    -0.50160    -9.13800
 O    -1.67062    -1.77811    -3.44700
 O    -3.54383    -0.50160    -4.65200
 O     2.43973     0.01889    -3.44700
 P     1.20735    -2.76161    -6.89500
 P    -3.15927    -1.38121   -10.34200
 Y     2.41471    -5.52322    -0.00000
 P    -0.14089    -8.28523    -0.00000
 O     0.57905    -6.92384    -0.00000
 O     0.24367    -9.16484    -1.20500
 O     4.68940    -5.12683    -0.00000
 O     0.24367    -9.16484     1.20400
 P     1.81143    -4.14333     3.44700
 O     2.19559    -5.02203     2.24300
 O     2.53005    -2.78142     3.44700
 O     2.19559    -5.02203    -2.24300
 O     0.32278    -3.74642     3.44700
 Y     0.46279    -9.66604    -3.44700
 Y     3.01878    -6.90494     3.44700
 Y    -1.34784    -5.52454    -0.00000
 O     3.23790    -7.40614     1.20500
 O     2.69509    -3.15892    -0.00000
 O     3.23790    -7.40614    -1.20500
 O     0.48782    -4.12392    -0.00000
 O    -1.12912    -6.02482    -2.24300
 O     0.74409    -7.30134     3.44800
 O    -1.12912    -6.02482     2.24300
 O     4.85444    -5.50433     3.44800
 P     3.62206    -8.28483     0.00000
 P    -0.74456    -6.90443    -3.44700
 Y     2.41471    -5.52322    -6.89500
 P    -0.14089    -8.28523    -6.89500
 O     0.57905    -6.92384    -6.89500
 O     0.24367    -9.16484    -8.10000
 O     4.68940    -5.12683    -6.89500
 O     0.24367    -9.16484    -5.69100
 P     1.81143    -4.14333    -3.44800
 O     2.19559    -5.02203    -4.65200
 O     2.53005    -2.78142    -3.44800
 O     2.19559    -5.02203    -9.13800
 O     0.32278    -3.74642    -3.44800
 Y     0.46279    -9.66604   -10.34200
 Y     3.01878    -6.90494    -3.44800
 Y    -1.34784    -5.52454    -6.89500
 O     3.23790    -7.40614    -5.69000
 O     2.69509    -3.15892    -6.89500
 O     3.23790    -7.40614    -8.10000
 O     0.48782    -4.12392    -6.89500
 O    -1.12912    -6.02482    -9.13800
 O     0.74409    -7.30134    -3.44700
 O    -1.12912    -6.02482    -4.65200
 O     4.85444    -5.50433    -3.44700
 P     3.62206    -8.28483    -6.89500
 P    -0.74456    -6.90443   -10.34200
 Y    -6.31762    -2.76201     0.00000
 P    -8.87321    -5.52402     0.00000
 O    -8.15328    -4.16263     0.00000
 O    -8.48865    -6.40363    -1.20500
 O    -4.04293    -2.36562     0.00000
 O    -8.48865    -6.40363     1.20400
 P    -6.92090    -1.38212     3.44700
 O    -6.53674    -2.26082     2.24300
 O    -6.20228    -0.02021     3.44700
 O    -6.53674    -2.26082    -2.24300
 O    -8.40955    -0.98521     3.44700
 Y    -8.26953    -6.90483    -3.44700
 Y    -5.71354    -4.14373     3.44700
 Y   -10.08016    -2.76333     0.00000
 O    -5.49443    -4.64493     1.20500
 O    -6.03724    -0.39771    -0.00000
 O    -5.49443    -4.64493    -1.20500
 O    -8.24451    -1.36271     0.00000
 O    -9.86145    -3.26361    -2.24300
 O    -7.98824    -4.54013     3.44800
 O    -9.86145    -3.26361     2.24300
 O    -3.87789    -2.74312     3.44800
 P    -5.11027    -5.52362     0.00000
 P    -9.47689    -4.14322    -3.44700
 Y    -6.31762    -2.76201    -6.89500
 P    -8.87321    -5.52402    -6.89500
 O    -8.15328    -4.16263    -6.89500
 O    -8.48865    -6.40363    -8.10000
 O    -4.04293    -2.36562    -6.89500
 O    -8.48865    -6.40363    -5.69100
 P    -6.92090    -1.38212    -3.44800
 O    -6.53674    -2.26082    -4.65200
 O    -6.20228    -0.02021    -3.44800
 O    -6.53674    -2.26082    -9.13800
 O    -8.40955    -0.98521    -3.44800
 Y    -8.26953    -6.90483   -10.34200
 Y    -5.71354    -4.14373    -3.44800
 Y   -10.08016    -2.76333    -6.89500
 O    -5.49443    -4.64493    -5.69000
 O    -6.03724    -0.39771    -6.89500
 O    -5.49443    -4.64493    -8.10000
 O    -8.24451    -1.36271    -6.89500
 O    -9.86145    -3.26361    -9.13800
 O    -7.98824    -4.54013    -3.44700
 O    -9.86145    -3.26361    -4.65200
 O    -3.87789    -2.74312    -3.44700
 P    -5.11027    -5.52362    -6.89500
 P    -9.47689    -4.14322   -10.34200
 Y    -3.90291    -8.28523    -0.00000
 P    -6.45851   -11.04724    -0.00000
 O    -5.73857    -9.68585    -0.00000
 O    -6.07395   -11.92685    -1.20500
 O    -1.62822    -7.88884    -0.00000
 O    -6.07395   -11.92685     1.20400
 P    -4.50619    -6.90534     3.44700
 O    -4.12203    -7.78404     2.24300
 O    -3.78757    -5.54343     3.44700
 O    -4.12203    -7.78404    -2.24300
 O    -5.99484    -6.50843     3.44700
 Y    -5.85483   -12.42805    -3.44700
 Y    -3.29884    -9.66695     3.44700
 Y    -7.66546    -8.28655    -0.00000
 O    -3.07972   -10.16815     1.20500
 O    -3.62253    -5.92093    -0.00000
 O    -3.07972   -10.16815    -1.20500
 O    -5.82980    -6.88593    -0.00000
 O    -7.44674    -8.78683    -2.24300
 O    -5.57353   -10.06335     3.44800
 O    -7.44674    -8.78683     2.24300
 O    -1.46318    -8.26634     3.44800
 P    -2.69556   -11.04684     0.00000
 P    -7.06218    -9.66644    -3.44700
 Y    -3.90291    -8.28523    -6.89500
 P    -6.45851   -11.04724    -6.89500
 O    -5.73857    -9.68585    -6.89500
 O    -6.07395   -11.92685    -8.10000
 O    -1.62822    -7.88884    -6.89500
 O    -6.07395   -11.92685    -5.69100
 P    -4.50619    -6.90534    -3.44800
 O    -4.12203    -7.78404    -4.65200
 O    -3.78757    -5.54343    -3.44800
 O    -4.12203    -7.78404    -9.13800
 O    -5.99484    -6.50843    -3.44800
 Y    -5.85483   -12.42805   -10.34200
 Y    -3.29884    -9.66695    -3.44800
 Y    -7.66546    -8.28655    -6.89500
 O    -3.07972   -10.16815    -5.69000
 O    -3.62253    -5.92093    -6.89500
 O    -3.07972   -10.16815    -8.10000
 O    -5.82980    -6.88593    -6.89500
 O    -7.44674    -8.78683    -9.13800
 O    -5.57353   -10.06335    -3.44700
 O    -7.44674    -8.78683    -4.65200
 O    -1.46318    -8.26634    -3.44700
 P    -2.69556   -11.04684    -6.89500
 P    -7.06218    -9.66644   -10.34200
