  128
 
Xe     0.00000     0.00000     0.00000
Xe   -11.99850    -4.23196     2.25184
Xe    -8.90528    -4.26146    -0.87144
Xe    -7.07993    -4.69258    -4.79370
 F    -5.37571     0.71391    -2.10862
 F   -13.32794    -3.65673    -3.08996
 F    -3.51967    -4.82250     0.44292
 F    -6.13438    -0.49206    -2.19820
 F    -5.15584   -10.14345     3.80251
 F    -5.91481    -1.89232    -8.61815
 F    -2.05301    -3.27520    -2.60654
 F   -12.47471    -3.41211    -4.20854
 F    -4.66369    -7.91708    -2.40764
 F    -2.70312    -4.28083    -5.70997
 F    -6.01183    -5.05033     3.11672
 F    -3.41133    -7.96005    -5.95791
Xe     6.15901     3.09519    -6.34409
Xe    -3.28964     4.17574    -7.36017
Xe    -1.17513    -1.80941    -9.22920
Xe    -2.33405     2.00230   -11.05942
 F     3.35174     6.98108    -7.64733
 F    -7.08267     1.62036    -9.90719
 F     2.60467    -0.06942    -6.61843
 F    -2.11421    -0.40506    -4.74117
 F    -1.30078    -4.42407    -2.21674
 F     1.54862    -0.16229   -12.81336
 F     3.55702    -2.34743    -9.46520
 F    -6.11135    -2.17774   -10.00272
 F    -1.62094    -5.19469    -5.54154
 F     1.63218     3.77731    -7.92771
 F    -0.70683    -0.57185    -4.56960
 F     0.95268    -0.76088   -13.96415
Xe     4.25666    -4.51646     2.43335
Xe    -2.41154    -6.94521     6.52410
Xe    -0.40206    -9.35092     3.28969
Xe     3.40680   -10.13785     1.10606
 F     3.32566    -0.00818     3.48063
 F    -6.06928    -6.42382     3.50166
 F     6.47968    -5.77231     7.80896
 F    -2.20250    -2.82277     3.66554
 F     0.80737   -10.68780     7.92440
 F     1.80048    -6.42721    -4.38364
 F     6.22688    -8.21050     4.12060
 F    -3.63639    -6.15839     0.93276
 F     2.00640   -10.97044     7.20363
 F    -0.00171    -5.65721     0.44715
 F     2.38296    -6.65489     6.17818
 F    -3.28343    -7.56442    -2.31391
Xe    12.03073     0.77124     1.59110
Xe     3.44617    -2.38725    -1.34036
Xe     5.45551    -6.48950    -1.29118
Xe     5.95495    -3.66377    -4.74572
 F    10.40241     2.55720    -2.87928
 F     1.97851    -3.56980    -2.18210
 F     9.06403    -2.85130     1.82101
 F     4.85106    -1.08652    -0.55820
 F     7.03211    -9.38724     4.06278
 F     6.36274    -1.77459   -11.42284
 F    10.70219    -2.73674    -3.45473
 F     1.58716    -6.24547    -5.78348
 F     8.66442   -10.03597     1.18969
 F     8.01473     0.09830    -2.28681
 F    10.07884    -3.23096    -2.26917
 F     3.40930    -3.74129    -9.73261
Xe    -1.53126     5.09614     6.70332
Xe   -12.40708    10.53179     0.93389
Xe    -8.87145    -1.02059     2.06408
Xe    -9.27963     4.49552    -2.47712
 F    -6.96601    10.14682     0.74630
 F   -11.81616     2.69278     2.20230
 F    -5.74878     2.82531     6.27944
 F    -5.68256     6.05474     2.78556
 F    -4.71951    -0.92333     7.42088
 F    -4.40563     5.07993    -2.76629
 F    -4.38934     3.07543     0.70274
 F   -10.69099     3.56406     2.08802
 F    -3.45307    -2.28375     3.23666
 F    -6.29445     6.54833     1.59385
 F    -5.77311     3.36399     4.95762
 F    -8.29200     0.17338    -5.12709
Xe     3.09780     8.91757    -0.56580
Xe    -7.30807    11.40427    -3.64465
Xe     0.39070     3.80691    -2.14860
Xe    -2.82346     8.53445    -7.90742
 F     2.06656     9.49387    -2.24217
 F    -7.00350     7.18437    -5.87544
 F     4.13917     8.52377     1.18616
 F    -1.94527     7.70653     0.31403
 F    -3.67840     4.28987     0.46190
 F     2.46534     7.95097    -8.20618
 F     1.13972     8.55436    -5.28532
 F    -4.07359     6.44471    -3.02342
 F     1.89826     0.91903    -5.86865
 F     0.22061     7.75112    -4.54519
 F    -1.78316     7.30461     1.67426
 F     1.14993     4.74079    -8.86441
Xe     1.34891     5.54852    10.07720
Xe    -3.00218     5.89425    10.64780
Xe     0.44026    -3.85613    17.78878
Xe    -0.86822     2.19455     3.63001
 F     4.96595     8.27414     7.37245
 F    -5.09896     0.03728     8.40736
 F     1.77457    -1.34610     9.61091
 F     0.98634     1.22366     7.74400
 F    -0.52941    -6.10533    12.15817
 F     5.09523     3.07924     1.25917
 F     2.09647    -2.21997     5.99527
 F    -2.60220    -1.77203    10.32901
 F     2.37596    -5.77515     7.30265
 F     2.14545     1.82111     7.16387
 F     2.10985    -2.43171    10.47504
 F    -0.12508    -4.56883     1.36279
Xe    10.67246     6.75414     5.40256
Xe     2.02960     5.85383     4.09589
Xe     5.36706     3.43275    10.23707
Xe     4.39778     5.47027    -3.03671
 F     6.93573     6.98192     2.40037
 F     1.38154     5.69793     2.12482
 F     8.80438     1.61960     5.63805
 F     2.82832     6.16677     5.95359
 F     3.37133    -2.20916     6.63783
 F     8.77341     7.34238    -4.68485
 F     7.51768     0.65725     1.53836
 F     3.76726     2.55576     1.24814
 F     6.97757    -0.16330     2.57251
 F     6.85152     6.05774     1.31557
 F     4.06277     0.72485     4.45915
 F     7.08664     1.15644    -2.04661
