  144
 
Br     0.00000     0.00000     0.00000
Br    -4.18592    -6.30149     3.67043
Cl    -1.78263    -4.13269     3.37545
 F    -7.21822    -2.06453     3.54280
 C    -3.38593    -3.52970     3.44368
 C    -3.62199    -2.14806     3.40038
 C    -4.92108    -1.64355     3.45149
 H    -5.11546    -0.56381     3.44328
 C    -5.98014    -2.55243     3.52048
 C    -5.79015    -3.93748     3.57583
 H    -6.64827    -4.61934     3.64933
 C    -4.47823    -4.40924     3.54588
Br    -2.20216    -0.85854     3.30486
Br    -9.59697     1.55794     2.42995
Br    -4.27656     1.97955     4.72075
Cl    -7.24522     0.65688     4.57293
 F    -6.10476     5.05295     0.93653
 C    -6.89757     1.94002     3.49055
 C    -7.86195     2.36677     2.56648
 C    -7.59023     3.40634     1.67710
 H    -8.32467     3.72904     0.92851
 C    -6.34641     4.03655     1.76092
 C    -5.35511     3.64291     2.66581
 H    -4.38657     4.15984     2.69134
 C    -5.64442     2.57774     3.51714
Br    -2.05298     2.86746     1.42152
Br    -0.08467     8.31765     1.03338
Cl    -2.48467     6.14485     1.35039
 F     2.95330     4.08481     1.13658
 C    -0.88117     5.54530     1.26984
 C    -0.64135     4.16489     1.31686
 C     0.65824     3.66303     1.25619
 H     0.85347     2.58400     1.26996
 C     1.71525     4.57240     1.16855
 C     1.52061     5.95631     1.10829
 H     2.37540     6.63999     1.02192
 C     0.20862     6.42641     1.15337
Br     5.31401     0.43096     2.28905
Cl     2.95795     1.33452     0.16633
 F     1.83250    -3.07979     3.78597
 C     2.61542     0.03827     1.23480
 C     3.58213    -0.38902     2.15678
 C     3.31228    -1.43213     3.04190
 H     4.04419    -1.75505     3.79240
 C     2.07012    -2.06646     2.95639
 C     1.07957    -1.67640     2.04935
 H     0.11359    -2.19791     2.01918
 C     1.36591    -0.60584     1.20280
Br    -0.42630     1.50656     3.53940
Br    -4.63984    -4.79708     7.20294
Cl    -2.22940    -2.63098     6.89842
 F    -7.65454    -0.55047     7.13151
 C    -3.82870    -2.02324     6.99117
 C    -4.06073    -0.64068     6.95796
 C    -5.35786    -0.13299     7.02567
 H    -5.55109     0.94668     7.02181
 C    -6.41762    -1.04000     7.10076
 C    -6.23106    -2.42570     7.14655
 H    -7.09266    -3.10239     7.22261
 C    -4.92186    -2.90171     7.09894
Br    -2.64235     0.64908     6.84429
Br   -10.04365     3.06044     5.96245
Br    -4.72416     3.50528     8.24277
Cl    -7.68799     2.17919     8.10330
 F    -6.55763     6.55279     4.43746
 C    -7.34490     3.45793     7.01423
 C    -8.30995     3.87522     6.08678
 C    -8.03972     4.90825     5.18922
 H    -8.77255     5.22394     4.43607
 C    -6.79784     5.54301     5.27016
 C    -5.80600     5.15909     6.17914
 H    -4.83800     5.67727     6.20170
 C    -6.09316     4.09882     7.03701
Br    -2.51379     4.35970     4.94008
Br    -0.51535     9.80700     4.59415
Cl    -2.92712     7.64264     4.89678
 F     2.49678     5.55790     4.65798
 C    -1.32861     7.03306     4.79979
 C    -1.09646     5.65030     4.82699
 C     0.20011     5.14147     4.75688
 H     0.39486     4.06148     4.75693
 C     1.26020     6.04855     4.68687
 C     1.07440     7.43453     4.64609
 H     1.93528     8.11285     4.57345
 C    -0.23468     7.91111     4.69449
Br     4.89055     1.95557     5.82354
Cl     2.53816     2.83573     3.68315
 F     1.40802    -1.53688     7.34938
 C     2.19329     1.55509     4.76904
 C     3.15853     1.13894     5.69684
 C     2.88911     0.10630     6.59481
 H     3.62122    -0.20719     7.34936
 C     1.64801    -0.52948     6.51367
 C     0.65687    -0.14795     5.60323
 H    -0.30926    -0.66898     5.57956
 C     0.94258     0.91255     4.74491
Br    -0.87640     3.02705     7.06315
Br    -5.07234    -3.30397    10.75765
Cl    -2.67226    -1.13625    10.44033
 F    -8.10637     0.93448    10.64922
 C    -4.27532    -0.53425    10.51652
 C    -4.51263     0.84660    10.46778
 C    -5.81140     1.35063    10.52734
 H    -6.00564     2.42993    10.51223
 C    -6.86978     0.44318    10.61622
 C    -6.67811    -0.94122    10.67745
 H    -7.53526    -1.62221    10.76450
 C    -5.36685    -1.41323    10.63346
Br    -3.09906     2.14176    10.36343
Br   -10.46658     4.58135     9.50197
Br    -5.14832     5.00621    11.78432
Cl    -8.11132     3.68264    11.62840
 F    -6.98390     8.09210     8.00520
 C    -7.76560     4.97197    10.55256
 C    -8.73333     5.39998     9.63241
 C    -8.46556     6.44521     8.74897
 H    -9.20254     6.77498     8.00610
 C    -7.22145     7.07612     8.83141
 C    -6.22899     6.68374     9.73577
 H    -5.26388     7.20715     9.76455
 C    -6.51442     5.61323    10.58231
Br    -2.95100     5.87504     8.48662
Br    -0.96718    11.31635     8.11875
Cl    -3.36750     9.15421     8.42130
 F     2.06438     7.07620     8.23938
 C    -1.76592     8.54700     8.35025
 C    -1.53147     7.16530     8.39235
 C    -0.23315     6.65894     8.33794
 H    -0.04034     5.57878     8.34640
 C     0.82715     7.56613     8.26476
 C     0.63907     8.95156     8.20970
 H     1.49832     9.63202     8.13363
 C    -0.67213     9.42481     8.24395
Br     4.43839     3.45051     9.36381
Cl     2.08825     4.35546     7.22362
 F     0.94627    -0.04701    10.85417
 C     1.74027     3.06714     8.29997
 C     2.70372     2.63970     9.22474
 C     2.43076     1.59825    10.11118
 H     3.16435     1.27659    10.86092
 C     1.18769     0.96627    10.02565
 C     0.19805     1.35962     9.11875
 H    -0.77125     0.84373     9.09030
 C     0.48875     2.42666     8.26948
