  104
 
 C     0.00000     0.00000     0.00000
 C     1.43718    -0.18310    -0.17941
 C     2.33266     0.91142     0.02608
 H     3.40207     0.74006    -0.14029
 C     1.85486     2.12508     0.41145
 H     2.52305     2.96942     0.58299
 C     0.45035     2.32387     0.59863
 H     0.11425     3.32374     0.89353
 C    -0.43951     1.31623     0.40955
 H    -1.51182     1.44283     0.55701
 O    -0.77622    -0.93519    -0.19064
 N     1.87298    -1.38553    -0.54658
 N     2.18704    -2.42534    -0.82140
 C    -0.73334    -7.62994     2.25691
 C    -2.12059    -7.99581     2.52806
 C    -3.18869    -7.22053     1.97979
 H    -4.21626    -7.51400     2.22232
 C    -2.92050    -6.15026     1.18474
 H    -3.72258    -5.55353     0.74954
 C    -1.56823    -5.77698     0.90242
 H    -1.40519    -4.89860     0.26833
 C    -0.52092    -6.47854     1.40646
 H     0.51644    -6.21964     1.19636
 O     0.18974    -8.28715     2.73598
 N    -2.34849    -9.05590     3.29879
 N    -2.48394    -9.97707     3.92228
 C     2.35339    -8.71342     6.86559
 C     1.70304    -8.73555     5.55919
 C     0.91743    -9.86281     5.16682
 H     0.46547    -9.85316     4.16834
 C     0.74827   -10.91001     6.01776
 H     0.14419   -11.77396     5.74025
 C     1.36847   -10.90368     7.30713
 H     1.21121   -11.77631     7.95056
 C     2.13216    -9.85983     7.71976
 H     2.60630    -9.82969     8.70024
 O     3.04643    -7.75296     7.19896
 N     1.86959    -7.68519     4.75996
 N     2.01142    -6.76221     4.14055
 C    -2.70809    -3.18217    -3.83194
 C    -2.10141    -2.62567    -2.62660
 C    -1.14430    -3.38684    -1.88716
 H    -0.72983    -2.94378    -0.97504
 C    -0.77436    -4.62349    -2.31485
 H    -0.03865    -5.21547    -1.76997
 C    -1.34957    -5.18305    -3.49955
 H    -1.02764    -6.18811    -3.79399
 C    -2.26835    -4.50156    -4.23044
 H    -2.71104    -4.90333    -5.14104
 O    -3.54720    -2.53710    -4.45930
 N    -2.47449    -1.40685    -2.24527
 N    -2.79840    -0.36531    -1.98866
 C     2.80956    -1.39036     3.22422
 C     1.37593    -1.15936     3.37416
 C     0.44988    -2.22448     3.15011
 H    -0.61564    -2.02218     3.30429
 C     0.89401    -3.44983     2.76302
 H     0.19923    -4.26830     2.57464
 C     2.29392    -3.69227     2.59425
 H     2.60147    -4.69787     2.28712
 C     3.21305    -2.71766     2.81372
 H     4.28252    -2.87934     2.68438
 O     3.61183    -0.48137     3.43381
 N     0.96982     0.05758     3.72756
 N     0.67878     1.10735     3.98950
 C    -3.13258   -10.54583    -0.16910
 C    -1.75823   -10.13003    -0.43478
 C    -0.66563   -10.87187     0.11216
 H     0.35138   -10.54595    -0.13033
 C    -0.89844   -11.95301     0.90290
 H    -0.07637   -12.52431     1.33509
 C    -2.23787   -12.36975     1.18519
 H    -2.37254   -13.25155     1.82166
 C    -3.30769   -11.70514     0.67883
 H    -4.33488   -12.00039     0.88829
 O    -4.07546    -9.91863    -0.65005
 N    -1.56334    -9.05917    -1.20026
 N    -1.45488    -8.13197    -1.82012
 C     1.88275    -7.88001    -0.77505
 C     2.55693    -7.90393     0.51990
 C     3.38080    -6.80685     0.92029
 H     3.83945    -6.84447     1.91427
 C     3.57494    -5.75416     0.08197
 H     4.21074    -4.91534     0.36608
 C     2.94166    -5.72124    -1.20098
 H     3.12798    -4.85013    -1.83883
 C     2.13044    -6.72782    -1.61430
 H     1.64166    -6.72599    -2.58787
 O     1.15518    -8.81246    -1.11338
 N     2.37821    -8.96819     1.29758
 N     2.22407    -9.90435     1.89398
 C    -2.60676     0.38178     3.01782
 C    -3.22413    -0.22172     1.84057
 C    -4.20962     0.49994     1.09861
 H    -4.62464     0.02924     0.20105
 C    -4.60495     1.73573     1.50486
 H    -5.36327     2.29501     0.95632
 C    -4.02639     2.33692     2.66781
 H    -4.37534     3.33638     2.95144
 C    -3.07205     1.69937     3.39254
 H    -2.62293     2.13410     4.28460
 O    -1.74257    -0.22856     3.64591
 N    -2.83797    -1.44584     1.49036
 N    -2.50330    -2.49087     1.26324
