  168
 
 C     0.00000     0.00000     0.00000
 C     1.49528     0.00000     0.00000
 C     2.20755     1.19822     0.00000
 C     4.24391    -0.06230     0.00019
 C     3.58605     1.15320     0.00123
 C     3.52953    -1.25298    -0.02162
 C     2.15253    -1.22054    -0.01780
 O     4.35584     2.29004     0.02119
 O     5.61581    -0.04951     0.02803
 O     4.28082    -2.39455    -0.08064
 O    -0.51561     1.19180    -0.12875
 O    -0.66103    -1.01469     0.10218
 H     1.75569     2.04480     0.03022
 H     5.93213    -0.55393    -0.00740
 H     3.91686     3.16422    -0.22074
 H     3.79338    -3.12709     0.04264
 H     1.66248    -1.97991     0.01596
 H    -1.42126     1.16369    -0.06978
 C     1.30409    -4.54305    -3.20941
 C    -0.10692    -4.65934    -2.72839
 C    -0.87126    -5.78422    -3.03132
 C    -2.69591    -4.81734    -1.81733
 C    -2.16916    -5.85192    -2.56672
 C    -1.93621    -3.68920    -1.53680
 C    -0.63810    -3.61276    -1.99098
 O    -2.97755    -6.93548    -2.80707
 O    -3.98139    -4.94790    -1.35757
 O    -2.57537    -2.70237    -0.83770
 O     1.65735    -5.50932    -4.01313
 O     2.04063    -3.63107    -2.88629
 H    -0.50195    -6.51836    -3.52710
 H    -4.25206    -4.50648    -1.06151
 H    -2.70912    -7.57430    -3.53869
 H    -2.01860    -2.06550    -0.56524
 H    -0.10477    -2.91163    -1.78341
 H     2.53215    -5.44012    -4.24253
 C     0.96002     5.19339     2.29687
 C    -0.53429     5.19354     2.29673
 C    -1.24655     3.99532     2.29673
 C    -3.28389     5.25569     2.29668
 C    -2.62506     4.04034     2.29551
 C    -2.56854     6.44652     2.31835
 C    -1.19251     6.41394     2.31467
 O    -3.39484     2.90350     2.27554
 O    -4.65481     5.24304     2.26870
 O    -3.32081     7.58794     2.37751
 O     1.47660     4.00173     2.42549
 O     1.62203     6.20823     2.19455
 H    -0.79567     3.14860     2.26665
 H    -4.97114     5.74746     2.30413
 H    -2.95684     2.02918     2.51761
 H    -2.83238     8.32062     2.25409
 H    -0.70148     7.17345     2.28077
 H     2.38128     4.02971     2.36665
 C     0.73301   -10.27317    -3.28611
 C     2.14305   -10.15702    -3.76700
 C     2.90836    -9.03201    -3.46420
 C     4.73302    -9.99889    -4.67820
 C     4.20529    -8.96445    -3.92867
 C     3.97234   -11.12716    -4.95859
 C     2.67521   -11.20346    -4.50455
 O     5.01368    -7.88089    -3.68832
 O     6.01850    -9.86833    -5.13795
 O     4.61248   -12.11385    -5.65783
 O     0.37975    -9.30690    -2.48239
 O    -0.00353   -11.18515    -3.60924
 H     2.53906    -8.29787    -2.96843
 H     6.28917   -10.30974    -5.43401
 H     4.74623    -7.24192    -2.95684
 H     4.05473   -12.75086    -5.93015
 H     2.14188   -11.90459    -4.71212
 H    -0.49504    -9.37611    -2.25299
 O     6.45950     2.61494    -1.82169
 H     6.28612     2.25961    -2.31554
 H     5.96373     2.63957    -1.15072
 O     4.62413    -6.02844    -1.70702
 H     4.65570    -5.47890    -2.01697
 H     5.30508    -6.31010    -1.31519
 O     3.49396     4.79280    -0.68802
 H     3.66636     5.14799    -0.19404
 H     3.98875     4.76804    -1.35885
 O     7.61706    -8.24559    -2.67861
 H     7.58549    -8.79514    -2.36866
 H     6.93611    -7.96393    -3.07043
 C     0.60581    -0.83601     3.45817
 C     2.10109    -0.83601     3.45817
 C     2.81336     0.36221     3.45817
 C     4.84972    -0.89831     3.45836
 C     4.19186     0.31719     3.45940
 C     4.13534    -2.08899     3.43655
 C     2.75834    -2.05655     3.44037
 O     4.96165     1.45403     3.47936
 O     6.22162    -0.88552     3.48620
 O     4.88663    -3.23056     3.37753
 O     0.09020     0.35579     3.32942
 O    -0.05522    -1.85070     3.56036
 H     2.36150     1.20879     3.48839
 H     6.53795    -1.38994     3.45077
 H     4.52267     2.32820     3.23744
 H     4.39919    -3.96310     3.50082
 H     2.26829    -2.81592     3.47414
 H    -0.81545     0.32768     3.38839
 C     1.90990    -5.37906     0.24876
 C     0.49889    -5.49535     0.72978
 C    -0.26544    -6.62023     0.42685
 C    -2.09010    -5.65335     1.64085
 C    -1.56335    -6.68793     0.89145
 C    -1.33040    -4.52521     1.92138
 C    -0.03229    -4.44877     1.46720
 O    -2.37174    -7.77149     0.65110
 O    -3.37558    -5.78391     2.10060
 O    -1.96956    -3.53838     2.62048
 O     2.26316    -6.34533    -0.55496
 O     2.64644    -4.46708     0.57188
 H     0.10386    -7.35437    -0.06892
 H    -3.64625    -5.34249     2.39666
 H    -2.10331    -8.41031    -0.08052
 H    -1.41279    -2.90151     2.89293
 H     0.50104    -3.74764     1.67476
 H     3.13796    -6.27613    -0.78436
 C     1.56583     4.35738     5.75504
 C     0.07153     4.35752     5.75490
 C    -0.64074     3.15931     5.75490
 C    -2.67808     4.41968     5.75485
 C    -2.01925     3.20433     5.75368
 C    -1.96273     5.61051     5.77653
 C    -0.58670     5.57793     5.77285
 O    -2.78903     2.06749     5.73372
 O    -4.04900     4.40703     5.72688
 O    -2.71500     6.75193     5.83568
 O     2.08241     3.16572     5.88366
 O     2.22784     5.37222     5.65272
 H    -0.18986     2.31259     5.72482
 H    -4.36533     4.91145     5.76230
 H    -2.35103     1.19317     5.97578
 H    -2.22657     7.48461     5.71226
 H    -0.09567     6.33744     5.73894
 H     2.98709     3.19370     5.82482
 C     1.33882   -11.10918     0.17206
 C     2.74886   -10.99303    -0.30882
 C     3.51417    -9.86802    -0.00603
 C     5.33883   -10.83490    -1.22003
 C     4.81110    -9.80046    -0.47049
 C     4.57815   -11.96317    -1.50042
 C     3.28102   -12.03947    -1.04638
 O     5.61949    -8.71690    -0.23014
 O     6.62431   -10.70434    -1.67978
 O     5.21829   -12.94986    -2.19966
 O     0.98556   -10.14291     0.97578
 O     0.60228   -12.02116    -0.15106
 H     3.14487    -9.13388     0.48974
 H     6.89498   -11.14575    -1.97584
 H     5.35204    -8.07793     0.50133
 H     4.66054   -13.58687    -2.47197
 H     2.74769   -12.74060    -1.25394
 H     0.11077   -10.21212     1.20518
 O     7.06531     1.77893     1.63648
 H     6.89193     1.42360     1.14264
 H     6.56954     1.80356     2.30745
 O     5.22994    -6.86445     1.75116
 H     5.26151    -6.31491     1.44120
 H     5.91089    -7.14612     2.14298
 O     4.09977     3.95679     2.77015
 H     4.27217     4.31198     3.26414
 H     4.59456     3.93202     2.09932
 O     8.22287    -9.08160     0.77956
 H     8.19130    -9.63115     1.08952
 H     7.54192    -8.79994     0.38774
