   84
 
 C     0.00000     0.00000     0.00000
 C     2.50759     0.00000     0.00000
 C     1.30003     0.70226     0.00000
 C     3.68063     2.09294    -0.15451
 C     1.27932     2.09519    -0.05759
 C     3.70590     0.69968    -0.07438
 C     2.47576     2.78031    -0.13522
 O     0.08564    -1.31131     0.07789
 O    -1.08669     0.57944    -0.07166
 O     2.54576     4.13932    -0.23537
 H     1.79311     4.44378    -0.45279
 O     4.80896     2.84254    -0.27210
 O     4.94841     0.14476    -0.10961
 H    -0.73055    -1.64556    -0.03231
 H     2.53185    -0.98107     0.02233
 H     5.57725     2.28631    -0.22865
 H     4.93502    -0.73393     0.04363
 H     0.38949     2.58953    -0.05794
 C     0.20824    -1.33719     3.26400
 C    -2.29935    -1.33719     3.26400
 C    -1.09138    -2.03860     3.26366
 C    -3.47264    -3.42968     3.41936
 C    -1.07068    -3.43154     3.32125
 C    -3.49791    -2.03641     3.33923
 C    -2.26736    -4.11620     3.39973
 O     0.12235    -0.02542     3.18697
 O     1.29533    -1.91579     3.33532
 O    -2.33752    -5.47652     3.49937
 H    -1.58471    -5.77967     3.71731
 O    -4.60097    -4.17927     3.53696
 O    -4.73976    -1.48110     3.37327
 H     0.93895     0.30967     3.29683
 H    -2.32320    -0.35528     3.24133
 H    -5.36885    -3.62220     3.49317
 H    -4.72703    -0.60280     3.22122
 H    -0.18084    -3.92588     3.32160
 C     3.58048     0.53692     3.24803
 C     4.87663     1.23623     3.17362
 C     6.08664     0.53629     3.18243
 C     7.26441     2.63769     3.02824
 C     6.05362     3.31731     3.01490
 C     4.86013     2.62660     3.09988
 C     7.28166     1.24074     3.13381
 O     3.66350    -0.77489     3.26810
 O     2.49560     1.12595     3.30046
 O     8.52746     0.68898     3.16686
 O     8.40842     3.37583     2.96924
 O     6.04424     4.69260     2.91501
 H     2.86754    -1.14819     3.30399
 H     6.12469    -0.44733     3.26857
 H     8.43879    -0.19373     3.32775
 H     9.15044     2.83222     2.76323
 H     3.96980     3.12185     3.10124
 H     5.15590     5.16348     2.31800
 C     3.43803    -5.02475     0.42369
 C     2.14147    -5.72490     0.49844
 C     0.93163    -5.02366     0.49014
 C    -0.24590    -7.12552     0.64348
 C     0.96489    -7.80514     0.65682
 C     2.15814    -7.11396     0.57269
 C    -0.26381    -5.72896     0.53910
 O     3.35476    -3.71248     0.40447
 O     4.52267    -5.61332     0.37211
 O    -1.50936    -5.17766     0.50520
 O    -1.38991    -7.86366     0.70248
 O     0.97427    -9.18043     0.75671
 H     4.15097    -3.33964     0.36772
 H     0.89382    -4.04050     0.40315
 H    -1.42094    -4.29448     0.34516
 H    -2.13234    -7.32090     0.90883
 H     3.04846    -7.60922     0.57134
 H     1.86261    -9.65131     1.35372
 O     3.98131     5.67936     1.48429
 H     4.23834     6.37562     1.12038
 H     3.63989     4.99709     0.90856
 O     3.03678   -10.16803     2.18777
 H     2.78017   -10.86345     2.55133
 H     3.37862    -9.48492     2.76316
 O    -1.55153    -9.49743     3.18843
 H    -1.48564    -9.34411     2.47072
 H    -0.84175    -9.97197     3.37732
 O    -0.42965    -7.17235     4.12927
 H    -0.49554    -7.32567     4.84699
 H    -1.13984    -6.69866     3.94072
