  194
 
 Y     0.00000     0.00000     0.00000
 O    11.41609     0.00000     0.00000
 O     9.79727     2.10571     0.00000
 O    12.30758     0.83996     2.82416
 O    10.46360     2.77819     2.81148
 C    11.53729     0.16148    -1.19962
 C    10.89258     1.20551    -1.97182
 C    10.02075     2.14707    -1.24822
 C    12.44663    -0.82229    -1.94799
 C     9.33510     3.25852    -2.07361
 C    13.03904     1.63192     3.53712
 C    11.24868     3.35324     3.54032
 C    14.41026     1.10090     3.95195
 C    12.62980     2.88081     3.99259
 C    10.80005     4.77794     4.16481
 C     9.80949     4.60573    -1.42857
 C     9.64426     3.25950    -3.58901
 C    13.73227    -0.68445    -1.30472
 C    12.52646    -0.52154    -3.46891
 C    15.02590     0.59249     2.55290
 C    15.28841     2.16000     4.66173
 C    14.13875    -0.17183     4.88412
 C    10.34608     5.54502     3.00750
 C    11.85988     5.58439     4.79225
 C     9.65024     4.43389     5.05091
 O     9.71724    -1.15142     2.29441
 C     8.62842    -1.75884     2.63511
 C     8.71621    -3.27654     2.78746
 C     9.40698    -3.72719     1.40377
 C     7.34366    -3.94771     3.03694
 C     9.74221    -3.55177     3.98498
 C     7.43035    -1.11639     2.92925
 C     7.40934     0.40166     2.75513
 O     8.30994     1.12251     2.37104
 C     6.01223     1.09719     3.18565
 C     5.68190     1.95933     2.05362
 C     4.85736     0.20104     3.36016
 C     6.37279     1.91428     4.38064
 C     7.79826     3.05955    -1.83989
 C    11.86660    -2.11873    -1.68627
 Y    10.37210     0.87897     1.80070
 O     1.16044    -1.73762     0.85764
 O    -0.39788    -0.07217     2.21683
 O    -0.74413    -1.37509    -1.53312
 O    -2.09406     0.47775    -0.15408
 C     1.38149    -2.30533     1.91084
 C     0.82677    -1.92569     3.19616
 C    -0.07537    -0.76160     3.23147
 C     2.32128    -3.51643     1.86814
 C    -0.66430    -0.36016     4.60213
 C    -1.87188    -1.69667    -2.07655
 C    -3.04064     0.09439    -0.81382
 C    -1.83622    -2.83556    -3.09325
 C    -3.07264    -1.03454    -1.84325
 C    -4.44922     0.87414    -0.64379
 C    -2.21948    -0.42451     4.41946
 C    -0.23555    -1.23702     5.80185
 C     1.68970    -4.43062     0.94506
 C     2.52966    -4.15928     3.26577
 C    -1.04932    -3.99192    -2.29421
 C    -3.24047    -3.27020    -3.57796
 C    -0.91623    -2.33255    -4.30283
 C    -4.66608     0.90332     0.80051
 C    -5.63700     0.21957    -1.21650
 C    -4.16465     2.24522    -1.15974
 O     1.84621     0.61630    -1.00337
 C     2.53874     1.69410    -1.17453
 C     3.85783     1.54187    -1.92876
 C     4.56960     0.32776    -1.14508
 C     4.70428     2.83752    -1.95317
 C     3.48030     1.04739    -3.40370
 C     2.12682     2.96267    -0.77991
 C     0.79870     3.04597    -0.02864
 O     0.05960     2.13343     0.28637
 C     0.33860     4.55489     0.33537
 C    -0.00190     4.48901     1.75438
 C     1.36552     5.60292     0.21559
 C    -0.88720     4.76483    -0.48946
 C    -0.20825     1.12167     4.83078
 C     3.55537    -2.99634     1.32661
 H    11.04715     1.29059    -3.04744
 H    13.26135     3.49078     4.63849
 H     8.96009     5.10328    -0.96053
 H    10.57020     4.40001    -0.67550
 H    10.22803     5.25091    -2.20101
 H     8.91265     2.64145    -4.10945
 H    10.64372     2.85796    -3.75619
 H     9.59428     4.27975    -3.96938
 H    13.96860    -1.60151    -0.76504
 H    13.70092     0.15094    -0.60526
 H    14.49762    -0.49884    -2.05830
 H    11.74091    -1.06943    -3.98931
 H    13.49942    -0.83169    -3.85005
 H    12.39509     0.54765    -3.63526
 H    14.34844    -0.13106     2.09942
 H    15.99317     0.12260     2.73093
 H    15.15263     1.44188     1.88165
 H    14.78501     2.50241     5.56585
 H    16.24892     1.71764     4.92602
 H    15.44952     3.00565     3.99313
 H    13.24253    -0.68883     4.54117
 H    13.99756     0.15570     5.91411
 H    14.99128    -0.84899     4.83181
 H     9.44506     5.08739     2.59905
 H    10.12748     6.56828     3.31285
 H    11.12694     5.55174     2.24703
 H    11.78388     5.50368     5.87660
 H    12.83441     5.21920     4.46815
 H    11.74602     6.62735     4.49668
 H     8.98743     3.74040     4.53336
 H    10.02169     3.96856     5.96392
 H     9.10150     5.34136     5.30290
 H     8.77131    -4.45595     0.90084
 H    10.37877    -4.17493     1.61173
 H     9.53823    -2.85565     0.76244
 H     7.13513    -4.65716     2.23613
 H     7.36442    -4.47326     3.99165
 H     6.56502    -3.18525     3.05877
 H     9.43365    -4.44395     4.52987
 H     9.74892    -2.69707     4.66141
 H    10.74264    -3.70176     3.57910
 H     6.55217    -1.66706     3.26639
 H     4.78175     1.58741     1.56424
 H     5.50899     2.97520     2.40888
 H     6.50846     1.95866     1.34305
 H     4.46587    -0.08175     2.38299
 H     5.16976    -0.69340     3.89914
 H     4.08138     0.71475     3.92767
 H     5.61666     1.77990     5.15415
 H     7.34263     1.59355     4.76097
 H     6.42244     2.96635     4.09995
 H     7.48046     2.12028    -2.29251
 H     7.59379     3.03457    -0.76953
 H     7.25163     3.88547    -2.29503
 H    10.89960    -2.19137    -2.18398
 H    11.73289    -2.24676    -0.61210
 H    12.52959    -2.89654    -2.06514
 H     1.06846    -2.48114     4.10234
 H    -3.98876    -1.30674    -2.36741
 H    -2.52431    -1.45901     4.26137
 H    -2.70670    -0.03470     5.31320
 H    -2.50908     0.17549     3.55677
 H    -0.93908    -2.06127     5.91919
 H    -0.22882    -0.63311     6.70924
 H     0.76337    -1.63467     5.62263
 H     0.76347    -4.80506     1.38095
 H     2.36068    -5.26594     0.74470
 H     1.46844    -3.91067     0.01297
 H     1.77418    -4.92799     3.42837
 H     2.43951    -3.39270     4.03540
 H     3.52156    -4.60852     3.31485
 H    -1.66148    -4.89326    -2.26335
 H    -0.84503    -3.65647    -1.27743
 H    -0.10901    -4.20852    -2.80117
 H    -3.40272    -4.31872    -3.32821
 H    -3.99890    -2.65870    -3.08912
 H    -3.30871    -3.13916    -4.65790
 H    -1.29006    -2.74567    -5.23969
 H     0.10914    -2.66565    -4.14237
 H    -0.94140    -1.24387    -4.35013
 H    -5.53369     0.29250     1.05002
 H    -3.78587     0.50879     1.30814
 H    -4.84052     1.93041     1.12106
 H    -5.95661    -0.59093    -0.56148
 H    -6.44222     0.94790    -1.31279
 H    -5.39162    -0.18285    -2.19932
 H    -4.98360     2.56881    -1.80215
 H    -4.06553     2.93542    -0.32195
 H    -3.23704     2.23285    -1.73200
 H     3.91200    -0.54153    -1.14779
 H     4.77120     0.62764    -0.11672
 H     5.50722     0.07559    -1.64046
 H     4.14035     3.63061    -2.44418
 H     4.93914     3.13743    -0.93190
 H     5.62934     2.65697    -2.50068
 H     2.60122     0.40459    -3.35754
 H     4.31658     0.48955    -3.82506
 H     3.26604     1.91133    -4.03282
 H     2.72043     3.85110    -0.99531
 H    -0.87903     3.85596     1.88851
 H     0.83693     4.07014     2.31026
 H    -0.21771     5.49176     2.12319
 H     1.20138     6.16920    -0.70119
 H     1.30244     6.27316     1.07286
 H     2.35303     5.14241     0.18633
 H    -1.52440     3.88287    -0.42441
 H    -1.43051     5.63378    -0.11820
 H    -0.60202     4.93121    -1.52826
 H    -1.07913     1.77687     4.81121
 H     0.28693     1.20431     5.79829
 H     0.48454     1.41450     4.04186
 H     3.72446    -3.41962     0.33648
 H     4.38254    -3.26615     1.98319
 H     3.49030    -1.91089     1.25145
