  194
 
 Y     0.00000     0.00000     0.00000
 O    11.79336     0.14491     0.02330
 O    10.10251     2.19657    -0.17657
 O    12.36416     0.84650     2.81602
 O    10.71277     2.92424     2.73777
 C    11.88130     0.23253    -1.22482
 C    11.22042     1.20741    -1.97999
 C    10.35452     2.14030    -1.40932
 C    12.75465    -0.87106    -1.83775
 C     9.56863     3.19201    -2.20427
 C    13.13599     1.62628     3.43441
 C    11.53676     3.47222     3.50903
 C    14.50491     0.99668     3.71340
 C    12.77122     2.90622     3.84716
 C    11.04257     4.82911     4.02760
 C     9.93707     4.57119    -1.64149
 C     9.85503     3.15001    -3.70330
 C    14.04126    -0.97626    -1.01218
 C    13.11951    -0.62842    -3.30200
 C    14.97607     0.39213     2.38572
 C    15.53478     2.00423     4.22520
 C    14.28255    -0.10288     4.75756
 C    10.84126     5.71631     2.79358
 C    12.02374     5.48924     4.99794
 C     9.70414     4.55497     4.72796
 O     9.86899    -0.98888     1.97730
 C     8.81112    -1.55540     2.35351
 C     8.98460    -3.07567     2.49012
 C     9.54025    -3.58983     1.15550
 C     7.67588    -3.78810     2.83227
 C    10.01076    -3.30725     3.60907
 C     7.62282    -0.87870     2.63507
 C     7.50468     0.51388     2.54388
 O     8.45187     1.26644     2.21797
 C     6.21539     1.28938     2.85618
 C     5.99415     2.26836     1.69728
 C     4.99676     0.37971     3.00751
 C     6.46688     2.06436     4.15723
 C     8.08782     2.88388    -1.93267
 C    11.92974    -2.15927    -1.72105
 Y    10.55884     1.04793     1.60906
 O     1.32481    -1.61839     0.68850
 O    -0.50630    -0.23981     2.09607
 O    -0.71732    -1.51656    -1.37348
 O    -2.07432     0.56753    -0.42642
 C     1.42196    -2.32438     1.71948
 C     0.74503    -2.04349     2.91318
 C    -0.15747    -0.98761     3.04752
 C     2.41216    -3.48859     1.55899
 C    -0.82242    -0.58432     4.37162
 C    -1.77701    -1.78874    -1.99376
 C    -3.04509     0.09242    -1.06236
 C    -1.61155    -3.02804    -2.88413
 C    -2.95034    -1.03905    -1.88323
 C    -4.34044     0.88165    -0.81502
 C    -2.34309    -0.60804     4.16221
 C    -0.44246    -1.49952     5.53254
 C     2.15095    -4.15514     0.20230
 C     2.28700    -4.53245     2.67209
 C    -1.25007    -4.19789    -1.95937
 C    -2.87150    -3.36577    -3.67917
 C    -0.45603    -2.71532    -3.84684
 C    -4.68149     0.65671     0.66493
 C    -5.48770     0.42591    -1.71817
 C    -4.06076     2.36964    -1.05955
 O     1.74946     0.56719    -1.16150
 C     2.48422     1.58421    -1.26592
 C     3.80695     1.27135    -1.97708
 C     4.50644     0.21285    -1.11208
 C     4.69542     2.50443    -2.13828
 C     3.47745     0.69095    -3.35798
 C     2.13146     2.84789    -0.79222
 C     0.95071     3.08879    -0.07679
 O     0.15159     2.18398     0.25972
 C     0.49304     4.48627     0.37059
 C     0.00836     4.37093     1.82043
 C     1.60640     5.53163     0.27961
 C    -0.67700     4.87508    -0.54460
 C    -0.34620     0.84894     4.65511
 C     3.81359    -2.86372     1.58253
 H    11.38551     1.24162    -3.04877
 H    13.46337     3.47985     4.44844
 H     9.21272     5.33018    -1.95452
 H     9.95173     4.56119    -0.54089
 H    10.92368     4.89263    -1.99376
 H     9.52631     2.20699    -4.15911
 H    10.92635     3.26947    -3.92640
 H     9.33099     3.96195    -4.23639
 H    13.81514    -1.11666     0.05651
 H    14.65082    -0.07059    -1.10045
 H    14.65163    -1.83034    -1.32716
 H    12.23245    -0.51425    -3.93353
 H    13.69602    -1.47243    -3.70120
 H    13.73284     0.27054    -3.42000
 H    14.23383    -0.33008     2.00345
 H    15.93377    -0.12318     2.49973
 H    15.08342     1.15708     1.60892
 H    15.22870     2.44669     5.18195
 H    16.50644     1.52169     4.38502
 H    15.68515     2.82660     3.51501
 H    13.53977    -0.83007     4.39509
 H    13.90158     0.30177     5.70201
 H    15.21039    -0.64049     4.97380
 H    10.24078     5.19522     2.03155
 H    10.31997     6.64387     3.04705
 H    11.79902     5.98928     2.33093
 H    12.22726     4.85277     5.86747
 H    12.98325     5.71585     4.51180
 H    11.62701     6.43990     5.37251
 H     9.00029     4.06360     4.03703
 H     9.83254     3.89803     5.59457
 H     9.22815     5.47423     5.07827
 H     8.94748    -3.23038     0.30492
 H     9.54765    -4.68317     1.11253
 H    10.56894    -3.22871     0.99807
 H     7.83675    -4.86887     2.93507
 H     7.25514    -3.42789     3.77940
 H     6.91787    -3.65026     2.05155
 H    10.27602    -4.36607     3.69019
 H     9.63238    -2.97949     4.58507
 H    10.93483    -2.74377     3.40420
 H     6.75728    -1.44708     2.94406
 H     5.90482     1.74753     0.73709
 H     5.08824     2.86361     1.84522
 H     6.85317     2.95450     1.61059
 H     4.80208    -0.19380     2.09283
 H     5.11761    -0.33163     3.83328
 H     4.09169     0.96447     3.21261
 H     5.61504     2.70664     4.40839
 H     6.64193     1.38797     5.00248
 H     7.35207     2.71129     4.05783
 H     7.80506     1.90435    -2.33347
 H     7.88201     2.87429    -0.85031
 H     7.43805     3.63831    -2.38769
 H    11.00622    -2.10327    -2.30606
 H    11.65472    -2.34623    -0.67209
 H    12.50530    -3.02136    -2.07449
 H     0.94133    -2.66545     3.77666
 H    -3.81446    -1.34182    -2.45770
 H    -2.71204    -1.63143     4.03424
 H    -2.86417    -0.17274     5.02213
 H    -2.62703    -0.03050     3.27020
 H    -0.77002    -2.53469     5.36843
 H    -0.91335    -1.15976     6.47229
 H     0.64264    -1.51762     5.71042
 H     1.16327    -4.62672     0.17012
 H     2.90076    -4.92283    -0.01946
 H     2.18452    -3.42065    -0.61834
 H     1.27318    -4.94731     2.72153
 H     2.52492    -4.11231     3.65715
 H     2.97877    -5.36729     2.50192
 H    -2.07461    -4.44879    -1.28012
 H    -0.37813    -3.94929    -1.33575
 H    -1.01082    -5.09968    -2.52988
 H    -2.71616    -4.26130    -4.29423
 H    -3.72217    -3.58024    -3.01889
 H    -3.15589    -2.55305    -4.35772
 H    -0.18039    -3.59415    -4.43711
 H     0.43720    -2.38849    -3.29081
 H    -0.72050    -1.90953    -4.54166
 H    -4.88048    -0.39888     0.87894
 H    -3.84080     0.96555     1.30731
 H    -5.55775     1.23897     0.96762
 H    -5.72231    -0.63614    -1.57411
 H    -6.40206     0.99511    -1.51024
 H    -5.24250     0.57420    -2.77685
 H    -4.91603     2.98652    -0.75942
 H    -3.19156     2.70689    -0.47373
 H    -3.84770     2.57395    -2.11400
 H     3.88831    -0.69788    -1.04532
 H     4.65896     0.56341    -0.08449
 H     5.48376    -0.06080    -1.51888
 H     4.19609     3.29219    -2.71573
 H     4.98675     2.92923    -1.17038
 H     5.61765     2.24451    -2.67315
 H     2.80696    -0.17646    -3.26291
 H     4.38325     0.35801    -3.87432
 H     2.97038     1.42390    -3.99656
 H     2.79418     3.67898    -0.98602
 H    -0.83359     3.66398     1.89214
 H     0.79981     3.99138     2.47712
 H    -0.32093     5.33684     2.21460
 H     1.93368     5.69205    -0.75482
 H     1.26978     6.50080     0.66789
 H     2.48554     5.24389     0.86896
 H    -1.43290     4.07621    -0.57158
 H    -1.17739     5.78140    -0.18526
 H    -0.34515     5.06263    -1.57088
 H    -0.82704     1.25368     5.55021
 H     0.73803     0.88142     4.80981
 H    -0.58401     1.51551     3.81265
 H     3.91973    -2.12395     0.77575
 H     4.58586    -3.62597     1.43587
 H     4.01814    -2.35801     2.53188
