  248
 
 C     0.00000     0.00000     0.00000
 H     0.96902     0.00000     0.00000
 H    -0.30246     0.92044     0.00000
 C    -0.49564    -0.68426    -1.22636
 H    -1.46575    -0.70653    -1.23236
 H    -0.19292    -0.21483    -2.02032
 C     0.89007    -2.35541    -2.09688
 H     1.06605    -1.70824    -2.74067
 C     1.60159    -3.59286    -2.21873
 C     2.42331    -3.78953    -3.34794
 H     2.44500    -3.12252    -3.99566
 C     3.17684    -4.88220    -3.54149
 H     3.68720    -4.99120    -4.31050
 C     3.15975    -5.83674    -2.55081
 H     3.68143    -6.59788    -2.65446
 C     2.40122    -5.70581    -1.41494
 H     2.43574    -6.37542    -0.77147
 C     1.58093    -4.60624    -1.19702
 N    -0.49547    -0.68644     1.22075
 N     0.04927    -2.05627    -1.20310
 O     0.85966    -4.49859    -0.11307
Yb    -0.75124    -3.31979     0.71311
 C     0.47195    -0.49513     2.33067
 H    -0.00082    -0.51829     3.17727
 H     0.89683     0.37114     2.24519
 C     1.51108    -1.56146     2.31299
 H     1.98003    -1.56110     1.46454
 H     2.15592    -1.41514     3.02276
 N     0.81148    -2.84640     2.51164
 C     1.04472    -3.46623     3.58749
 H     1.68214    -3.09712     4.15367
 C     0.42470    -4.68186     4.02333
 C     0.89068    -5.28984     5.20704
 H     1.61242    -4.90006     5.64476
 C     0.35241    -6.39701     5.73962
 H     0.70116    -6.78670     6.50809
 C    -0.74048    -6.93212     5.09651
 H    -1.13953    -7.69240     5.45233
 C    -1.26263    -6.38461     3.95231
 H    -2.00900    -6.77969     3.56515
 C    -0.70942    -5.26076     3.35225
 O    -1.21519    -4.75440     2.25931
 N    -2.84307    -2.27036     1.36480
 C    -2.63231    -1.15921     2.31396
 C    -1.81855    -0.13266     1.60442
 H    -2.28997     0.16037     0.81013
 H    -1.69343     0.63470     2.18311
 H    -2.16474    -1.47435     3.10287
 H    -3.48389    -0.78351     2.58785
 C    -4.02563    -2.46866     0.96736
 H    -4.68947    -1.93642     1.34292
 C    -4.44896    -3.43189    -0.00522
 C    -5.82978    -3.58617    -0.24457
 H    -6.42253    -3.08270     0.26566
 C    -6.33928    -4.41555    -1.16754
 H    -7.25758    -4.51207    -1.28145
 C    -5.44317    -5.11920    -1.93849
 H    -5.76972    -5.69166    -2.59345
 C    -4.08613    -5.00597    -1.77670
 H    -3.52387    -5.49557    -2.33292
 C    -3.52203    -4.18558    -0.80807
 O    -2.22773    -4.09279    -0.66255
 C    -2.92817    -3.59087    -5.71539
 H    -2.36317    -3.58887    -6.50396
 H    -3.10250    -4.51316    -5.47087
 C    -2.22290    -2.90724    -4.59671
 H    -2.78241    -2.88679    -3.80524
 H    -1.39912    -3.37450    -4.38162
 C    -0.71285    -1.22948    -5.21416
 H    -0.08525    -1.87622    -4.98280
 C    -0.20263     0.01016    -5.71923
 C     1.19279     0.21009    -5.72935
 H     1.73450    -0.45598    -5.37038
 C     1.78605     1.30624    -6.22712
 H     2.70844     1.41673    -6.19302
 C     0.96745     2.25835    -6.78945
 H     1.35430     3.02107    -7.15179
 C    -0.39602     2.12320    -6.83425
 H    -0.90146     2.79203    -7.23642
 C    -1.04811     1.02197    -6.29641
 N    -4.21133    -2.90862    -6.02354
 N    -1.92855    -1.53245    -5.05195
 O    -2.34876     0.90941    -6.34147
Yb    -3.95546    -0.27430    -5.51571
 C    -4.54948    -3.09790    -7.45576
 H    -5.51350    -3.07824    -7.56555
 H    -4.22941    -3.96383    -7.75268
 C    -3.93265    -2.02950    -8.28843
 H    -2.96895    -2.02613    -8.17588
 H    -4.13355    -2.17482    -9.22714
 N    -4.50561    -0.74574    -7.83450
 C    -5.24610    -0.12690    -8.64965
 H    -5.33398    -0.49598    -9.49817
 C    -5.96562     1.08625    -8.39770
 C    -6.65765     1.69282    -9.46554
 H    -6.59142     1.30449   -10.30776
 C    -7.40736     2.79857    -9.33643
 H    -7.82914     3.18714   -10.06765
 C    -7.52309     3.33033    -8.07236
 H    -8.04605     4.08880    -7.95424
 C    -6.89553     2.78311    -6.98274
 H    -7.01640     3.17641    -6.14939
 C    -6.08241     1.66277    -7.08400
 O    -5.48757     1.15564    -6.03727
 N    -5.70114    -1.33090    -4.19666
 C    -6.34630    -2.44388    -4.92276
 C    -5.29310    -3.46585    -5.17236
 H    -4.92057    -3.76022    -4.32656
 H    -5.68721    -4.23473    -5.61289
 H    -6.71608    -2.12761    -5.76151
 H    -7.06491    -2.82237    -4.39105
 C    -6.06701    -1.13562    -3.00340
 H    -6.75794    -1.67118    -2.68445
 C    -5.52727    -0.17202    -2.09139
 C    -6.13698    -0.02272    -0.82862
 H    -6.89561    -0.52857    -0.64559
 C    -5.68684     0.80773     0.12404
 H    -6.12910     0.90084     0.93587
 C    -4.53893     1.51421    -0.15490
 H    -4.19945     2.08680     0.49294
 C    -3.87992     1.40482    -1.35235
 H    -3.10210     1.89700    -1.48476
 C    -4.33714     0.58561    -2.37568
 O    -3.69997     0.49536    -3.51279
 C    -0.20019    -8.22671    -1.19141
 H    -0.57189    -7.93252    -2.03668
 H     0.19446    -7.45772    -0.75171
 C     0.85301    -9.24867    -1.44101
 H     1.22362    -9.56513    -0.60174
 H     1.57162    -8.87019    -1.97273
 C     0.57510   -10.55702    -3.36067
 H     1.26520   -10.02128    -3.68015
 C     0.03397   -11.52054    -4.27238
 C     0.64452   -11.67002    -5.53462
 H     1.40315   -11.16417    -5.71766
 C     0.19355   -12.50029    -6.48781
 H     0.63580   -12.59340    -7.29964
 C    -0.95299   -13.20684    -6.20918
 H    -1.29302   -13.77954    -6.85619
 C    -1.61337   -13.09738    -5.01142
 H    -2.39065   -13.58946    -4.87984
 C    -1.15615   -12.27817    -3.98809
 N    -1.28279    -8.78376    -0.34076
 N     0.20840   -10.36155    -2.16794
 O    -1.79249   -12.18810    -2.85046
Yb    -1.53866   -11.41808    -0.84859
 C    -2.56457    -8.10158    -0.64921
 H    -3.12874    -8.10376     0.13989
 H    -2.39079    -7.17940    -0.89290
 C    -3.27039    -8.78532    -1.76706
 H    -2.71004    -8.80595    -2.55800
 H    -4.09280    -8.31814    -1.98246
 N    -3.56419   -10.16001    -1.31265
 C    -4.77989   -10.46297    -1.15045
 H    -5.40666    -9.81641    -1.38128
 C    -5.29011   -11.70261    -0.64537
 C    -6.68554   -11.90254    -0.63525
 H    -7.22641   -11.23665    -0.99369
 C    -7.27879   -12.99869    -0.13748
 H    -8.20090   -13.10947    -0.17022
 C    -6.46019   -13.95080     0.42485
 H    -6.84759   -14.71363     0.78802
 C    -5.09589   -13.81583     0.47017
 H    -4.59128   -14.48448     0.87182
 C    -4.44463   -12.71442    -0.06820
 O    -3.14370   -12.60215    -0.02178
 N    -0.98713   -10.94671     1.46990
 C    -1.55980    -9.66324     1.92519
 C    -0.94243    -8.59473     1.09168
 H     0.02021    -8.61432     1.20178
 H    -1.26305    -7.72891     1.38944
 H    -2.52297    -9.66650     1.81180
 H    -1.35836    -9.51781     2.86306
 C    -0.24665   -11.56555     2.28505
 H    -0.15847   -11.19676     3.13492
 C     0.47288   -12.77870     2.03310
 C     1.16491   -13.38527     3.10094
 H     1.09951   -12.99713     3.94368
 C     1.91462   -14.49102     2.97183
 H     2.33722   -14.87978     3.70357
 C     2.03063   -15.02307     1.70912
 H     2.55414   -15.78144     1.59017
 C     1.40307   -14.47585     0.61950
 H     1.52449   -14.86904    -0.21469
 C     0.58966   -13.35522     0.71940
 O    -0.00572   -12.84820    -0.32650
 C    -5.49246   -11.69274    -6.36325
 H    -6.46231   -11.69256    -6.36377
 H    -5.18945   -12.61307    -6.36408
 C    -4.99682   -11.00848    -5.13688
 H    -4.02754   -10.98603    -5.13141
 H    -5.29954   -11.47792    -4.34293
 C    -6.38282    -9.33704    -4.26772
 H    -6.55796    -9.98440    -3.62341
 C    -7.09405    -8.09988    -4.14452
 C    -7.91660    -7.90303    -3.01583
 H    -7.93829    -8.57004    -2.36811
 C    -8.66930    -6.81054    -2.82175
 H    -9.17966    -6.70154    -2.05274
 C    -8.65249    -5.85571    -3.81379
 H    -9.17472    -5.09468    -3.70931
 C    -7.89368    -5.98693    -4.94831
 H    -7.92766    -5.31722    -5.59261
 C    -7.07339    -7.08650    -5.16622
 N    -4.99782   -11.00611    -7.58452
 N    -5.54118    -9.63637    -5.16097
 O    -6.35295    -7.19397    -6.25070
Yb    -4.74205    -8.37277    -7.07688
 C    -5.96386   -11.19750    -8.69475
 H    -5.49192   -11.17416    -9.54187
 H    -6.38929   -12.06388    -8.60844
 C    -7.00354   -10.13128    -8.67623
 H    -7.47332   -10.13146    -7.82831
 H    -7.64866   -10.27732    -9.38736
 N    -6.30339    -8.84623    -8.87572
 C    -6.53663    -8.22641    -9.95156
 H    -7.17488    -8.59533   -10.51827
 C    -5.91661    -7.01077   -10.38741
 C    -6.38259    -6.40280   -11.57112
 H    -7.10517    -6.79239   -12.00936
 C    -5.84433    -5.29562   -12.10369
 H    -6.19445    -4.90585   -12.87186
 C    -4.75143    -4.76051   -11.46059
 H    -4.35293    -4.00034   -11.81558
 C    -4.23011    -5.30784   -10.31691
 H    -3.48291    -4.91294    -9.92922
 C    -4.78249    -6.43187    -9.71632
 O    -4.27810    -6.93816    -8.62308
 N    -2.64884    -9.42227    -7.72888
 C    -2.86098   -10.53335    -8.67773
 C    -3.67419   -11.55979    -7.96902
 H    -3.20249   -11.85311    -7.17338
 H    -3.79986   -12.32726    -8.54688
 H    -3.32801   -10.21810    -9.46747
 H    -2.00886   -10.90894    -8.95245
 C    -1.46628    -9.22397    -7.33144
 H    -0.80382    -9.75614    -7.70669
 C    -1.04295    -8.26074    -6.35886
 C     0.33787    -8.10647    -6.11951
 H     0.92978    -8.60975    -6.63026
 C     0.84736    -7.27709    -5.19653
 H     1.76483    -7.18038    -5.08315
 C    -0.05012    -6.57336    -4.42528
 H     0.27697    -6.00079    -3.77115
 C    -1.40716    -6.68659    -4.58707
 H    -1.96887    -6.19689    -4.03168
 C    -1.96988    -7.50706    -5.55600
 O    -3.26472    -7.59995    -5.70070
