   96
 
Br     0.00000     0.00000     0.00000
Br    -2.20627     3.36608    -0.41870
Br    -4.48940     0.74064    -0.82640
Br    -4.62670     3.90432    -2.31748
Br    -2.22782    -0.96631    -1.99240
Br     0.74232     2.42757    -1.52092
Br    -2.03661    -3.51293    -7.25085
Br    -4.17935     0.07798    -7.77198
Br    -6.73914    -2.45862    -8.19800
Br     0.06684     3.45099     1.68923
Br    -5.14547     2.85802     1.23871
Br    -2.34958    -1.85139     0.95515
Br    -4.62145     0.03863    -3.77558
Br     0.54169    -0.47250    -3.73736
Br    -1.65774     4.98301    -3.15118
Br    -1.84467     0.21577    -5.63782
Br    -7.18475    -0.34929    -6.07042
Br    -4.71468    -5.16829    -6.38648
 Y    -2.46811     1.18612     1.63074
 Y    -2.02746     1.86219    -3.12700
 Y    -4.62409    -2.11345    -5.82693
 Y     2.67573     1.44515     1.03621
 Y    -7.06923     1.81780    -2.14043
 Y     0.79078    -1.89367    -6.44746
Br     0.30605     7.86841     0.97394
Br    -1.98692    11.35911     0.60018
Br    -4.46848     8.71049     0.05150
Br    -4.41972    11.80399    -1.40490
Br    -2.06371     7.09252    -1.00010
Br     0.92994    10.36841    -0.50208
Br    -1.75633     4.50864    -6.17358
Br    -3.92408     7.92538    -6.74764
Br    -6.31707     5.33124    -7.10597
Br     0.45253    11.25044     2.58792
Br    -4.98942    10.72268     2.23143
Br    -2.03303     6.02240     1.86873
Br    -4.34770     7.99277    -2.92971
Br     0.75588     7.63454    -2.67835
Br    -1.43403    12.90573    -2.27821
Br    -1.58356     8.18071    -4.67136
Br    -6.97173     7.55919    -5.19548
Br    -4.24755     2.64355    -5.40510
 Y    -2.32250     9.02363     2.49267
 Y    -1.82115     9.89177    -2.16844
 Y    -4.32619     5.70234    -4.78659
 Y     3.10060     9.28646     1.93663
 Y    -7.08881     9.66716    -1.27740
 Y     0.99626     6.12228    -5.29616
Br     7.72287    -3.93380     0.49140
Br     5.30613    -0.63842     0.25034
Br     3.14044    -3.56328    -0.34102
Br     2.84580    -0.25190    -1.57119
Br     5.41657    -5.22709    -1.59010
Br     8.19045    -1.48448    -1.11718
Br     5.40692    -7.13777    -6.98725
Br     3.41337    -3.93670    -7.02619
Br     0.96869    -6.61410    -7.51671
Br     7.68788    -0.46317     2.23891
Br     2.23879    -1.59852     1.65438
Br     5.30103    -5.51739     1.44281
Br     2.79534    -3.78766    -3.35743
Br     8.16315    -4.39911    -3.20187
Br     5.94920     0.74147    -2.85836
Br     5.71512    -3.79180    -4.97790
Br     0.32394    -4.58967    -5.37683
Br     3.25691    -9.05919    -5.84937
 Y     5.10689    -2.67297     2.44701
 Y     5.43412    -2.27356    -2.36638
 Y     2.96439    -6.19349    -5.07171
 Y    10.48062    -2.65140     1.21173
 Y     0.37076    -2.57959    -1.59079
 Y     8.22519    -5.88471    -5.93015
Br     7.96805     3.93668     1.33934
Br     5.56530     7.26324     1.25997
Br     3.22665     4.44232     0.58303
Br     3.14884     7.76953    -0.70194
Br     5.38373     2.75741    -0.75225
Br     8.42354     6.52518    -0.04499
Br     5.47453     0.94460    -5.93770
Br     3.59932     3.93805    -5.91621
Br     1.35531     1.14817    -6.51648
Br     8.07958     7.40075     3.07864
Br     2.42562     6.34517     2.68036
Br     5.59877     2.29698     2.26087
Br     2.94284     4.32693    -2.48590
Br     8.34051     3.62033    -2.17264
Br     6.26793     8.73381    -1.90280
Br     5.94642     4.19415    -3.99459
Br     0.53350     3.21745    -4.50841
Br     3.59061    -1.25378    -4.80571
 Y     5.21787     5.08703     3.23730
 Y     5.66541     5.75465    -1.38920
 Y     3.13076     1.66785    -3.90608
 Y    10.79031     5.19084     2.16163
 Y     0.48555     5.36149    -0.69046
 Y     8.36399     2.13982    -4.84400
