   80
 
 Y     0.00000     0.00000     0.00000
 Y    -5.74550    -0.04831     0.18753
 Y    -0.18139     5.48897     0.20587
 Y    -0.17173     0.02708     5.69601
 Y    -5.71201     5.65406    -5.45683
 Y    -0.02834     5.45843     5.43533
 Y    -5.43699    -0.13814     5.60702
 Y    -5.56039     5.47010    -0.05588
 Y    -2.81579    -0.06835    -2.60348
 Y    -2.95851     5.56392     2.86123
 Y    -0.00228    -3.14319    -2.71985
 Y    -5.57410     2.66967    -2.81304
 Y    -2.79046    -2.94000     0.08097
 Y    -2.91654     2.71715     0.06168
 Y    -2.82039     5.48207    -2.79702
 Y    -2.84203    -0.14587     2.74134
 Y     5.60174    -2.93054    -2.62360
 Y    -0.01491     2.79506    -2.73597
 Y    -2.87360    -2.92111     5.70605
 Y    -2.85884     2.78781     5.54742
 Y     2.77724     5.52948     2.81140
 Y     2.82700    -0.03981    -2.87772
 Y    -5.66527     2.80841     2.81457
 Y    -0.05792    -2.91587     2.86469
 Y     2.75437     2.75923     5.64304
 Y     2.73539    -2.94119    -5.49861
 Y     2.78357    -0.04654     3.07813
 Y     2.79888     5.49280    -2.59306
 Y    -0.06671     2.59908     2.84597
 Y    -5.68532    -2.82465     2.85936
 Y     2.70877     2.66126     0.08955
 Y     2.75767    -2.84683     0.05123
 O    -1.25987     1.02105     1.86874
 O    -4.63854    -1.16630     1.78267
 O    -1.25669     4.30878    -2.01398
 O     0.88760     0.85027     3.84740
 O     1.03782     1.63628    -1.01233
 O     4.54564    -1.86844    -0.95263
 O     1.25605     3.36340     1.40131
 O    -1.04475     1.68147    -4.40971
 O     1.33834    -1.41924     0.45892
 O     3.61333     0.75408     1.13177
 O     1.93060    -4.02926    -1.58198
 O    -1.57666    -1.39371     5.16768
 O    -4.06295     3.91264     3.67425
 O    -1.16415    -4.62296     3.90618
 O    -4.45209     0.99366    -3.64927
 O     4.47194     4.43430     2.03371
 O    -6.48819     3.66108    -4.61131
 O     0.98198    -3.99285    -4.61253
 O     3.91069     1.86680     4.04722
 O    -4.55812     3.66419    -1.12230
 O    -7.35624    -4.58780     4.54488
 O     1.73445     4.47229     4.63062
 O     3.26453    -1.64358    -4.01032
 O    -3.92659    -4.62768     1.22186
 O     4.57585     6.51827    -3.65198
 O     1.44704     4.13032    -3.27625
 O     4.54582    -1.13495     4.08813
 O    -4.61430    -4.58901    -1.67329
 O    -4.35482     7.24981     4.38611
 O    -1.09855     3.60095     4.54709
 O    -4.51016    -1.88593    -4.47592
 O     3.97584    -3.56030     1.62157
 O    -3.43199     4.34593    -4.41281
 O    -1.92905    -4.02772    -3.80866
 O    -3.79941     0.76855     4.50480
 O     3.58932     4.48381    -0.85738
 O     0.27845    -1.02688    -2.21652
 O     4.23411     1.20724    -2.04178
 O     0.99319    -4.74846     1.77053
 O    -0.73911    -1.01254    -3.25189
 O    -1.74380    -2.01164     1.86220
 O    -4.60708     1.77927     1.12982
 O    -1.03411    -3.97655    -0.73278
 O     1.55999    -2.11266     3.95710
 O    -2.12143     1.11528    -1.05050
 O    -3.39454    -1.60473    -1.37553
 O    -1.82193     4.37052     1.07565
 O     2.07389     1.07029    -4.46114
