   96
 
Zn     0.00000     0.00000     0.00000
 S     1.95351     1.05201     2.34849
 O     1.80145     1.07924     3.88884
 O     3.40977     0.95607     1.86887
 O     1.21467    -0.11928     1.68841
Zn    -0.20495    -3.48025     0.03622
 O     1.35903     2.27860     1.64446
Zn    -4.24570    -2.63414     2.66909
Zn    -4.11994    -0.37579     2.64953
 O    -1.21862    -1.73078    -4.03285
 O     1.05778    -1.80662    -0.67431
 O    -1.69983     1.21303     0.42098
 O    -0.84126    -3.00290    -1.88043
 O    -0.72646    -0.45816    -1.90008
 S    -1.25285    -1.71264    -2.50116
 O    -2.79635    -1.64206    -2.09876
 S     2.60453    -1.89554    -0.72257
 O     3.10143    -1.90492     0.71148
 O     2.92895    -3.12727    -1.56869
 O     3.07225    -0.72094    -1.58363
 O    -3.33373     1.25994    -1.52468
 O    -3.80557     0.04372     0.62428
 O    -3.69529     2.57157     0.58442
 S    -3.21301     1.27433    -0.00192
Zn    -0.31008    -0.04898    -5.18511
 S     1.63092     1.00228    -2.82751
 O     1.47218     1.02976    -1.28804
 O     3.08781     0.90831    -3.30875
 O     0.89576    -0.16993    -3.49076
Zn    -0.51916    -3.52756    -5.14335
 O     1.03626     2.22873    -3.53008
Zn    -4.56783    -2.68263    -2.51248
Zn    -4.44503    -0.42354    -2.53131
 O    -1.54119    -1.78127    -9.21489
 O     0.74480    -1.85698    -5.85758
 O    -2.01068     1.16352    -4.76563
 O    -1.15937    -3.05421    -7.06180
 O    -1.04327    -0.51194    -7.08162
 S    -1.57258    -1.76477    -7.68341
 O    -3.11638    -1.69326    -7.28448
 S     2.29101    -1.94647    -5.90666
 O     2.78648    -1.95628    -4.47214
 O     2.61536    -3.17886    -6.75139
 O     2.75970    -0.77142    -6.76642
 O    -3.65069     1.21049    -6.70789
 O    -4.11503    -0.00635    -4.55568
 O    -4.00745     2.51933    -4.59544
 S    -3.52499     1.22404    -5.18450
Zn     0.29263     5.71697    -0.07233
 S     2.24918     6.76966     2.27790
 O     2.09565     6.79609     3.81711
 O     3.70435     6.67439     1.79445
 O     1.50306     5.60219     1.61940
Zn     0.11148     2.23415    -0.02452
 O     1.66006     7.99854     1.57353
Zn    -3.94134     3.08054     2.59682
Zn    -3.82703     5.33973     2.57444
 O    -0.91582     3.97932    -4.10145
 O     1.35090     3.90997    -0.74766
 O    -1.40247     6.92888     0.34947
 O    -0.54166     2.71069    -1.94525
 O    -0.43496     5.25613    -1.96947
 S    -0.95519     3.99807    -2.56991
 O    -2.49968     4.07092    -2.17087
 S     2.89874     3.82454    -0.79555
 O     3.39582     3.80788     0.63818
 O     3.22788     2.59449    -1.64101
 O     3.36461     4.99928    -1.65609
 O    -3.03415     6.97795    -1.59605
 O    -3.51328     5.76304     0.55005
 O    -3.38957     8.28980     0.52346
 S    -2.91511     6.99369    -0.07177
Zn    -0.01587     5.66647    -5.25501
 S     1.93086     6.71994    -2.89802
 O     1.77027     6.74531    -1.35982
 O     3.38722     6.62470    -3.37965
 O     1.18894     5.55038    -3.56027
Zn    -0.19928     2.18614    -5.20891
 O     1.34325     7.94784    -3.60321
Zn    -4.26638     3.03234    -2.58266
Zn    -4.14981     5.29086    -2.60327
 O    -1.23906     3.93230    -9.28358
 O     1.04284     3.86032    -5.93014
 O    -1.71447     6.87725    -4.83522
 O    -0.85776     2.66221    -7.12948
 O    -0.75452     5.20687    -7.14882
 S    -1.27459     3.94955    -7.75097
 O    -2.82031     4.02212    -7.35619
 S     2.58945     3.77747    -5.98167
 O     3.08499     3.76078    -4.54841
 O     2.91951     2.54805    -6.82725
 O     3.05077     4.95361    -6.84167
 O    -3.35328     6.92671    -6.77679
 O    -3.82454     5.71018    -4.62983
 O    -3.70295     8.23574    -4.65708
 S    -3.22784     6.94062    -5.25273
