   40
 
Zr     0.00000     0.00000     0.00000
Zr     3.26350    -2.88445     3.84511
Zr     1.52615     2.01013    -3.21661
Zr     1.52615    -3.49044    -1.48459
Zr    -0.47822    -3.42982     2.11310
Zr    -2.21557    -4.03581    -3.21661
Zr    -2.21557     1.46476    -4.94862
 F    -1.15210    -0.35978    -5.25954
 F     4.72794    -1.04422     0.80069
 F     2.32777    -2.20371    -2.92283
 F     1.24807     0.79971    -1.53603
 F     0.46267    -1.66590    -1.17367
 F     1.53158     0.03138    -4.01730
 F     3.93174     1.19087    -0.29378
 F    -1.93750    -2.82539    -4.89719
 F     3.48949     2.54723     1.96875
 F    -1.90120     3.60843    -5.26727
 F    -0.54654     0.47414     2.06693
 F     0.84424    -3.79087     0.40533
 F     1.06461     4.04071    -3.89442
 F    -0.49364     1.96667     0.12499
 F    -3.13889    -4.37143    -1.43843
 F     2.41926     0.90642     3.43978
 F    -0.30491     1.76786    -4.17818
 F    -0.38452    -3.79354    -2.25504
 F     1.41784    -3.25968     2.95696
 F     1.84566     0.37524     0.88815
 F    -1.21621     0.24356    -1.72950
 F    -2.46923    -4.14085     2.35800
 F     3.45797     1.19439    -2.85291
 F     2.80154    -2.20724    -0.36369
 F    -2.00612    -0.62514     0.25050
 F    -1.67932    -3.27215     0.37800
 F     2.83657     3.30466    -2.17496
 F     3.42294    -4.31750    -1.04165
 F     3.03960    -1.23702     2.57424
 F     0.21043     2.99275    -1.91945
 F     0.22390    -1.64742     1.27087
 F    -2.60527     2.58235    -3.22282
Zr     3.74172     0.54537     1.73201
