   64
 
Zr     0.00000     0.00000     0.00000
 I     1.85009     2.74333     0.08378
 I    -1.81243     1.35208    -2.39754
 I     1.81175    -1.51391    -2.33030
 I    -1.85478    -2.70335     0.14395
 I     1.91039    -1.33052     2.30153
 I    -1.94684     1.18068     2.36651
Zr    -3.77775    -0.03917    -0.09181
Zr     7.42254    -0.03726    -0.01498
 I     9.28637     2.69764     0.09291
 I     5.64739     1.38947    -2.41609
 I     9.26907    -1.49678    -2.34696
 I     5.54117    -2.71135     0.16258
 I     9.31828    -1.33971     2.31229
 I     5.53299     1.18168     2.38524
Zr     3.71119     0.00527    -0.07059
Zr    -0.01077    -3.73048    -6.44223
 I     1.87945    -1.02291    -6.55096
 I    -1.85646    -2.54404    -8.89356
 I     1.84977    -5.07255    -8.80878
 I    -1.86276    -6.44876    -6.44651
 I     1.86269    -5.27609    -4.20387
 I    -1.94495    -2.41319    -4.10564
Zr    -3.77457    -3.76831    -6.51157
Zr     7.40933    -3.70136    -6.44054
 I     9.32065    -1.01302    -6.54515
 I     5.56544    -2.55719    -8.89805
 I     9.24914    -5.08620    -8.78814
 I     5.60022    -6.44937    -6.44416
 I     9.28776    -5.27092    -4.23145
 I     5.53485    -2.37679    -4.04698
Zr     3.71732    -3.75387    -6.45429
Zr    -0.04244     7.41170    -0.06720
 I     1.84301    10.10350    -0.03394
 I    -1.90766     8.92247    -2.31603
 I     1.78953     6.06230    -2.48733
 I    -1.91767     4.69626     0.01435
 I     1.83334     6.25202     2.37642
 I    -1.93656     8.74945     2.26866
Zr    -3.81097     7.41118    -0.07614
Zr     7.38171     7.40556    -0.07082
 I     9.23062    10.12152    -0.05636
 I     5.53110     8.96594    -2.32284
 I     9.27556     6.08119    -2.43090
 I     5.55201     4.65823     0.04426
 I     9.24328     6.23646     2.37858
 I     5.50589     8.74111     2.26172
Zr     3.67803     7.37516    -0.10001
Zr     0.03677     3.69779    -6.43901
 I     1.90042     6.39813    -6.69706
 I    -1.77968     5.02319    -8.82561
 I     1.89196     2.50269    -8.88240
 I    -1.83089     0.97819    -6.59395
 I     1.95021     2.27206    -4.09858
 I    -1.91900     5.15323    -4.19897
Zr    -3.74108     3.68808    -6.54680
Zr     7.44159     3.70241    -6.43017
 I     9.30314     6.38735    -6.67245
 I     5.63712     5.00695    -8.82160
 I     9.27549     2.48727    -8.87489
 I     5.60184     0.95039    -6.60108
 I     9.38909     2.31475    -4.11686
 I     5.55423     5.19409    -4.12551
Zr     3.75456     3.70124    -6.48332
