   40
 
Zr     0.00000     0.00000     0.00000
Zr     3.27444    -2.85768     3.78821
Zr     1.54387     2.04890    -3.20900
Zr     1.55820    -3.48740    -1.51151
Zr    -0.47058    -3.37879     2.04451
Zr    -2.18917    -4.02969    -3.23806
Zr    -2.20153     1.50311    -4.93779
 F    -1.07680    -0.26800    -5.31925
 F     4.76769    -1.09950     0.87640
 F     2.39211    -2.23679    -2.98968
 F     1.26596     0.89401    -1.46489
 F     0.41583    -1.72940    -1.13523
 F     1.50505     0.11517    -4.10623
 F     3.86370     1.25883    -0.26534
 F    -1.97319    -2.89092    -5.00271
 F     3.58726     2.60886     2.00424
 F    -1.77594     3.57259    -5.25803
 F    -0.39673     0.53312     2.03069
 F     0.92076    -3.76390     0.47000
 F     0.98602     3.96714    -3.96283
 F    -0.59982     2.01113     0.07307
 F    -3.23795    -4.37823    -1.45240
 F     2.37157     0.92750     3.32431
 F    -0.25470     1.75634    -4.22898
 F    -0.38478    -3.73068    -2.23389
 F     1.41312    -3.28479     2.94082
 F     1.86418     0.42964     0.83892
 F    -1.20860     0.26034    -1.74887
 F    -2.46527    -4.11682     2.32007
 F     3.48073     1.20663    -2.86395
 F     2.81691    -2.19351    -0.36247
 F    -2.01052    -0.67758     0.28919
 F    -1.66403    -3.17177     0.28026
 F     2.82953     3.37322    -2.11850
 F     3.47680    -4.35394    -1.11437
 F     2.95062    -1.23845     2.50949
 F     0.12867     2.96990    -1.98141
 F     0.33139    -1.60351     1.29369
 F    -2.48740     2.61355    -3.19357
Zr     3.74557     0.53143     1.73727
