   80
 
Zr     0.00000     0.00000     0.00000
Zr    -3.72283    -1.27466     0.45806
Cl    -1.44720    -0.96707     1.79118
Cl     0.73858     1.38628    -1.94183
Cl    -2.27563    -0.30759    -1.33312
Cl    -1.13197     2.32346     0.60870
Cl     0.76810    -1.97206    -0.91934
Cl     1.72522     0.49709     1.44939
Cl    -4.49092     0.69741     1.37740
Cl    -5.44805    -1.77174    -0.99133
Zr     3.32943     4.98439    -1.79118
Zr    -0.39340     3.70973    -1.33312
Cl     1.88223     4.01732     0.00000
Cl     4.06801     6.37066    -3.73301
Cl     1.05380     4.67680    -3.12431
Cl     2.19746     7.30784    -1.18249
Cl     4.09753     3.01232    -2.71053
Cl     5.05465     5.48147    -0.34179
Cl    -1.16149     5.68180    -0.41378
Cl    -2.11862     3.21265    -2.78251
Zr     6.27091    -3.70973     1.33312
Zr     2.54808    -4.98439     1.79118
Cl     4.82372    -4.67679     3.12431
Cl     7.00950    -2.32345    -0.60870
Cl     3.99528    -4.01731    -0.00000
Cl     5.13894    -1.38627     1.94182
Cl     7.03901    -5.68179     0.41378
Cl     7.99614    -3.21264     2.78251
Cl     1.77999    -3.01231     2.71053
Cl     0.82287    -5.48146     0.34179
Zr     9.60035     1.27466    -0.45806
Zr     5.87751     0.00000     0.00000
Cl     8.15315     0.30759     1.33312
Cl    10.33893     2.66094    -2.39989
Cl     7.32472     0.96707    -1.79118
Cl     8.46837     3.59812     0.15063
Cl    10.36844    -0.69740    -1.37740
Cl    11.32557     1.77175     0.99133
Cl     5.10942     1.97207     0.91934
Cl     4.15230    -0.49708    -1.44939
Zr    -1.11889     0.35524     6.25174
Zr    -4.84173    -0.91942     6.70980
Cl    -2.56609    -0.61183     8.04292
Cl    -0.38031     1.74152     4.30991
Cl    -3.39452     0.04765     4.91861
Cl    -2.25087     2.67870     6.86043
Cl    -0.35080    -1.61682     5.33239
Cl     0.60633     0.85233     7.70113
Cl    -5.60982     1.05265     7.62914
Cl    -6.56694    -1.41650     5.26040
Zr     2.21054     5.33963     4.46055
Zr    -1.51229     4.06497     4.91861
Cl     0.76334     4.37256     6.25174
Cl     2.94912     6.72590     2.51872
Cl    -0.06509     5.03204     3.12743
Cl     1.07856     7.66308     5.06925
Cl     2.97863     3.36756     3.54121
Cl     3.93576     5.83671     5.90994
Cl    -2.28039     6.03704     5.83795
Cl    -3.23751     3.56789     3.46922
Zr     5.15202    -3.35449     7.58486
Zr     1.42919    -4.62915     8.04292
Cl     3.70482    -4.32155     9.37604
Cl     5.89060    -1.96821     5.64303
Cl     2.87639    -3.66207     6.25174
Cl     4.02004    -1.03103     8.19355
Cl     5.92012    -5.32655     6.66552
Cl     6.87724    -2.85740     9.03425
Cl     0.66110    -2.65707     8.96226
Cl    -0.29603    -5.12622     6.59353
Zr     8.48145     1.62990     5.79368
Zr     4.75862     0.35524     6.25174
Cl     7.03425     0.66283     7.58486
Cl     9.22003     3.01618     3.85185
Cl     6.20582     1.32231     4.46055
Cl     7.34948     3.95336     6.40237
Cl     9.24955    -0.34216     4.87433
Cl    10.20667     2.12699     7.24307
Cl     3.99053     2.32731     7.17108
Cl     3.03340    -0.14184     4.80234
