   24
 
 C     0.00000     0.00000     0.00000
 C     1.39424     0.00000     0.00000
 C     2.09121     1.20792     0.00000
 C     1.39597     2.41594    -0.01208
 C     0.00121     2.41625    -0.01144
 C    -0.68628     1.20848     0.00129
 C    -1.54933     2.88650     3.24615
 C    -0.47749     3.60440     3.77516
 C     0.67904     2.93576     4.17531
 C     0.76152     1.54939     4.05683
 C    -0.30898     0.83164     3.52397
 C    -1.45364     1.50621     3.11604
Se    -2.59700     1.24569     0.03391
Se    -2.88634     0.49566     2.35548
 H    -0.54259    -0.94533     0.00267
 H     1.93754    -0.94268     0.00307
 H     3.18003     1.20759     0.00951
 H     1.93880     3.35910    -0.01407
 H    -0.53953     3.36263    -0.01143
 H    -2.45227     3.41139     2.93407
 H    -0.54313     4.68596     3.87337
 H     1.51910     3.49730     4.58116
 H     1.66243     1.02636     4.37143
 H    -0.23664    -0.25112     3.42165
