   20
 
Hg     0.00000     0.00000     0.00000
 F     2.41830     0.00000     0.00000
 C    -0.82057     1.94236     0.00000
 F    -1.51251     2.30425    -1.09452
 F     0.00743     2.98547     0.16023
 F    -1.72908     2.18011     0.96825
 C    -0.76850    -1.50497     1.26091
 F     0.08976    -2.31570     1.89623
 F    -1.60723    -2.38768     0.68815
 F    -1.52073    -1.06420     2.28964
Hg     2.81702    -0.63500    -1.90035
 F     0.70618    -0.62818    -1.81609
 C     3.62814    -2.59118    -2.06911
 F     4.42378    -3.00972    -1.06701
 F     2.77136    -3.62145    -2.17707
 F     4.42613    -2.81147    -3.13405
 C     3.59319     0.83341    -3.22418
 F     2.72888     1.68224    -3.80589
 F     4.50169     1.68644    -2.71332
 F     4.25834     0.36957    -4.30188
