   33
 
Ag     0.00000     0.00000     0.00000
 O     2.20280     0.00000     0.00000
 O     0.86235     2.39069     0.00000
 C     5.47760     1.15341     0.66808
 C     0.79051     1.23500    -3.40944
 C     6.18354     1.99334     1.52001
 C     0.06601     0.22695    -4.11262
 C     3.30716     0.41466    -0.43194
 C     1.12821     2.58026    -1.33132
 N     3.41778     2.30052     1.17018
 N    -0.25494     0.49123    -1.27921
 O     3.83021     0.17851    -1.50581
 O     1.73322     3.53092    -1.73890
 O     0.16529    -0.37672     1.01453
 O    -2.82491     0.67253    -0.46172
 C     4.12208     3.12787     1.99755
 C     5.50391     2.99889     2.21198
 C    -1.37968     0.03894    -2.17261
 C    -1.06126    -0.26508    -3.51827
 C     3.35066     4.06118     2.72811
 C    -2.73237     0.24495    -1.78578
 O     2.78518     5.06755     2.83024
 O    -3.75792     0.06172    -2.39272
 H     5.97000     0.37192     0.08950
 H     1.48970     1.87478    -3.96369
 H     7.26038     1.87593     1.64560
 H     0.36459    -0.04656    -5.11492
 H     6.02800     3.66858     2.88678
 H    -1.78627    -0.86551    -4.07748
 H     1.58116     2.79888     0.58888
 H    -3.74504     0.90155    -0.20566
 C     4.08825     1.33913     0.52794
 C     0.56666     1.46392    -2.09130
