   15
 
Ag     0.00000     0.00000     0.00000
 C     2.06128     0.00000     0.00000
 N    -2.28356    -0.00408     0.00000
 H    -3.92767     1.27763    -0.63962
 H    -2.63744     1.03571    -1.83891
 C    -2.14177     2.47436    -0.25363
 H    -2.59499     3.35089    -0.75849
 H    -2.32051     2.61448     0.83457
 N     3.22050     0.03190    -0.00555
 H    -2.70005    -0.84810    -0.40546
 H    -2.65642     0.03263     0.95454
 N    -0.67562     2.34429    -0.49816
 H    -0.17238     3.02674     0.06887
 H    -0.46724     2.58659    -1.46645
 C    -2.82956     1.18075    -0.75197
