   17
 
Al     0.00000     0.00000     0.00000
 N     2.00416     0.00000     0.00000
 C    -0.37613     1.90828     0.00000
 C    -0.46850    -1.04525    -1.72182
 H     2.35399    -0.95123     0.12607
 H     2.32613     0.38930    -0.88833
 H    -1.41679     1.49794     0.21615
 H    -0.19252     2.88200     0.37568
 H    -1.50774    -0.77131    -1.43766
 H    -0.26267    -1.08245    -2.75648
 H    -0.09532    -1.89424    -1.10432
 H     2.28971     0.59734     0.78186
 H    -0.12847     1.74541    -1.09839
 C    -0.43455    -1.07848     1.71558
 H    -1.47324    -1.00491     1.32649
 H    -0.12933    -0.15940     2.24771
 H    -0.17956    -1.99876     2.16888
