   30
 
Al     0.00000     0.00000     0.00000
 S     2.30229     0.00000     0.00000
Al     0.18172     3.74726     0.00000
 I    -0.23560    -1.80038     1.72349
 I    -1.98591     4.90662     0.22521
 I     5.78471     2.32712    -0.30629
 I     0.99425     1.89193    -5.68708
Al     3.31173     2.04952    -0.35070
Al     0.70797     1.77046    -3.21545
 S     2.31118     3.92620     0.42412
 S    -0.48286     1.88142     1.32269
 S     0.23417     3.90403    -2.37792
 S    -0.27465     0.02397    -2.20184
 S     3.05138     1.75353    -2.70707
 H    -1.96700     0.15399     0.06625
 H    -2.71306     1.80371     0.11286
 H    -2.69221     0.83381     1.59328
 H    -1.20368     2.15735    -3.63518
 H    -1.59900     3.89423    -4.01416
 H    -2.18719     3.17155    -2.50989
 H     3.49593     1.67146     1.59165
 H     2.31416     0.61073     2.45937
 H     3.84443    -0.09607     1.91696
 H     4.39346     3.83124    -2.86796
 H     4.37461     2.89225    -4.37710
 H     2.99832     3.92623    -3.94193
 C    -2.08792     1.11970     0.70949
 C    -1.31640     3.22151    -3.18124
 C     3.03643     0.60332     1.62565
 C     3.75483     3.24308    -3.53910
