   24
 
As     0.00000     0.00000     0.00000
Br     2.35594     0.00000     0.00000
 C    -0.31688     1.93958     0.00000
 C    -0.84721    -1.21805    -4.53900
 C    -1.27240     0.02221    -4.07114
 C    -0.99626     0.40966    -2.76057
 C    -1.25629     2.43691     0.91542
 C    -1.54317     3.80001     0.96839
 C    -0.89585     4.68762     0.11229
 C     0.04003     4.20631    -0.79965
 C     0.32670     2.84337    -0.85522
 C    -0.29975    -0.44005    -1.89150
 C     0.12668    -1.68580    -2.37729
 C    -0.14519    -2.06954    -3.68882
 H    -1.06072    -1.52076    -5.56226
 H    -1.81906     0.69463    -4.72959
 H    -1.33870     1.39634    -2.43623
 H    -1.78470     1.77657     1.60996
 H    -2.27553     4.17093     1.68265
 H    -1.12029     5.75183     0.15643
 H     0.55136     4.89461    -1.47004
 H     1.06637     2.50288    -1.58525
 H     0.68212    -2.38606    -1.74700
 H     0.19427    -3.03849    -4.04990
