   14
 
As     0.00000     0.00000     0.00000
 O     1.65783     0.00000     0.00000
 C    -0.71182     1.72172     0.00000
 C    -0.74080    -0.91573     1.53818
 C    -0.73341    -0.91062    -1.54503
 H    -0.28762     2.34967     0.81131
 H    -1.80989     1.74987     0.12571
 H    -0.48650     2.27647    -0.93346
 H    -0.71817    -0.28849     2.44320
 H    -1.78103    -1.23426     1.37925
 H    -0.15305    -1.82014     1.77630
 H    -0.69672    -2.00604    -1.43421
 H    -1.77781    -0.63175    -1.74466
 H    -0.14951    -0.67446    -2.45232
