   16
 
 B     0.00000     0.00000     0.00000
 B     1.85200     0.00000     0.00000
 B     0.92503     1.45002     0.00000
 B     2.47221     1.35639     0.85872
 B     2.67171    -0.15588     1.65339
 H    -0.37831     1.34263     0.32225
 H     2.93525     1.17501     2.11043
 H     1.51096     2.34414     0.93717
 H     1.95635    -1.10392     0.58355
 H     2.35465    -0.35493    -1.05129
 H     3.74110    -0.77249     1.86844
 H     2.19544    -0.66890     2.65029
 H    -0.50546    -0.76889     0.77139
 H    -0.64784    -0.45786    -0.90133
 H     0.90946     2.09967    -1.03977
 H     3.42497     1.94520     0.35861
