   21
 
Bi     0.00000     0.00000     0.00000
 S     2.57510     0.00000     0.00000
 N     0.61847     2.39935     0.00000
 C     2.02109     2.68300     0.44917
 H     2.99716     1.97570    -1.38031
 H     4.01661     1.90392     0.06488
 H    -0.04002     2.92087     0.59034
 H     0.48883     2.75314    -0.95518
 H     2.28683     3.75160     0.26001
 H     2.09151     2.54327     1.55612
 S    -0.31137    -0.19373     2.63081
 C    -0.73986    -1.98106     2.66498
 C     0.09276    -2.84412     1.72479
 N    -0.15274    -2.47218     0.28859
 H     0.51855    -2.95688    -0.31391
 H    -1.08560    -2.78286     0.00318
 H    -0.15194    -3.92227     1.89043
 H     1.18478    -2.74655     1.94416
 H    -1.82571    -2.11054     2.48349
 H    -0.57531    -2.30632     3.71844
 C     2.97165     1.76236    -0.29303
