   23
 
 W     0.00000     0.00000     0.00000
 C     2.63023     0.00000     0.00000
 C     1.88252     1.26613     0.00000
 C     1.22152     1.37551     1.30392
 C     1.24752     0.01919     1.86952
 C     2.25169    -0.74356     1.10803
 H     3.35664    -0.26743    -0.75016
 H     2.11844     2.09121    -0.64938
 H     0.92440     2.27582     1.80357
 H     0.93897    -0.24425     2.86666
 H     2.62287    -1.71037     1.40623
 C    -2.16898     0.31635    -1.45561
 C    -2.56362    -0.42360    -0.35120
 C    -2.06276     0.23818     0.86587
 C    -1.56336     1.55876     0.45979
 C    -1.39809     1.48120    -0.99488
 H    -2.38450     0.11114    -2.49153
 H    -3.15379    -1.32519    -0.34274
 H    -2.39291    -0.02401     1.85633
 H    -1.48516     2.43445     1.07266
 H    -1.13200     2.30370    -1.63595
Br     0.67078    -0.74607    -2.37524
Br    -0.28858    -2.53259     0.38531
