   26
 
Ti     0.00000     0.00000     0.00000
 C     2.37894     0.00000     0.00000
 C     1.92690     1.36107     0.00000
 C     1.24727     1.59783     1.25099
 C     1.28065     0.38721     2.00738
 C     1.96227    -0.60620     1.23391
 H     3.08988    -0.42346    -0.69865
 H     2.26350     2.13063    -0.68048
 H     0.96317     2.56928     1.63186
 H     0.98271     0.28107     3.04342
 H     2.28859    -1.57124     1.60045
 C    -2.07579    -0.01264    -1.19585
 C    -2.22624     0.92153    -0.12129
 C    -1.28728     1.97998    -0.31424
 C    -0.55338     1.70962    -1.52677
 C    -1.05127     0.48069    -2.07413
 H    -2.75264    -0.82817    -1.41611
 H    -3.01904     0.90626     0.61668
 H    -1.27881     2.91750     0.22490
 H     0.05829     2.42671    -2.05646
 H    -0.85721     0.11742    -3.07588
 C     0.66633    -1.55120    -1.47217
Cl    -1.00433    -1.55400     1.27772
 H     1.26484    -2.27004    -0.90210
 H    -0.23831    -2.05364    -1.82931
 H     1.24495    -1.19814    -2.32666
