   49
 
Mo     0.00000     0.00000     0.00000
 C     2.45120     0.00000     0.00000
 C     2.05684     1.36266     0.00000
 C     1.27919     1.61906     1.17973
 C     1.22774     0.38383     1.93502
 C     1.94225    -0.62986     1.19191
 C    -2.38944    -0.01858    -0.52457
 C    -2.01112    -1.37921    -0.38937
 C    -1.50257    -1.58880     0.93568
 C    -1.61050    -0.32669     1.64063
 C    -2.14831     0.65602     0.72695
 C     0.18235     1.64571    -3.38081
 C     0.51005    -1.75284    -3.29488
 C     1.69441     1.68272    -3.55578
 C    -0.92786    -1.78137    -3.79671
 C     2.05882     1.55415    -5.04454
 C    -1.55759    -3.17696    -3.67505
 S    -0.32227     1.76769    -1.61008
 S     0.65315    -1.81046    -1.45562
 C     3.57557     1.50650    -5.22477
 C    -3.03202    -3.14221    -4.07698
 H     3.12738    -0.46423    -0.70476
 H     2.38161     2.11729    -0.70452
 H     0.96165     2.58709     1.52263
 H     0.89494     0.29098     2.95399
 H     2.21159    -1.60958     1.54521
 H    -2.90181     0.41546    -1.37199
 H    -2.18106    -2.15924    -1.12267
 H    -1.26572    -2.54141     1.37340
 H    -1.50108    -0.19673     2.70312
 H    -2.49078     1.64401     0.97960
 H    -0.26621     0.75350    -3.84215
 H    -0.29119     2.52393    -3.86260
 H     1.05741    -0.87780    -3.68097
 H     1.06602    -2.64668    -3.64064
 H     2.11014     2.62867    -3.15422
 H     2.18835     0.87332    -2.98452
 H    -1.55436    -1.03749    -3.26785
 H    -0.94746    -1.46806    -4.86189
 H     1.63385     2.40387    -5.61105
 H     1.59905     0.64378    -5.47280
 H    -1.45486    -3.56215    -2.64233
 H    -1.00540    -3.89555    -4.30932
 H     3.84672     1.41979    -6.28269
 H     4.01495     0.64962    -4.70119
 H     4.05409     2.41202    -4.83534
 H    -3.48714    -4.13539    -3.99641
 H    -3.15774    -2.80516    -5.11182
 H    -3.60786    -2.46465    -3.43699
