   23
 
 W     0.00000     0.00000     0.00000
 C     2.73890     0.00000     0.00000
 C     3.29710     1.23846     0.00000
 C     2.66492     2.06268     1.03043
 C     1.71451     1.33771     1.67591
 C     1.66036    -0.04805     1.06507
 H     3.01586    -0.85744    -0.58784
 H     4.09264     1.59873    -0.62738
 H     2.95837     3.07854     1.22622
 H     1.11358     1.62630     2.52030
 H     1.78763    -0.87746     1.80402
 C    -1.61129    -0.00502    -2.00357
 C    -2.22609     0.76999    -1.01311
 C    -1.27671     1.77120    -0.52439
 C    -0.06730     1.69088    -1.38380
 C    -0.23591     0.45537    -2.19096
 H    -2.06384    -0.80324    -2.57168
 H    -3.24663     0.68900    -0.67159
 H    -1.55060     2.61981     0.07754
 H     0.63351     2.48010    -1.56782
 H     0.38948     0.17213    -3.01926
 I     0.06532    -2.80309    -0.55955
 I    -1.67258    -0.57428     2.24774
