   13
 
Se     0.00000     0.00000     0.00000
 C     1.96300     0.00000     0.00000
 C    -0.02440     1.99698     0.00000
 C     2.33774     1.44304    -0.42024
 C     1.40036     2.39323     0.31934
 H     2.30779    -0.75429    -0.70436
 H    -0.75356     2.31534     0.74381
 H     3.39486     1.65201    -0.17839
 H     1.59510     3.44377     0.02592
 H     2.30948    -0.25001     1.00120
 H    -0.35613     2.31061    -0.98976
 H     2.24374     1.56131    -1.51482
 H     1.58847     2.35308     1.41086
