   37
 
Ca     0.00000     0.00000     0.00000
 O     2.05034     0.00000     0.00000
 N     0.73497     2.42592     0.00000
 O     0.68383    -2.13092     0.72924
 N     2.25502     4.72284     0.44266
 C     2.62058     0.94812     0.61271
 C     2.01755     2.34230     0.38615
 C     2.78846     3.50098     0.61123
 C     0.96431     4.80383     0.06692
 C     0.19167     3.64648    -0.15579
 O    -3.56912     0.45024     1.95854
 O    -1.96040     0.19452     0.47809
 N    -0.05614     0.49197     2.44599
 N    -0.85846     1.19538     5.02000
 C    -2.39346     0.41370     1.65443
 C    -1.35619     0.65037     2.74313
 C    -1.76449     1.00854     4.04386
 C     0.44173     1.02409     4.71979
 C     0.85354     0.66691     3.41845
 H    -0.86228     3.69265    -0.44655
 H     0.55209     5.81145    -0.05092
 H     3.83692     3.44213     0.93670
 H     1.91316     0.52371     3.15659
 H     1.15870     1.17760     5.53395
 H    -2.82530     1.14392     4.30017
 H     0.66638    -2.82678     0.04834
 H     1.63678    -2.09268     0.96504
 H    -2.06417    -0.13116    -2.00597
 H    -1.28793     1.12560    -2.45545
 H    -3.44281    -1.64203    -1.25172
 H    -3.31207    -0.26596    -0.61516
 H     0.45294    -1.22406    -2.65445
 H     1.78098    -1.28613    -1.88232
 O    -1.13100     0.25167    -2.08520
 O    -3.54291    -0.71483    -1.47173
 O     0.82286    -1.43818    -1.78244
 O     3.58151     0.87156     1.35341
