   43
 
Ca     0.00000     0.00000     0.00000
 O     2.40440     0.00000     0.00000
 O     0.80429     2.06482     0.00000
 C    -1.37476    -1.28952    -1.88733
 C    -1.66352    -0.92773     1.90865
 C    -0.48795    -1.72421     1.97818
 C     1.93214    -1.35067     2.79587
 H     0.55155     1.19760     3.17327
 H    -2.03199     1.17461     2.49613
 H    -2.64165    -1.28291     1.65944
 H    -0.43597    -2.77786     1.81250
 H     2.14339    -2.35516     2.40825
 H     2.69727    -0.66711     2.40740
 H     2.07324    -1.40011     3.88791
 C     2.99756    -1.11278    -0.65373
 C     2.90318     1.25241    -0.44402
 H     3.99432     1.30440    -0.28210
 H     2.68123     1.39678    -1.52103
 H     2.69239    -1.16246    -1.70792
 H     4.08884    -1.06714    -0.57237
 H     2.62919    -1.98141    -0.08578
 C    -0.67513     0.80469    -2.50432
 C     0.40260    -0.09188    -2.70571
 C    -0.03503    -1.39017    -2.32701
 C    -1.77445     0.07172    -1.98699
 C     2.14312     2.22126     0.45891
 C    -0.67920     2.23957    -2.86443
 H     1.32795     0.14554    -3.17678
 H     0.51235    -2.29693    -2.46153
 H    -2.01427    -2.10779    -1.62723
 H    -2.76230     0.44616    -1.83154
 C    -0.08389     3.04691     0.52519
 H     2.47329     3.26511     0.31514
 H     2.20358     1.95519     1.53498
 H    -1.55530     2.76778    -2.46875
 H     0.22263     2.76136    -2.52189
 H    -0.71500     2.35175    -3.96077
 H    -0.30403     2.84985     1.58484
 H     0.34336     4.04941     0.40659
 H    -0.98607     2.97547    -0.10479
 C     0.55700    -0.90565     2.48101
 C     0.03683     0.39363     2.70121
 C    -1.34011     0.37568     2.34688
