   25
 
Ca     0.00000     0.00000     0.00000
 N     2.45961     0.00000     0.00000
 N    -2.63082     0.01679     0.00000
 H     2.86682     0.93520     0.02056
 H     2.86860    -0.44853    -0.81996
 H    -3.02900    -0.91481    -0.06523
 H    -3.02437     0.42865     0.84035
 H     2.86856    -0.48417     0.79942
 N    -0.05689     2.06863     1.65105
 H     0.48989     2.85657     1.31870
 H     0.30302     1.85027     2.57476
 H    -0.99632     2.42495     1.79523
 N    -0.05809     1.64984    -2.06981
 H     0.63329     2.39042    -2.00740
 H    -0.95409     2.11543    -2.17247
 H     0.11563     1.18192    -2.95369
 H    -3.02223     0.54031    -0.77671
 N    -0.08026    -2.07092    -1.64615
 H    -0.68198    -2.81467    -1.30695
 H    -0.43152    -1.82795    -2.56706
 H     0.82797    -2.49787    -1.79802
 N    -0.08032    -1.65388     2.06501
 H    -0.79753    -2.36509     1.96447
 H     0.78903    -2.15660     2.21250
 H    -0.28029    -1.18010     2.94022
