   26
 
Cd     0.00000     0.00000     0.00000
 I     2.90065     0.00000     0.00000
 I    -0.55894     2.68235     0.00000
 N    -0.25332    -0.92559     2.07472
 N    -1.59854    -3.40715     0.16941
 C    -2.72918    -4.31511     0.45320
 C    -0.89481    -3.81258    -1.07009
 C    -0.07091    -2.62832    -1.63313
 N    -0.80120    -1.30879    -1.47219
 H    -0.57797    -0.16520     2.68633
 H     0.69794    -1.17411     2.37872
 H    -2.19386    -1.79417     1.90890
 H    -1.22903    -2.42501     3.27665
 H    -0.67104    -4.22755     1.94765
 H     0.35973    -3.14001     1.00909
 H    -3.24019    -3.98818     1.37454
 H    -2.44649    -5.37240     0.57222
 H    -3.46740    -4.24366    -0.36384
 H    -1.65681    -4.12062    -1.82158
 H    -0.22671    -4.69030    -0.93307
 H     0.92244    -2.56624    -1.12367
 H     0.15374    -2.80717    -2.70662
 H    -1.77346    -1.51193    -1.16674
 H    -0.84554    -0.82446    -2.38106
 C    -0.69257    -3.29832     1.33966
 C    -1.16783    -2.11006     2.21330
