   17
 
Cd     0.00000     0.00000     0.00000
Br     2.55220     0.00000     0.00000
 O    -2.12781     1.22907     0.00000
 O    -1.07003    -0.16314    -2.01863
 O    -0.31693    -2.26733    -0.47535
 O     0.23395     2.25193     0.73801
 O    -1.14987    -0.97924     1.71272
 H    -1.38761    -1.88292     1.36973
 H    -0.53488    -1.19505     2.45250
 H    -0.63763     0.39133    -2.70460
 H    -1.95439     0.27210    -1.89886
 H     0.61639     2.31230     1.63606
 H     0.89069     2.72576     0.18496
 H    -1.90681     2.14946     0.26644
 H    -2.63797     0.88429     0.76146
 H     0.54419    -2.70234    -0.66098
 H    -0.79503    -2.32429    -1.33479
