   33
 
Cd     0.00000     0.00000     0.00000
 N     2.45115     0.00000     0.00000
 N     0.73979     2.33266     0.00000
 O     0.74119    -2.16441    -0.03588
 O    -0.53571     0.78394    -1.94107
 O     4.57717     1.85682     1.93676
 C     0.35691     2.90275     1.32475
 C     2.21843     2.48132    -0.21973
 C     2.79839     1.18932    -0.84950
 C    -0.92373     2.19286     1.85549
 O    -1.67991     2.85328     2.55328
 C    -0.35406     2.01224    -2.23293
 O    -0.47794     2.48558    -3.35438
 H     2.45953     3.34371    -0.86860
 H     3.89878     1.30565    -0.96810
 C     1.94399    -2.42374    -0.36378
 O     2.38397    -3.56056    -0.50505
 C     4.49624     0.76560     1.35417
 O     5.38159     0.13274     0.77106
 H     2.74698     2.66748     0.75067
 H     2.36744     1.03311    -1.86465
 C     3.05737     0.12235     1.35780
 C    -0.02459     3.01413    -1.08417
 C     2.92692    -1.25385    -0.65450
 O    -1.09292     0.95352     1.58518
 H     2.39693     0.74682     1.99053
 H     3.12642    -0.87265     1.83289
 H     0.50428     3.88522    -1.50937
 H    -1.00144     3.38202    -0.70635
 H     2.98604    -1.14210    -1.75335
 H     3.94806    -1.53779    -0.31266
 H     1.15743     2.71403     2.07575
 H     0.18918     3.99260     1.30151
