   73
 
Ce     0.00000     0.00000     0.00000
 O     2.44480     0.00000     0.00000
 O    -0.54814     2.39364     0.00000
 O    -2.25837    -0.55416    -0.78939
 O    -0.40149    -0.19530     2.41630
 O     0.23123    -2.25508     0.95228
 O     0.22604     1.17984    -2.15361
 O    -1.06013    -1.63167    -3.24174
 O     2.49848     0.75071     2.84845
 F    -5.34378     0.43679    -1.21175
 F    -4.34200    -0.05320     0.57848
 F    -5.38090    -1.54472    -0.49114
 F    -2.28422     5.16879    -0.43864
 F    -0.27362     5.66253    -0.03602
 F    -1.35581     4.45996     1.31909
 F     5.32463     0.64359    -1.37566
 F     3.73842    -0.52454    -2.12786
 F     5.26038    -1.42573    -0.98035
 F     0.72475    -4.76903     0.60423
 F     1.57351    -4.81639     2.53638
 F    -0.48986    -5.17402     2.28271
 O    -0.28570    -0.46331     4.62988
 O     0.13371     2.31754    -4.07042
 O    -2.62911    -1.94024    -4.80046
 O     4.48753     0.20631     3.72057
 C    -4.57499    -0.49632    -0.65205
 C    -3.28084    -0.81041    -1.45866
 C    -3.38871    -1.28527    -2.72894
 H    -4.35707    -1.43813    -3.19609
 C    -2.24055    -1.61177    -3.52599
 C    -1.57757    -2.30534    -5.69562
 H    -1.10601    -3.23032    -5.32008
 H    -0.82443    -1.49783    -5.71811
 C    -2.27298    -2.49531    -7.03827
 H    -1.56118    -2.78250    -7.81652
 H    -2.77761    -1.57293    -7.35196
 H    -3.04506    -3.27219    -6.97244
 C    -1.14486     4.65589     0.02363
 C    -0.67752     3.39157    -0.73842
 C    -0.45148     3.44007    -2.09341
 H    -0.59660     4.33442    -2.68119
 C    -0.01359     2.25154    -2.74445
 C     0.55397     1.09190    -4.71523
 H     0.01451     0.22915    -4.27021
 H     1.63557     0.98514    -4.52608
 C     0.21059     1.31387    -6.17754
 H     0.54435     0.46872    -6.78942
 H     0.68227     2.22554    -6.56533
 H    -0.87330     1.42655    -6.31564
 C     4.48960    -0.34145    -1.04712
 C     3.66900    -0.05913     0.24656
 C     4.32291     0.07839     1.42966
 H     5.39959    -0.04276     1.50172
 C     3.63535     0.37604     2.65773
 C     3.94472     0.38821     5.02197
 H     3.34560     1.31567     5.05264
 H     4.85873     0.50635     5.63212
 C     3.12996    -0.83401     5.42239
 H     2.87430    -0.82442     6.48403
 H     3.67432    -1.76070     5.20272
 H     2.18822    -0.87942     4.85145
 C     0.50583    -4.39666     1.85864
 C     0.22227    -2.88435     2.02926
 C     0.00672    -2.35743     3.28102
 H     0.03559    -2.95408     4.18074
 C    -0.23893    -0.95947     3.39044
 C    -0.34936     0.98061     4.71410
 H    -1.29629     1.31193     4.25470
 H     0.50844     1.39673     4.14645
 C    -0.26805     1.25596     6.20539
 H    -0.30533     2.33281     6.40394
 H     0.66693     0.86418     6.62765
 H    -1.09376     0.77768     6.74614
