   61
 
Pt     0.00000     0.00000     0.00000
 S     2.22014     0.00000     0.00000
 S     0.06951     2.38169     0.00000
 P     0.05572    -2.38018    -0.15824
 P    -2.39771     0.35195     0.06977
 C     0.01936    -2.98319    -1.94203
 C    -1.27836    -3.44115     0.66536
 C     1.63062    -3.11600     0.54171
 C    -2.95296     1.22138     1.64780
 C    -3.61207    -1.10223    -0.07106
 C    -2.99526     1.51943    -1.28480
 C    -1.16669    -2.53978    -2.81934
 H     0.96789    -2.62420    -2.44325
 H     0.08309    -4.10304    -1.96932
 H    -2.25506    -3.31789     0.13054
 C    -1.49480    -3.23058     2.17580
 H    -1.01966    -4.52490     0.50413
 C     1.82029    -4.64345     0.53155
 H     1.74562    -2.74898     1.60713
 H     2.52197    -2.65363     0.01182
 H    -2.47027     2.24665     1.67235
 H    -4.05494     1.42130     1.61708
 C    -2.61442     0.51214     2.97377
 H    -3.44380    -1.79066     0.80385
 C    -5.12178    -0.79343    -0.12116
 H    -3.36226    -1.68878    -0.99804
 C    -2.68776     1.09541    -2.73493
 H    -4.09866     1.69092    -1.18691
 H    -2.52926     2.53871    -1.11992
 H    -5.68564    -1.73653    -0.16456
 H    -5.41916    -0.21703    -1.00746
 H    -5.49052    -0.25693     0.76293
 H    -3.17347    -0.41837     3.12683
 H    -2.87201     1.17260     3.81420
 H    -1.53842     0.28680     3.08180
 H    -1.60597     0.98944    -2.92954
 H    -3.04367     1.87640    -3.42218
 H    -3.18169     0.16499    -3.03743
 H     2.81137    -4.88411     0.94788
 H     1.79754    -5.08517    -0.47222
 H     1.09181    -5.18134     1.15082
 H    -1.03652    -2.94018    -3.83553
 H    -1.23323    -1.44447    -2.93108
 H    -2.13876    -2.90561    -2.46912
 H    -2.36314    -3.81493     2.50824
 H    -1.68680    -2.18786     2.46894
 H    -0.64041    -3.57368     2.77836
 C     3.05630     0.60632    -1.49802
 C     4.22384    -0.29426    -1.88365
 H     4.76132     0.11132    -2.74833
 H     3.89595    -1.30597    -2.14353
 H     4.94916    -0.38981    -1.06452
 H     2.32459     0.68857    -2.31938
 H     3.40331     1.62891    -1.25440
 C     0.70359     2.88113     1.64803
 C    -0.20681     3.90158     2.31440
 H     0.23589     4.26573     3.24996
 H    -1.18803     3.48293     2.56308
 H    -0.37566     4.77951     1.67767
 H     0.82880     1.98394     2.28139
 H     1.71593     3.29878     1.49887
