   43
 
Pt     0.00000     0.00000     0.00000
 O     2.02287     0.00000     0.00000
 O    -0.46134     1.96904     0.00000
 N     0.48889    -1.98149     0.10744
 N    -2.04104     0.02489     0.10663
 C     0.36410    -2.74109    -1.20469
 H    -0.05536    -2.45459     0.82480
 H     1.47279    -2.03542     0.42163
 C    -2.75326    -0.27236    -1.20433
 H    -2.31781     0.97155     0.41797
 H    -2.37789    -0.61084     0.82564
 C     2.58283     1.18617     0.17193
 C     0.55978     2.79571     0.14833
 O     3.64913     1.27216     0.73399
 O     0.38912     3.87120     0.67238
 C     1.88840     2.38022    -0.46512
 C     1.79917     2.24689    -2.01815
 C     2.85321     3.59078    -0.64649
 C     2.75568     3.45423    -2.18718
 H     2.18367     1.29903    -2.40485
 H     0.79398     2.39637    -2.42116
 H     2.46934     4.53451    -0.24081
 H     3.85513     3.43158    -0.23038
 H     3.70127     3.21982    -2.68046
 H     2.31297     4.31720    -2.68912
 H    -0.60604    -2.41978    -1.66743
 C     1.52241    -2.33863    -2.11424
 C     0.34938    -4.24814    -0.95395
 C    -2.60276     0.93549    -2.12598
 H    -2.23334    -1.15745    -1.65642
 C    -4.22375    -0.60287    -0.95379
 H    -2.88646     0.69607    -3.15468
 H    -1.54970     1.28521    -2.14507
 H    -3.21029     1.79073    -1.80781
 H     0.28256    -4.79969    -1.90207
 H    -0.50195    -4.56911    -0.34526
 H     1.26597    -4.59876    -0.46269
 H     1.35886    -2.66682    -3.14468
 H     2.48338    -2.75168    -1.78639
 H     1.64170    -1.23562    -2.13306
 H    -4.74622    -0.79473    -1.90131
 H    -4.76145     0.22411    -0.47264
 H    -4.35916    -1.49623    -0.33588
