   21
 
Ni     0.00000     0.00000     0.00000
 S     2.23678     0.00000     0.00000
 S    -1.22341     1.87476     0.00000
 F    -0.30655    -0.56287     1.51645
 F    -0.31501    -0.57782    -1.50943
 C     2.80713    -1.03704     1.40131
 C     2.80874    -1.03805    -1.39996
 C    -2.38277     1.80215    -1.41975
 C    -2.42698     1.77051     1.38048
 H     2.49570    -0.56768     2.34600
 H     2.46341    -0.59361    -2.34513
 H     2.39718    -2.05512    -1.37762
 H    -3.06541     2.65480    -1.41367
 H    -2.97421     0.87733    -1.44553
 H    -3.07542     2.64940     1.40227
 H     2.36446    -2.04162     1.40261
 H    -3.05204     0.86966     1.33905
 H     3.89531    -1.13229     1.40164
 H     3.89920    -1.10021    -1.42131
 H    -1.80681     1.81900    -2.35615
 H    -1.88005     1.71594     2.33366
