   21
 
Co     0.00000     0.00000     0.00000
 C     2.08302     0.00000     0.00000
 C     1.49178     1.33130     0.00000
 C     0.68341     1.47155    -1.20025
 C     0.68419     0.17972    -1.86722
 C     1.58381    -0.70715    -1.14041
 C    -1.89541    -0.64226    -0.24031
 C    -1.06664    -1.57490     0.52162
 C    -0.56766    -0.84974     1.68705
 C    -1.10503     0.50746     1.60889
 C    -2.03648     0.58244     0.50965
 H     2.80658    -0.35519     0.70509
 H     1.74395     2.12236     0.67758
 H     0.23902     2.37352    -1.56456
 H     0.23543    -0.03287    -2.81672
 H     1.86539    -1.69216    -1.45317
 H    -2.45022    -0.89811    -1.12166
 H    -0.95244    -2.62056     0.32941
 H    -0.02222    -1.26675     2.50679
 H    -0.96360     1.26372     2.35609
 H    -2.68815     1.39409     0.28338
