   31
 
Co     0.00000     0.00000     0.00000
 O     1.91779     0.00000     0.00000
 O     0.17514     1.90578     0.00000
 N    -0.04004     0.15546     1.97290
 N     0.16872    -1.94495    -0.00861
 N    -1.91786     0.13019    -0.03795
 N     0.00789     0.15284    -2.02231
 O     3.65536     1.36659     0.04197
 O     1.68617     3.51072    -0.01848
 H    -1.87547    -0.76888     2.59985
 H    -1.61149     0.85303     3.31595
 H    -3.33589     0.96675     1.40684
 H    -1.86683     1.96820     1.07253
 H    -3.28313     1.00623    -1.50813
 H    -1.80252     1.97524    -1.13069
 H    -1.82416    -0.75006    -2.67969
 H    -1.53512     0.87303    -3.38356
 H     0.47676    -0.55104     2.50100
 H     0.43826     1.07180     2.11336
 H    -0.21007    -2.42912     0.80048
 H     1.20669    -2.05807     0.00561
 H    -0.18265    -2.40404    -0.84480
 H    -2.46067    -0.74892    -0.05381
 H     0.52944    -0.55452    -2.53944
 H     0.49872     1.06223    -2.13445
 C    -1.48814     0.24882     2.38562
 C    -2.24519     0.91474     1.21571
 C    -2.19836     0.93063    -1.29301
 C    -1.42944     0.26264    -2.45471
 C     2.47013     1.19463     0.01573
 C     1.42489     2.34119    -0.00290
