   19
 
Co     0.00000     0.00000     0.00000
 O     2.00320     0.00000     0.00000
 O    -0.62035     2.05150     0.00000
 O    -0.46824    -0.69098    -1.95650
 O     0.60541    -2.05557     0.00725
 O     0.47321     0.69245     1.95441
 O    -2.00349    -0.01320     0.00574
 H     2.26125     0.11114    -0.95844
 H     2.23158    -0.97651     0.16959
 H    -2.23643     0.95867    -0.17970
 H    -2.26719    -0.11182     0.96374
 H    -0.19182    -0.31680    -2.82045
 H    -1.40980    -0.95363    -2.08348
 H     0.23737     0.26806     2.80778
 H     1.41430     0.96751     2.06377
 H    -0.43387     2.74211    -0.67281
 H    -0.40414     2.46322     0.87111
 H     0.40768    -2.74577     0.67743
 H     0.39092    -2.46491    -0.86546
