   29
 
Co     0.00000     0.00000     0.00000
 S     2.16548     0.00000     0.00000
 S    -0.26725     2.22391     0.00000
 C     0.87730     4.65581     0.03193
 S     0.06566    -1.99132    -0.86284
 S    -1.99288    -0.13503     0.85473
 C     2.99389     1.49492    -0.01404
 C    -1.35992    -2.99894    -0.74670
 C    -2.84942    -1.65980     0.75731
 C     4.47734     1.37035    -0.04074
 C    -2.49709    -2.76710     0.00817
 C    -1.23718    -4.25604    -1.52951
 C    -4.10236    -1.65911     1.55531
 H     3.20268     3.59076    -0.00546
 H    -0.18829     4.93838    -0.03268
 H     1.38392     5.16848    -0.80356
 H     1.25895     5.11055     0.96344
 H     4.89509     1.79031    -0.97290
 H     4.85296     0.33372     0.02309
 H     4.94586     1.91945     0.79379
 H    -3.23273    -3.59155     0.01138
 H    -2.21734    -4.64177    -1.84862
 H    -0.63711    -4.14724    -2.44766
 H    -0.75411    -5.04744    -0.93014
 H    -3.93356    -1.35458     2.60211
 H    -4.84931    -0.96071     1.13932
 H    -4.57949    -2.64940     1.59245
 C     1.13216     3.18862     0.00881
 C     2.45999     2.77434    -0.00354
