   31
 
Cr     0.00000     0.00000     0.00000
Cr     2.65000     0.00000     0.00000
 N     1.22911     1.58427     0.00000
 N    -0.32584     0.03243     1.61718
 O    -0.61103     0.04728     2.78270
 N     1.25397    -1.46679     0.19919
 N     2.72690    -0.17265    -1.57423
 O     2.80750    -0.30761    -2.79764
 O     1.36065    -2.57317     0.33686
 C    -1.04891    -1.23433    -1.70558
 C    -0.51722    -0.05702    -2.32548
 C    -1.18764     1.07608    -1.76247
 C    -2.08735     0.61783    -0.76040
 C    -2.00128    -0.83310    -0.72445
 H    -0.85480    -2.24765    -2.02558
 H     0.15483    -0.04220    -3.17201
 H    -1.10794     2.08785    -2.12398
 H    -2.83800     1.20192    -0.25606
 H    -2.68368    -1.47612    -0.19374
 C     3.81177    -0.99847     1.76815
 C     4.74568    -0.69581     0.74293
 C     4.79862     0.74503     0.59728
 C     3.89404     1.30903     1.53167
 C     3.24420     0.23820     2.24044
 H     3.65139    -1.96600     2.21594
 H     5.40707    -1.38913     0.25127
 H     5.50043     1.27574    -0.02160
 H     3.80232     2.35366     1.77122
 H     2.64116     0.34789     3.12183
 H     1.29676     2.19156    -0.82560
 H     1.29419     2.22745     0.79858
