   19
 
Cr     0.00000     0.00000     0.00000
 C     2.38806     0.00000     0.00000
 C     1.99335     1.36249     0.00000
 C     1.13831     1.83703     1.02027
 C     0.73625     0.98296     2.07896
 C     1.13856    -0.37189     2.06797
 C     1.99478    -0.86197     1.04893
 H     3.10500    -0.35125    -0.75015
 H     2.39417     2.04719    -0.74627
 H     0.89028     2.90289     1.06671
 H     0.17443     1.38344     2.92186
 H     0.89226    -1.01602     2.91881
 H     2.39201    -1.87453     1.10813
 C    -0.03947    -0.75600    -1.72500
 C    -1.33901    -1.24725     0.45580
 C    -1.39678     1.12441    -0.58410
 O    -0.00969    -1.22539    -2.79629
 O    -2.14616    -2.04378     0.74281
 O    -2.24145     1.84089    -0.96061
