   56
 
Cr     0.00000     0.00000     0.00000
 I     2.67253     0.00000     0.00000
 I    -0.25344     2.69940     0.00000
 C    -0.20960    -1.13997    -1.91611
 C    -0.30229    -2.11502    -0.85231
 C    -1.46529    -1.80117    -0.07043
 C    -2.11303    -0.65154    -0.65859
 C    -1.35305    -0.25988    -1.81523
 C     0.73570    -1.16568    -3.05363
 C     0.58099    -3.27924    -0.64751
 C    -2.00693    -2.62487     1.03035
 C    -3.38298    -0.05218    -0.20439
 C    -1.74441     0.74419    -2.82636
 H     1.61608    -1.79676    -2.86063
 H     1.09886    -0.16291    -3.32696
 H     0.23961    -1.58054    -3.95000
 H     0.82732    -3.44628     0.41315
 H     1.53088    -3.19857    -1.19720
 H     0.08700    -4.20103    -1.00550
 H    -1.22059    -3.13666     1.60584
 H    -2.66564    -3.41342     0.62253
 H    -2.61340    -2.04280     1.74021
 H    -3.47918     1.00575    -0.49753
 H    -3.50567    -0.09845     0.88880
 H    -4.24193    -0.58719    -0.64798
 H    -2.44374     1.49707    -2.43010
 H    -2.25259     0.24967    -3.67373
 H    -0.88208     1.28773    -3.24255
Cr     2.90029     0.06347     2.79883
 I     3.13597    -2.46057     2.95626
 I     0.14117    -0.04018     2.76512
 C     4.00500     0.55432     4.71383
 C     2.97872     1.55850     4.53783
 C     3.28811     2.31394     3.35213
 C     4.47814     1.75847     2.77243
 C     4.93001     0.67214     3.61470
 C     4.15514    -0.30534     5.90668
 C     1.92721     1.87949     5.52607
 C     2.54005     3.48160     2.85198
 C     5.22744     2.31475     1.62630
 C     6.19500    -0.07098     3.44283
 H     3.19900    -0.73472     6.24356
 H     4.85148    -1.14202     5.74371
 H     4.55757     0.28409     6.75066
 H     1.10939     2.47784     5.09545
 H     1.48030     0.98236     5.97956
 H     2.35413     2.47606     6.35302
 H     1.45776     3.41299     3.04607
 H     2.89114     4.40551     3.34637
 H     2.66507     3.63788     1.76874
 H     5.77187     1.54602     1.05865
 H     4.58118     2.85676     0.91860
 H     5.98148     3.03963     1.98479
 H     6.39734    -0.32565     2.39099
 H     7.04672     0.53927     3.79485
 H     6.21830    -1.00992     4.01743
