   19
 
Cr     0.00000     0.00000     0.00000
 O     2.00812     0.00000     0.00000
 O     1.91863     3.50917     0.00000
 O     3.78452     1.32832    -0.09270
 O     0.01148    -0.21521     1.97788
 O    -0.24588    -1.97210     0.11659
 O    -0.22065    -1.69805     3.61378
 O    -0.31600    -3.67983     1.53418
 O    -1.97985     0.07975    -0.14356
 C     1.55426     2.34217    -0.02435
 C     2.57601     1.14484    -0.04209
 C    -0.14813    -1.40242     2.42940
 C    -0.24861    -2.48354     1.28976
 O    -0.16622     0.14911    -1.97755
 O    -3.65000     0.32759    -1.58448
 O    -1.64182     0.24823    -3.63362
 C    -2.46125     0.20888    -1.32331
 C    -1.35643     0.20415    -2.44515
 O     0.33304     1.95686    -0.03508
