   19
 
 O     0.00000     0.00000     0.00000
 O     2.57094     0.00000     0.00000
 O    -0.14931     2.21577     0.00000
 O     2.72032     2.20986    -0.15599
 O     1.61630    -1.51966     2.00938
 O     2.62601    -2.98425     0.15077
 O     2.68815    -2.58867     3.63445
 O     3.97377    -4.07514     1.53789
 O    -0.06832    -2.97823     0.01563
 C     0.49873     1.17865    -0.01892
 C     2.07204     1.17694    -0.06489
 C     2.43298    -2.39971     2.45335
 C     3.09803    -3.25262     1.30989
 O     0.96813    -1.62994    -1.91647
 O    -1.36754    -4.18070    -1.32432
 O    -0.10514    -2.77398    -3.48796
 C    -0.51229    -3.32754    -1.13298
 C     0.15268    -2.53160    -2.31737
Cr     1.28499    -1.51847     0.04521
