   43
 
Cs     0.00000     0.00000     0.00000
 O     3.04015     0.00000     0.00000
 C    -2.49232     2.83247     0.00000
 C    -0.46414     3.62873     0.97187
 C     0.67678     3.04323     1.80735
 C     2.70924     1.85839     1.38008
 C     3.46242     1.35254     0.14755
 C     3.47459    -0.60625    -1.21345
 C     2.71743    -1.93476    -1.27555
 C     0.67553    -2.72125    -2.24287
 C    -0.45620    -2.12384    -3.08237
 C    -2.48205    -0.93232    -2.67379
 C    -3.26012    -0.43642    -1.45272
 H    -4.34729     1.66518    -0.16482
 H    -3.06044     0.87611     0.82510
 H    -2.07171     3.10187    -0.98900
 H    -3.12473     3.65903     0.37390
 H    -0.12699     3.87661    -0.05389
 H    -0.90878     4.52434     1.44412
 H     1.16035     3.81037     2.44064
 H     0.33354     2.20492     2.44338
 H     3.32852     2.53999     1.99262
 H     2.34794     1.02471     2.01316
 H     3.19973     1.93834    -0.75573
 H     4.55810     1.36519     0.29487
 H     3.22677     0.04069    -2.07848
 H     4.56909    -0.75377    -1.15951
 H     3.33443    -2.74274    -1.71099
 H     2.35220    -2.24891    -0.27873
 H     1.14886    -3.58692    -2.74250
 H     0.32694    -3.02469    -1.23694
 H    -0.11098    -1.23987    -3.65422
 H    -0.89696    -2.86567    -3.77402
 H    -2.04868    -0.08878    -3.24677
 H    -3.10718    -1.55314    -3.34199
 H    -4.34741    -0.38596    -1.64876
 H    -3.07754    -1.06863    -0.56254
 O    -2.76283     0.88014    -1.23966
 O    -1.44995     2.60190     0.94174
 O     1.61234     2.58486     0.83753
 O     1.62402    -1.66431    -2.14571
 O    -1.44975    -1.75073    -2.13336
 C    -3.25747     1.50826    -0.06198
