   63
 
Cs     0.00000     0.00000     0.00000
 N     3.01933     0.00000     0.00000
 O     1.42714     2.59313     0.00000
 O     1.60316    -1.40581     2.45495
 C     2.51606    -1.91986     1.49019
 C     0.55865    -2.31152     2.79850
 C    -0.57824    -1.42413     3.31863
 C     2.50290    -0.30706    -2.41074
 C     3.45264    -0.67153    -1.25347
 O     1.58617    -1.39545    -2.47202
 N    -3.12766    -0.07723     0.00120
 O    -1.73520     2.75998     0.12515
 O    -1.63378    -1.28794    -2.50624
 O    -1.61478    -1.55635     2.35065
 C    -0.67684     3.50937    -0.46249
 C     0.53078    -1.20808    -3.41014
 C    -3.59213     1.33138     0.02039
 C    -3.53959    -0.78336    -1.23666
 C    -3.53275    -0.81496     1.22271
 C    -2.64487     2.20769    -0.82221
 C    -2.52267    -1.89212    -1.57120
 C    -0.58441    -2.14861    -2.93852
 C    -2.56378    -0.49409     2.37751
 H     4.49061     1.54155     0.41812
 H     3.44952     1.84057    -0.99616
 H     4.51430    -1.12461     1.10100
 H     3.47481    -0.06942     2.08923
 H     2.05711     1.67275     1.74438
 H     2.96171     3.16536     1.27611
 H     0.10606     3.08447     1.54375
 H     0.92198     4.46335     0.71093
 H     3.05232    -2.78050     1.93023
 H     1.96717    -2.25283     0.58849
 H     0.95033    -2.98898     3.57916
 H     0.23189    -2.91100     1.92801
 H    -0.25097    -0.37243     3.42312
 H    -0.97479    -1.77913     4.28731
 H     3.04268    -0.24151    -3.37284
 H     1.95788     0.64002    -2.23134
 H     4.50135    -0.42683    -1.52805
 H     3.42194    -1.77968    -1.11257
 H    -1.05015     4.53630    -0.63151
 H    -0.35431     3.07711    -1.42904
 H     0.91687    -1.48483    -4.40810
 H     0.18588    -0.15719    -3.43312
 H    -3.58457     1.71530     1.06942
 H    -4.63752     1.44353    -0.33999
 H    -3.56718    -0.06418    -2.09083
 H    -4.56249    -1.21221    -1.16505
 H    -3.49324    -1.91434     1.02822
 H    -4.57802    -0.59468     1.52971
 H    -3.18889     3.03423    -1.31417
 H    -2.09457     1.62399    -1.58460
 H    -1.95735    -2.23188    -0.68218
 H    -3.01383    -2.75940    -2.04799
 H    -0.23311    -2.80848    -2.12306
 H    -0.98214    -2.76938    -3.76207
 H    -2.04729     0.47524     2.24151
 H    -3.08225    -0.50070     3.35333
 C     3.45297     1.41926     0.03807
 C     3.47331    -0.74741     1.20153
 C     2.47880     2.24631     0.89771
 C     0.45697     3.47151     0.56800
