   60
 
Cs     0.00000     0.00000     0.00000
Cs     4.30786     0.00000     0.00000
 O     2.15351     1.89102     0.00000
 C     0.86848    -3.10340     1.16546
 C     3.42185    -3.08784     1.17717
 C     2.16301    -4.19488    -0.74700
 C     2.15365     2.87969     0.85632
 O     4.04433     0.28170    -2.83769
Cs     2.15343    -1.84219    -3.24554
 O     2.14398    -1.86269    -0.38377
 O     0.27855     0.30033    -2.85471
Cs     2.15274     2.44291    -2.82098
 C     0.88072     2.79870     1.76847
 C     3.43375     2.80560     1.75922
 C     2.14715     4.24883     0.09213
 C    -0.79486     0.36607    -3.59908
 C    -0.80373    -0.81532    -4.63023
 C    -2.07665     0.26753    -2.70109
 C    -0.82245     1.72563    -4.37976
 C     5.10894     0.35577    -3.59370
 C     5.11604     1.71387    -4.37738
 C     6.40048     0.26962    -2.70872
 C     5.11670    -0.82678    -4.62389
 H    -0.01749    -3.19331     0.53425
 H     0.78719    -2.19958     1.77852
 H     0.91362    -3.96493     1.82695
 H     4.31112    -2.90019     0.56695
 H     3.35873    -2.33416     1.96524
 H     3.51895    -4.06676     1.63887
 H     1.30290    -4.10996    -1.41740
 H     3.08409    -4.16118    -1.33394
 H     2.11089    -5.15303    -0.23654
 H     0.88972     1.85323     2.31727
 H    -0.01465     2.84606     1.14255
 H     0.84650     3.61530     2.48482
 H     3.44758     1.84773     2.28654
 H     4.32414     2.88627     1.13017
 H     3.45447     3.60625     2.49389
 H     3.03031     4.30713    -0.55015
 H     1.24652     4.31380    -0.52429
 H     2.16058     5.09255     0.77703
 H    -0.79016    -1.76623    -4.09054
 H     0.08331    -0.74636    -5.26560
 H    -1.68637    -0.78914    -5.26389
 H    -2.08605     1.09996    -1.99236
 H    -2.05934    -0.67774    -2.15134
 H    -2.98682     0.30686    -3.29374
 H     0.05694     1.78861    -5.02595
 H    -0.80568     2.55197    -3.66382
 H    -1.71291     1.81816    -4.99579
 H     5.98221     1.79791    -5.02848
 H     5.13293     2.54257    -3.66473
 H     4.21219     1.78059    -4.98949
 H     6.39880     1.09128    -1.98742
 H     7.30411     0.33671    -3.30890
 H     6.40787    -0.68302    -2.17253
 H     4.22202    -0.76539    -5.24950
 H     5.99200    -0.79416    -5.26723
 H     5.11642    -1.77668    -4.08252
 C     2.14822    -2.99791     0.26542
