   19
 
Cu     0.00000     0.00000     0.00000
 O     2.20695     0.00000     0.00000
 O    -0.40895     2.15800     0.00000
 O     0.41996     0.53685    -2.09829
 O     0.45771    -2.16830    -0.05648
 O    -0.42539    -0.46018     2.11438
 O    -2.21289    -0.20043    -0.07069
 H     2.84225     0.69354     0.24376
 H     2.70592    -0.83478     0.01105
 H    -2.80591     0.56558    -0.15426
 H    -2.76417    -0.98050    -0.24666
 H     1.33140     0.61707    -2.42715
 H    -0.14981     0.52359    -2.88449
 H    -1.33615    -0.54135     2.44504
 H     0.14324    -0.42845     2.90139
 H    -0.25113     2.70819    -0.78597
 H    -0.56661     2.77513     0.73330
 H     0.33767    -2.74474     0.71734
 H     0.56242    -2.76337    -0.81714
