   29
 
Cu     0.00000     0.00000     0.00000
 N     1.97856     0.00000     0.00000
 N     0.34956     1.95407     0.00000
 N     2.03899     3.61739     0.24213
 N     3.92754     1.36251    -0.17210
 O     2.81745    -1.08451    -0.16770
 O    -0.56569     2.98409     0.08038
 C     2.59933     1.17736    -0.04408
 C     1.62008     2.34700     0.08267
 N    -1.37815     0.34274     1.55011
 N     0.13862    -1.66313     1.32995
 O    -2.16620     1.48308     1.64765
 C    -1.25431    -0.31820     2.70098
 O     1.11305    -2.64939     1.21711
 C    -0.27959    -1.48811     2.58371
 N    -1.89479    -0.02895     3.84804
 N     0.07703    -2.23505     3.64504
 H     2.99960     3.88424     0.35967
 H     4.54897     0.55897    -0.24223
 H     4.36172     2.26071    -0.28927
 H     2.37984    -1.78729     0.41818
 H    -1.24588     2.63020     0.74343
 H    -3.02724     1.25089     1.15263
 H     0.67924    -3.36872     0.63853
 H    -1.83797    -0.58230     4.68589
 H    -2.51649     0.77668     3.90038
 H     0.74421    -2.99743     3.53285
 H    -0.20936    -2.05144     4.59078
 H     1.35771     4.37101     0.31517
