   27
 
Br     0.00000     0.00000     0.00000
Cu     2.41930     0.00000     0.00000
Br     2.54601     2.48371     0.00000
 N     2.47910    -0.69675     1.98335
 N     3.25323    -1.66986    -0.57725
 C     1.27250    -1.31766     2.58868
 C     2.90142     0.44935     2.83117
 C     2.39886    -2.28765    -1.62734
 C     4.60889    -1.39595    -1.12190
 H     4.56217    -1.19799     1.83315
 H     3.64056    -2.37028     2.77133
 H     4.12612    -3.33585     0.52325
 H     2.37818    -3.13546     0.72444
 H     0.87147    -2.11117     1.93912
 H     1.45389    -1.74496     3.58502
 H     0.47159    -0.55440     2.69795
 H     3.82642     0.91144     2.44999
 H     3.06401     0.19325     3.88743
 H     2.10554     1.22867     2.80123
 H     2.76544    -3.25893    -1.99070
 H     1.37028    -2.45043    -1.24237
 H     2.32607    -1.61834    -2.50522
 H     5.12493    -2.29136    -1.50549
 H     5.25921    -0.95789    -0.34536
 H     4.54271    -0.68450    -1.96779
 C     3.57673    -1.70836     1.88203
 C     3.33288    -2.56761     0.62011
