   25
 
Cu     0.00000     0.00000     0.00000
Cl     2.23003     0.00000     0.00000
Cl    -0.35361     2.14979     0.00000
 S     0.01211    -2.25304    -0.51034
 S    -0.37797    -0.42599     2.31981
 C     1.71102    -4.21168    -1.47649
 C     1.68781    -2.78313    -0.97866
 C    -0.30550    -2.96834     1.13257
 C     0.23260    -2.13675     2.27924
 C    -2.18797    -0.52201     2.48610
 C    -2.61725    -1.05462     3.84032
 H     1.42861    -4.94503    -0.71175
 H     2.73013    -4.48694    -1.79996
 H     1.06372    -4.37674    -2.34917
 H     2.41068    -2.63857    -0.14150
 H     2.05407    -2.07835    -1.76717
 H     0.12467    -3.99354     1.17686
 H    -1.40020    -3.13692     1.22222
 H     0.02481    -2.63987     3.24686
 H     1.34979    -2.05866     2.25032
 H    -2.65770    -1.11031     1.67747
 H    -2.55419     0.52717     2.35771
 H    -2.35276    -2.10783     3.99232
 H    -3.71014    -0.99012     3.95959
 H    -2.18999    -0.48272     4.67842
