   15
 
Cu     0.00000     0.00000     0.00000
 S     2.19000     0.00000     0.00000
Br    -0.73421     2.19021     0.00000
Br    -2.27495     0.40089     0.00006
 S     0.22965    -2.17793    -0.00015
 C     1.91127    -1.71976     0.00397
 N     2.90089    -2.61156     0.00934
 C     4.30978    -2.20381     0.00831
 C     2.63907    -4.05502     0.00961
 H     4.98419    -3.07445     0.03275
 H     4.54008    -1.57534     0.89164
 H     4.54955    -1.61594    -0.89993
 H     3.57354    -4.63756     0.03437
 H     2.07859    -4.35421    -0.89828
 H     2.03774    -4.34736     0.89348
