   23
 
Pt     0.00000     0.00000     0.00000
 C    -1.06071     0.13602    -1.95526
 C    -2.12332    -0.88134    -2.05614
 C    -3.21901    -0.46385    -1.28926
 C    -2.91237     0.77115    -0.69647
 C    -1.55502     1.16680    -1.10476
 H    -0.32502     0.23008    -2.73289
 H    -2.04137    -1.77727    -2.62997
 H    -4.13721    -1.00195    -1.16698
 H    -3.53897     1.35047    -0.05585
 H    -1.26439     2.20079    -1.09653
 C     1.46114     1.27064    -0.62113
 C     0.16820     3.27754    -3.62690
 C     1.18981    -0.69358     1.46991
 H     2.36067     0.69145    -0.82408
 H     1.64783     1.99400     0.17089
 H     1.14915     1.78897    -1.52682
 H     0.52963     2.61665    -4.36844
 H     0.82587     3.95743    -3.15661
 H    -0.86092     3.27862    -3.38179
 H     1.40205     0.10507     2.17146
 H     2.11447    -1.07599     1.05456
 H     0.69262    -1.49734     2.00027
