   15
 
 C     0.00000     0.00000     0.00000
 C     1.51672     0.00000     0.00000
Cd     2.45050     1.94453     0.00000
 C     3.41808     3.87246     0.00000
 C     4.93500     3.84598     0.00000
 H     5.32338     4.87490    -0.02886
 H     5.35074     3.32536    -0.87136
 H     5.34961     3.37499     0.89974
 H     2.99650     4.32737    -0.90755
 H     2.99399     4.33306     0.90272
 H     1.94995    -0.44955     0.90456
 H     1.94981    -0.45005    -0.90433
 H    -0.42354     0.48335    -0.88893
 H    -0.42416     0.49356     0.88302
 H    -0.37057    -1.03592     0.00588
