   63
 
Er     0.00000     0.00000     0.00000
 N     2.27890     0.00000     0.00000
 N     1.77402     2.15896     0.00000
 C    -0.53825     1.04365     3.45876
 C    -1.39945    -0.05840     3.25447
 C    -2.49161     0.38324     2.47397
 C    -2.29649     1.75115     2.18358
 C    -1.09178     2.15882     2.79846
 C    -1.39616    -1.14076    -1.58454
 C    -1.95328    -2.42220    -1.07361
 C    -1.54228    -3.45883    -1.85387
 C    -0.72888    -2.92575    -2.93955
 C    -0.66018    -1.57335    -2.80318
 C     2.77209     1.30949     0.17840
 C     4.14912     1.66808     0.64348
 C     4.19017     1.59377     2.17945
 C     5.56375     2.02461     2.70363
 C     5.59318     1.95510     4.23018
 C     3.27114    -1.06840    -0.32588
 C     2.51148    -2.37166    -0.71268
 C     4.16723    -1.43832     0.87025
 C     4.11562    -0.68111    -1.55774
 C     1.81369     3.62112     0.01755
 C     2.75993     4.16731    -1.07151
 C     2.18857     4.20016     1.39130
 C     0.36644     4.07183    -0.31606
 H     0.34262     1.04592     4.05597
 H    -1.30032    -1.01673     3.70336
 H    -3.35511    -0.18837     2.22957
 H    -2.98033     2.38469     1.67185
 H    -0.69803     3.14769     2.80656
 H    -2.19756    -0.44778    -1.83771
 H    -2.62032    -2.47497    -0.23726
 H    -1.77156    -4.49851    -1.74597
 H    -0.30036    -3.53428    -3.70881
 H    -0.18751    -0.88726    -3.47386
 H     4.42517     2.69103     0.30878
 H     4.93350     1.01773     0.20945
 H     3.39741     2.23180     2.61926
 H     3.95372     0.56893     2.52421
 H     6.35491     1.37836     2.27840
 H     5.79598     3.05312     2.36622
 H     4.83264     2.60692     4.67713
 H     6.56724     2.26950     4.62214
 H     5.40669     0.93710     4.59070
 H     1.96348    -2.80694     0.12273
 H     3.23958    -3.13855    -1.01511
 H     1.86211    -2.24952    -1.58372
 H     4.98948    -0.73221     1.01792
 H     4.63686    -2.41817     0.73045
 H     3.59187    -1.47582     1.80111
 H     3.47687    -0.46020    -2.41972
 H     4.79245    -1.49365    -1.84250
 H     4.73666     0.20208    -1.38971
 H     3.81087     3.96103    -0.85100
 H     2.65853     5.25370    -1.16840
 H     2.53575     3.72277    -2.04660
 H     1.60331     3.72791     2.19199
 H     1.98555     5.27636     1.43353
 H     3.24838     4.06703     1.62498
 H     0.03235     3.68048    -1.27803
 H     0.31629     5.16481    -0.37957
 H    -0.33504     3.77288     0.47192
