   70
 
Er     0.00000     0.00000     0.00000
 N     2.44629     0.00000     0.00000
Se     5.06828     2.05087     0.00000
Se     4.54482    -4.13414     3.24510
 C    -1.61713    -1.19027     2.82966
 C    -1.78976    -2.37869     2.08479
 C    -0.59667    -3.12406     2.16572
 C     0.31168    -2.40615     2.97713
 C    -0.31616    -1.21586     3.38850
 C    -1.96293     0.52967    -1.15271
 C    -3.02876    -0.51460    -1.06067
 C    -3.39750    -0.92578    -2.30203
 C    -2.62771    -0.17355    -3.28768
 C    -1.80163     0.68265    -2.63066
 P     4.82539    -4.33496     1.25355
 P     4.13854     0.13323    -0.01002
 H    -2.37722    -0.48156     3.05185
 H    -2.68881    -2.68849     1.60607
 H    -0.44241    -4.09727     1.76613
 H     1.28409    -2.72985     3.26649
 H     0.08669    -0.49857     4.06364
 H    -2.34535     1.46502    -0.73442
 H    -3.44645    -0.83678    -0.12698
 H    -4.13600    -1.65527    -2.56390
 H    -2.74609    -0.29682    -4.34460
 H    -1.15401     1.41160    -3.07296
 C     6.41221    -4.51942     0.50652
 C     6.72388    -3.83735    -0.68947
 H     5.98846    -3.21458    -1.23181
 C     8.00692    -3.91041    -1.22655
 H     8.23362    -3.35797    -2.14229
 C     8.98986    -4.67155    -0.60295
 H     9.99268    -4.72910    -1.02868
 C     8.69225    -5.35939     0.57298
 H     9.46229    -5.95804     1.05861
 C     7.42279    -5.28355     1.13607
 H     7.25448    -5.83705     2.06809
 C     3.56303    -4.39821     0.04339
 C     2.27167    -3.89735     0.33344
 H     2.03318    -3.36472     1.27363
 C     1.23493    -4.07225    -0.57956
 H     0.22672    -3.75229    -0.31248
 C     1.45739    -4.71469    -1.79393
 H     0.63718    -4.85231    -2.50120
 C     2.72992    -5.18916    -2.10377
 H     2.90794    -5.68789    -3.05738
 C     3.77937    -5.03536    -1.20345
 H     4.75937    -5.43184    -1.50594
 C     4.77992    -0.80709     1.50871
 C     6.15347    -1.09553     1.64773
 H     6.87186    -0.89219     0.84424
 C     6.63567    -1.60249     2.85031
 H     7.70327    -1.77349     2.97359
 C     5.75712    -1.89069     3.89707
 H     6.14745    -2.24015     4.85221
 C     4.38333    -1.63765     3.74677
 H     3.70025    -1.77173     4.58811
 C     3.90181    -1.05882     2.56428
 H     2.83162    -0.82391     2.50129
 C     4.78241    -0.91275    -1.44947
 C     3.93878    -1.84560    -2.06239
 H     2.93709    -2.05524    -1.67663
 C     4.36889    -2.52471    -3.20376
 H     3.69946    -3.22840    -3.69051
 C     5.63406    -2.28617    -3.73049
 H     5.95580    -2.80799    -4.62851
 C     6.47566    -1.36147    -3.11670
 H     7.45765    -1.15441    -3.53815
 C     6.05555    -0.66669    -1.98344
 H     6.73162     0.08961    -1.55744
