  130
 
Er     0.00000     0.00000     0.00000
 O     2.29950     0.00000     0.00000
 O    -2.25059     0.49603     0.00000
 O     0.36617     1.57817     1.65350
 O     0.29762     1.90897    -1.43601
 O    -0.27766    -1.91974    -1.43160
 O    -0.48740    -1.45169     1.86931
 O     0.58645    -3.25332     2.35131
 O     0.30755     4.03652    -1.69235
 O     1.15941    -3.47790    -1.79171
 N    -0.33488    -2.50004     2.61830
 N     0.45787     2.93693    -2.20922
 N     0.02179    -3.07212    -1.95621
 O    -1.12256    -2.64459     3.53576
 O     0.78667     2.73924    -3.35928
 O    -0.85866    -3.65669    -2.55452
 N    -2.92720     2.95656     0.84184
 O    -4.11765    -1.39706     0.24375
 O     2.56879     2.92826     2.37843
 N     3.52090    -2.26477    -0.50841
 N    -1.45635     1.58998     3.72857
 O     3.72399     2.26674    -0.31805
 H     1.15023     2.13531     1.85740
 H    -0.22945     1.71238     2.48073
 H     2.90929     0.76606    -0.02099
 H     2.92727    -0.84958    -0.20881
 H    -3.01252    -0.14375     0.01580
 H    -2.69980     1.38971     0.29242
 C     5.18342    -1.17320    -1.91245
 C     6.32655    -1.23452    -2.67142
 C     6.92348    -2.49148    -2.93194
 C     6.38026    -3.64993    -2.43911
 C     5.21638    -3.60705    -1.62678
 C     4.61537    -2.36244    -1.33301
 C     2.98597    -3.36592    -0.00312
 C     3.51033    -4.66293    -0.28104
 C     4.61445    -4.77772    -1.08214
 C     5.01727     1.20432    -1.95860
 C     3.84869     2.16551    -1.73750
 C     2.91600     3.36902     0.09482
 C     3.38745     3.70231     1.50925
 C     2.30602     3.48691     3.64614
 C     1.18169     4.52663     3.57658
 C    -1.05666     3.94412     4.15329
 C    -1.42869     5.13709     4.72210
 C    -2.59573     5.18817     5.52285
 C    -3.35343     4.06776     5.74822
 C    -2.98818     2.82664     5.16398
 C    -1.84166     2.75589     4.34081
 C    -2.15299     0.48684     3.93945
 C    -3.30766     0.46384     4.77783
 C    -3.72426     1.62473     5.37202
 H     6.77639    -0.34452    -3.09960
 H     7.81976    -2.52024    -3.55237
 H     6.82508    -4.61710    -2.66373
 H     2.10283    -3.25149     0.65191
 H     3.00629    -5.53274     0.13930
 H     5.04522    -5.75082    -1.32029
 H     5.85569     1.39151    -1.26403
 H     5.36284     1.23719    -3.00744
 H     2.89636     1.75940    -2.14695
 H     4.05174     3.14995    -2.19115
 H     1.85116     3.05325     0.06549
 H     3.03771     4.23162    -0.58337
 H     3.30914     4.77888     1.72458
 H     4.42835     3.36027     1.68095
 H     1.97850     2.59021     4.22138
 H     3.22555     3.89150     4.09920
 H     1.12022     5.10884     4.51086
 H     1.27783     5.20848     2.71289
 H    -0.85658     6.04686     4.56670
 H    -2.87527     6.14558     5.96443
 H    -1.79877    -0.44049     3.43728
 H    -3.82547    -0.48265     4.92857
 H    -4.60631     1.65440     6.01214
 H    -4.24178     4.10827     6.37599
 O    -4.54357     1.00498     1.64529
 O     4.44729    -0.06970    -1.65067
 O    -0.00079     3.76771     3.31713
 C    -4.93069     2.24463     2.02450
 C    -6.04416     2.55343     2.76991
 C    -6.25943     3.88668     3.19047
 C    -5.38250     4.88649     2.85703
 C    -4.23971     4.59787     2.06698
 C    -4.00572     3.27417     1.62828
 C    -2.07197     3.90394     0.49570
 C    -2.22557     5.25932     0.90960
 C    -3.30133     5.59885     1.68510
 C    -5.53946    -0.02684     1.66959
 C    -4.72523    -1.31164     1.50996
 C    -4.98157    -1.74263    -0.83271
 H    -6.09668    -0.02429     2.62112
 H    -6.22869     0.15381     0.82618
 H    -5.34002    -2.20938     1.70552
 H    -3.83798    -1.32502     2.18459
 H    -5.81715    -1.02970    -0.89251
 H    -5.38627    -2.76100    -0.66006
 H    -6.76557     1.79574     3.06199
 H    -7.14073     4.10223     3.79619
 H    -5.54437     5.90912     3.19029
 H    -1.21495     3.60850    -0.14270
 H    -1.48705     5.99149     0.58802
 H    -3.46417     6.62471     2.01611
 C    -4.09619    -1.71906    -2.09329
 O    -4.60045    -2.76023    -2.90241
 C    -3.85457    -3.96630    -2.92564
 C    -3.33035    -4.42908    -1.56942
 O    -4.49476    -4.86120    -0.84936
 C    -4.36012    -4.98406     0.48539
 C    -3.20292    -4.80545     1.21279
 C    -3.22652    -4.92208     2.61913
 C    -4.39449    -5.18913     3.29049
 C    -5.60207    -5.36528     2.57040
 C    -5.60513    -5.26764     1.15629
 N    -6.74662    -5.42529     0.41461
 C    -7.88093    -5.67941     1.04040
 C    -7.97771    -5.79304     2.45955
 C    -6.84356    -5.63692     3.21172
 H    -6.86630    -5.72032     4.29677
 H    -8.94191    -6.00091     2.91191
 H    -8.76975    -5.80333     0.41094
 H    -4.40936    -5.27056     4.37299
 H    -2.28857    -4.78158     3.16668
 H    -2.25702    -4.56311     0.73277
 H    -2.62923    -5.27765    -1.66573
 H    -2.82794    -3.60797    -1.02158
 H    -2.98928    -3.80942    -3.60612
 H    -4.58234    -4.66738    -3.37618
 H    -3.02132    -1.84369    -1.85555
 H    -4.22275    -0.80105    -2.68884
