  130
 
Er     0.00000     0.00000     0.00000
 N     2.27537     0.00000     0.00000
 N    -0.82360     2.12939     0.00000
 N    -0.78640    -1.41502    -1.62986
 N    -2.15679    -1.27412    -1.49341
 N     2.63685    -1.13590     0.69995
 N    -0.57364     2.67209     1.24798
 N    -1.00099    -0.64606     2.13465
 N    -1.39029     0.39426     2.96215
 H    -1.21666     1.35453     2.64682
 C    -1.37484     3.14651    -0.79226
 C    -1.41547     4.32509    -0.04388
 H    -1.75874     5.28556    -0.33813
 C    -0.88880     3.98068     1.23905
 C    -1.87736     2.95886    -2.19791
 C    -3.12582     2.06356    -2.16337
 H    -2.89678     1.04244    -1.83233
 H    -3.58075     1.98165    -3.15573
 H    -3.88482     2.46293    -1.48236
 C    -2.27398     4.32925    -2.78084
 H    -3.06746     4.80186    -2.19153
 H    -2.64872     4.22932    -3.80537
 H    -1.42019     5.01510    -2.80363
 C    -0.80261     2.34480    -3.11128
 H    -0.76802     1.25451    -3.03587
 H     0.18697     2.76355    -2.89825
 H    -1.01818     2.55824    -4.16582
 C    -0.67622     4.90454     2.39863
 C    -0.05106     4.17208     3.59616
 H     0.16426     4.86482     4.41588
 H     0.89116     3.68659     3.30895
 H    -0.71578     3.39332     3.97951
 C    -2.03244     5.50313     2.80740
 H    -2.47508     6.07752     1.98486
 H    -1.92554     6.17413     3.66581
 H    -2.74925     4.72070     3.07585
 C     0.27743     6.02464     1.94472
 H    -0.12947     6.57300     1.08779
 H     1.24538     5.61197     1.63606
 H     0.45760     6.74306     2.75032
 C     3.45622     0.63652    -0.40632
 C     4.54467    -0.11287     0.04037
 H     5.57953     0.08084    -0.09229
 C     3.97826    -1.22807     0.73710
 C     3.49673     1.90579    -1.21015
 C     2.93330     1.64061    -2.61778
 H     3.49145     0.83843    -3.11660
 H     3.01695     2.53510    -3.24531
 H     1.88275     1.34935    -2.59963
 C     2.70812     3.02388    -0.51050
 H     2.92657     3.04936     0.56391
 H     1.62563     2.91889    -0.62172
 H     2.96547     4.00773    -0.91678
 C     4.95843     2.37128    -1.35569
 H     5.57011     1.62087    -1.86829
 H     5.41316     2.55816    -0.37604
 H     5.02320     3.29908    -1.93353
 C     4.69649    -2.37494     1.38179
 C     6.13971    -1.97230     1.72380
 H     6.66029    -2.77948     2.24929
 H     6.15737    -1.08458     2.36622
 H     6.71331    -1.73736     0.82033
 C     3.97505    -2.79829     2.67273
 H     4.49459    -3.62305     3.16801
 H     2.94901    -3.12146     2.46072
 H     3.91106    -1.96179     3.37709
 C     4.70830    -3.54710     0.38272
 H     5.22885    -4.41533     0.79654
 H     5.20730    -3.26321    -0.55046
 H     3.68700    -3.85195     0.12652
 C    -1.41662    -1.80452     2.78288
 C    -2.08896    -1.45951     3.97556
 H    -2.53044    -2.12454     4.68151
 C    -2.06895    -0.05396     4.05412
 C    -1.23044    -3.21374     2.27725
 C    -1.39963    -4.19074     3.45725
 H    -0.68269    -3.98056     4.25849
 H    -1.23712    -5.22609     3.13353
 H    -2.40697    -4.15261     3.88422
 C    -2.33337    -3.49055     1.24521
 H    -2.26993    -2.82906     0.36938
 H    -3.33379    -3.36227     1.67064
 H    -2.26910    -4.51656     0.86594
 C     0.15721    -3.44437     1.66356
 H     0.92685    -2.80282     2.11482
 H     0.16720    -3.30056     0.57759
 H     0.49714    -4.47668     1.81472
 C    -2.62838     0.87572     5.08941
 C    -1.47026     1.38033     5.96310
 H    -0.71007     1.90909     5.37532
 H    -0.96483     0.55308     6.47598
 H    -1.83109     2.07379     6.73214
 C    -3.64164     0.11840     5.95940
 H    -4.45449    -0.30264     5.35554
 H    -4.09622     0.78328     6.70383
 H    -3.17186    -0.70729     6.50602
 C    -3.33657     2.05318     4.40279
 H    -2.64280     2.69169     3.84212
 H    -3.83452     2.69713     5.13869
 H    -4.10415     1.70697     3.69946
 C    -2.78124    -2.05666    -2.39067
 C    -1.80091    -2.75031    -3.16493
 H    -1.98987    -3.43468    -3.95304
 C    -0.56420    -2.32890    -2.66264
 C    -4.27125    -2.13340    -2.52383
 C    -4.96880    -1.44139    -1.34153
 H    -6.05670    -1.49944    -1.43068
 H    -4.68765    -0.38224    -1.28365
 H    -4.67724    -1.89927    -0.38983
 C    -4.69347    -3.61180    -2.56573
 H    -5.78107    -3.70941    -2.64134
 H    -4.36842    -4.13734    -1.66139
 H    -4.24816    -4.12971    -3.42234
 C    -4.66532    -1.43361    -3.83657
 H    -5.74806    -1.46198    -3.99105
 H    -4.18491    -1.90948    -4.69871
 H    -4.35074    -0.38331    -3.82725
 C     0.76045    -2.80613    -3.18720
 C     1.98776    -2.29024    -2.43318
 H     1.97686    -2.58182    -1.37606
 H     2.09033    -1.20259    -2.49472
 H     2.91080    -2.70744    -2.85383
 C     0.76430    -4.34636    -3.11111
 H     0.64516    -4.68758    -2.07704
 H     1.70199    -4.75892    -3.49675
 H    -0.05308    -4.78190    -3.69525
 C     0.86160    -2.35343    -4.65735
 H     0.03544    -2.75010    -5.25734
 H     1.79571    -2.69584    -5.11337
 H     0.82706    -1.26167    -4.73707
