   52
 
Er     0.00000     0.00000     0.00000
 O     2.35050     0.00000     0.00000
 O    -0.39368     2.42060     0.00000
 O    -2.36510     0.00010    -0.00003
Cl     0.59663     1.01499     3.04546
Cl     0.53261     0.95639    -3.04226
 C    -1.41749    -3.25893     0.19418
 C    -0.44979    -3.33597     1.21981
 C     0.81467    -3.49694     0.61555
 C     0.62751    -3.53422    -0.78393
 C    -0.74994    -3.38931    -1.04575
 C     3.22361     0.11250    -1.19427
 C     4.66347    -0.01034    -0.73170
 C     4.58074    -0.52835     0.71131
 C     3.21566    -0.09100     1.20069
 C    -0.26866     3.33579     1.14781
 C    -0.57320     4.74495     0.66340
 C    -1.19412     4.55845    -0.72726
 C    -0.63536     3.23063    -1.20472
 C    -3.21514     0.60530     1.04433
 C    -4.65381     0.51265     0.57287
 C    -4.64930    -0.64116    -0.43961
 C    -3.24316    -0.64542    -1.00446
 H     2.88969    -0.72014    -1.83911
 H     2.96633     1.09583    -1.62446
 H     5.19464     0.95812    -0.78007
 H     5.24424    -0.69981    -1.37328
 H     5.39374    -0.12289     1.34001
 H     4.69519    -1.63053     0.74236
 H     3.18890     0.92401     1.63491
 H     2.70886    -0.82720     1.84738
 H    -0.99603     2.95044     1.88153
 H     0.76925     3.20227     1.50255
 H     0.34237     5.36421     0.61012
 H    -1.25526     5.27840     1.34913
 H    -0.93257     5.38587    -1.41184
 H    -2.29741     4.54691    -0.67433
 H     0.35127     3.31692    -1.69889
 H    -1.33587     2.63323    -1.80777
 H    -3.00891    -0.00323     1.94465
 H    -2.83648     1.63677     1.13051
 H    -5.00078     1.45215     0.10481
 H    -5.35321     0.31908     1.40744
 H    -5.41498    -0.50433    -1.22422
 H    -4.89626    -1.60317     0.05462
 H    -3.12214    -0.02037    -1.90498
 H    -2.81359    -1.66240    -1.12159
 H    -2.47020    -3.23554     0.33896
 H    -0.64652    -3.33287     2.26623
 H     1.73722    -3.64391     1.12478
 H     1.38607    -3.70789    -1.51052
 H    -1.20875    -3.44576    -2.00406
