   96
 
Er     0.00000     0.00000     0.00000
 C     2.62523     0.00000     0.00000
Er     0.24093     4.00679     0.00000
Cl     0.64796     2.54091    -2.19041
 C    -3.06102    -1.01317     0.49698
 C     3.05524     1.39168     0.25409
 C     3.52960     1.50685     1.52987
 C     3.48543     0.19655     2.15895
 C     2.99800    -0.69875     1.25207
Cl     0.32248     1.85952     2.69682
 C     1.63445     5.88262    -0.20382
 C     1.11704     7.05311     0.56551
 C     2.06377     7.50309     1.43072
 C     3.26701     6.70299     1.26460
 C     3.04464     5.77844     0.28675
 C    -1.96513     3.12655     0.31661
 C    -2.57038     2.75096    -0.99718
 C    -3.71632     3.44881    -1.21051
 C    -3.96806     4.29866    -0.06031
 C    -2.97699     4.10128     0.85682
 C    -3.65597     0.11827     1.24893
 C    -5.20169     0.11400     1.19327
 C    -5.64321     0.92071     2.42413
 C    -4.49896     0.81512     3.45096
 C    -3.33105     0.08669     2.75839
 C     3.20649    -0.64384    -1.23652
 C     4.75008    -0.76431    -1.15204
 C     5.27472    -0.77920    -2.59682
 C     4.10099    -0.35363    -3.49931
 C     2.98195     0.12609    -2.55932
 C     4.04006     4.80254    -0.22565
 C    -2.97217     4.71272     2.21446
 C     5.50734     5.23707    -0.00495
 C     3.97065     4.56504    -1.75061
 C    -4.41074     4.81469     2.78252
 C    -2.20999     3.91719     3.29274
 C     6.32306     4.40445    -1.00905
 C     5.35090     4.00296    -2.13723
 C    -4.26725     4.83850     4.31193
 C    -2.87409     4.26976     4.63524
 H    -4.15522    -2.75481     1.24392
 H    -2.87451    -4.12525    -0.60180
 H    -1.33525    -2.46597    -1.99529
 H    -2.45060    -0.18903    -1.33361
 H    -3.32913     1.09762     0.82310
 H    -5.59506    -0.91661     1.23467
 H    -5.56709     0.55227     0.25236
 H    -6.59200     0.53587     2.83399
 H    -5.82037     1.97466     2.14910
 H    -4.81821     0.26910     4.35442
 H    -4.18608     1.81936     3.78707
 H    -2.37111     0.56848     2.99049
 H    -3.26347    -0.95550     3.11747
 H     3.13353     2.11130    -0.53303
 H     3.89956     2.37997     2.03113
 H     3.80229     0.01305     3.16552
 H     2.92177    -1.75766     1.37836
 H     2.79712    -1.67471    -1.35023
 H     5.04905    -1.65829    -0.58789
 H     5.16066     0.09622    -0.59411
 H     5.64062    -1.78084    -2.87509
 H     6.12851    -0.08954    -2.70719
 H     3.75552    -1.19899    -4.11651
 H     4.39697     0.44340    -4.20034
 H     3.08431     1.21433    -2.39991
 H     1.99528    -0.04015    -3.00386
 H     1.65256     6.10703    -1.27328
 H     0.15631     7.48561     0.38850
 H     1.99268     8.32021     2.12018
 H     4.16659     6.87128     1.81854
 H    -1.94723     2.31753     1.04391
 H    -2.16391     2.03124    -1.67138
 H    -4.36524     3.40342    -2.06500
 H    -4.82746     4.93207     0.02585
 H     3.90420     3.82742     0.30401
 H    -2.54978     5.74652     2.15794
 H     5.82962     5.07234     1.03340
 H     5.62121     6.31646    -0.20572
 H     3.78321     5.51980    -2.27426
 H     3.16704     3.88285    -2.04776
 H    -5.00675     3.93988     2.46466
 H    -4.93281     5.70430     2.40073
 H    -1.13731     4.14742     3.32191
 H    -2.29377     2.83030     3.10959
 H     6.74142     3.50714    -0.52210
 H     7.17737     4.97906    -1.40060
 H     5.67727     4.39630    -3.11320
 H     5.30662     2.90606    -2.24346
 H    -5.06394     4.24623     4.79218
 H    -4.36651     5.86714     4.69849
 H    -2.26590     5.00561     5.18823
 H    -2.93748     3.38017     5.28363
 C    -3.43311    -2.32067     0.58212
 C    -2.72313    -3.07590    -0.43938
 C    -1.91067    -2.23188    -1.12518
 C    -2.00545    -0.83994    -0.56660
