   75
 
Er     0.00000     0.00000     0.00000
 O     2.34820     0.00000     0.00000
 O    -2.35210     0.20936     0.00000
 C    -0.02183     0.84028     2.43225
 C     0.06385     1.23062    -2.27495
 C    -0.03879    -2.52979    -0.01145
Si    -0.11165     2.56767     3.13335
Si     0.43124     3.00912    -2.69377
Si    -0.41927    -3.75125    -1.37675
 H    -0.89347     0.30922     2.79415
 H     0.86881     0.36873     2.82521
 C     1.36506     3.58000     2.54060
 H     2.31291     3.11201     2.84565
 H     1.33988     4.59195     2.97938
 H     1.36557     3.69659     1.44567
 C    -1.68362     3.41755     2.53034
 H    -1.66127     3.59282     1.44425
 H    -1.81000     4.39590     3.02288
 H    -2.57059     2.80966     2.76599
 C    -0.11478     2.52430     5.01209
 H    -0.97554     1.94612     5.38550
 H    -0.17187     3.53719     5.44078
 H     0.79951     2.04190     5.39384
 H     0.79917     0.62085    -2.78451
 H    -0.91919     0.99369    -2.65871
 C     2.13191     3.48346    -2.02795
 H     2.14954     3.49551    -0.92790
 H     2.41712     4.48987    -2.37625
 H     2.90079     2.77962    -2.38064
 C     0.40168     3.27738    -4.55387
 H     1.16124     2.65163    -5.04959
 H     0.60218     4.32851    -4.81416
 H    -0.57972     3.00233    -4.97273
 C    -0.84837     4.13335    -1.88486
 H    -1.86331     3.89308    -2.23551
 H    -0.65163     5.18822    -2.14091
 H    -0.82634     4.05219    -0.78698
 H     0.96529    -2.74719     0.33255
 H    -0.73627    -2.73276     0.79181
 C    -0.32680    -5.51477    -0.73472
 H     0.67711    -5.73295    -0.33555
 H    -0.54515    -6.24661    -1.52847
 H    -1.04995    -5.67071     0.08227
 C    -2.14940    -3.43154    -2.05454
 H    -2.90442    -3.50116    -1.25677
 H    -2.40930    -4.17842    -2.82340
 H    -2.22689    -2.43747    -2.51982
 C     0.81640    -3.53660    -2.78277
 H     0.74211    -2.53871    -3.24162
 H     0.63297    -4.27969    -3.57740
 H     1.84788    -3.68134    -2.42641
 C     3.18658    -0.65976    -1.00699
 H     2.81997    -0.26254    -1.97043
 H     2.95767    -1.73374    -0.88188
 C     4.63848    -0.31089    -0.71941
 H     5.30771    -1.18074    -0.83760
 H     5.02145     0.45819    -1.41591
 C     4.63218     0.20852     0.72511
 H     5.39123     0.99390     0.88298
 H     4.88164    -0.59892     1.43846
 C     3.21880     0.72687     0.92851
 H     2.79677     0.50678     1.92488
 H     3.09447     1.78961     0.65290
 C    -3.27652    -0.60933     0.78604
 H    -3.08402    -0.31276     1.83300
 H    -2.96354    -1.64822     0.57952
 C    -4.68771    -0.29091     0.31963
 H    -5.41728    -0.31747     1.14722
 H    -5.04979    -1.02494    -0.42429
 C    -4.57503     1.11002    -0.29718
 H    -4.84100     1.89058     0.43982
 H    -5.27465     1.24365    -1.14025
 C    -3.12271     1.21718    -0.73394
 H    -2.96021     0.96006    -1.79602
 H    -2.64709     2.17638    -0.46441
