   97
 
Er     0.00000     0.00000     0.00000
 N     2.50060     0.00000     0.00000
 N    -0.19414     2.50831     0.00000
 C     3.11549     1.10926    -0.46648
 C    -1.93927    -1.40893     2.51051
 C    -1.16119    -2.55584     2.22775
 C     0.07624    -2.41702     2.88590
 C     0.06692    -1.18652     3.58144
 C    -1.17999    -0.57037     3.35991
 C    -1.74811    -2.23632    -2.13168
 C    -0.47736    -2.84882    -2.18038
 C     0.36158    -2.05099    -2.98868
 C    -0.39077    -0.94598    -3.44084
 C    -1.69478    -1.05782    -2.90952
 P     0.95336     4.18986    -0.44722
 P     4.48146     2.14316    -0.28220
 H    -2.96378    -1.27837     2.25694
 H    -1.48668    -3.41076     1.68193
 H     0.85026    -3.14684     2.92028
 H     0.83655    -0.82192     4.21976
 H    -1.51763     0.32942     3.81924
 H    -2.61721    -2.64197    -1.66955
 H    -0.22218    -3.78801    -1.74903
 H     1.36256    -2.27937    -3.26826
 H    -0.05759    -0.20162    -4.12461
 H    -2.51732    -0.42361    -3.13963
 C     1.85715     4.46879     1.17461
 C     1.86442     3.49374     2.18294
 H     1.22463     2.60903     2.15230
 C     2.69462     3.65070     3.29244
 H     2.68465     2.89445     4.07786
 C     3.51102     4.77016     3.40999
 H     4.16083     4.88541     4.27710
 C     3.48311     5.75241     2.42346
 H     4.10408     6.64252     2.52467
 C     2.66093     5.61409     1.30755
 H     2.67653     6.41743     0.56128
 C    -0.09420     5.68253    -0.82566
 C    -0.61045     5.78282    -2.13155
 H    -0.47270     4.99698    -2.88618
 C    -1.33815     6.91508    -2.49391
 H    -1.74679     6.98899    -3.50191
 C    -1.54404     7.94512    -1.58016
 H    -2.11711     8.82541    -1.87212
 C    -1.01619     7.85257    -0.29522
 H    -1.17074     8.66183     0.41889
 C    -0.29171     6.72653     0.09194
 H     0.10030     6.69459     1.11538
 C    -2.94856     1.73176     1.13690
 H    -3.29071     1.04739     0.34853
 H    -3.88859     2.18683     1.52844
 H    -2.54968     1.17724     2.00496
 C    -1.79844     4.32722     2.03278
 H    -0.94453     4.06987     2.68575
 H    -2.71453     4.26775     2.64682
 H    -1.68613     5.38147     1.73091
 C    -2.86574     3.92512    -0.86161
 H    -2.75547     5.02301    -0.89553
 H    -3.94582     3.71856    -0.77033
 H    -2.52896     3.52579    -1.83471
 C     4.41583     3.60172    -1.22268
 C     4.88511     4.81337    -0.66101
 H     5.39323     4.86011     0.31199
 C     4.68158     6.01101    -1.33920
 H     5.03905     6.94271    -0.89938
 C     4.01360     6.03226    -2.56143
 H     3.82226     6.98197    -3.06310
 C     3.59738     4.83991    -3.14540
 H     3.09093     4.85155    -4.11221
 C     3.80735     3.62355    -2.50054
 H     3.47486     2.71670    -3.02177
 C     5.74441     1.90220     0.88353
 C     7.10178     1.88842     0.48093
 H     7.41226     2.04627    -0.56233
 C     8.09960     1.66619     1.42455
 H     9.14435     1.65821     1.10993
 C     7.77632     1.44720     2.76218
 H     8.56772     1.26135     3.49099
 C     6.44596     1.47013     3.16969
 H     6.19326     1.30978     4.21914
 C     5.42877     1.70728     2.24835
 H     4.39768     1.75196     2.63179
 C     5.18924    -1.59110    -0.15230
 H     5.15350    -1.34407    -1.23188
 H     5.62453    -2.60742    -0.07695
 H     5.91536    -0.91077     0.32822
 C     2.49359    -2.98569     0.09196
 H     1.62611    -3.20667     0.74374
 H     3.12259    -3.90135     0.13885
 H     2.15247    -2.92489    -0.96254
 C     3.59683    -1.42186     2.47810
 H     4.20264    -0.56338     2.81838
 H     4.06098    -2.33240     2.90634
 H     2.59521    -1.33606     2.95260
 H     2.44876     1.59562    -1.29066
Si    -1.88641     3.18076     0.55310
Si     3.50880    -1.51914     0.62832
