   24
 
Eu     0.00000     0.00000     0.00000
 O     2.41530     0.00000     0.00000
 O    -2.42498     0.00013     0.00000
 O    -0.70268    -1.24029     2.06250
 O     0.85320    -1.57089    -1.75952
 O    -0.77900     0.82705    -2.23697
 O    -1.96714    -1.84282    -0.98027
 O     0.80300    -2.46916     1.20114
 O    -0.21213     2.63105     0.23286
 O     1.94671     0.59903     2.02414
 O     1.29203     1.33774    -2.32747
 O    -0.93732     1.82983     2.08365
 N    -2.85387    -1.01546    -0.64253
 N     2.82728     0.22793     1.23116
 N     0.02666    -2.27135     2.17444
 N     0.15880     1.45948    -2.83404
 O    -1.08637     3.94437     1.71049
 N    -0.76300     2.83187     1.36115
 O    -4.01604    -1.17984    -0.90509
 O     3.96648     0.07356     1.59006
 O    -0.00163    -3.00239     3.13011
 O    -0.02855     2.08663    -3.85131
 H     0.43528    -1.70760    -2.61658
 H     1.70283    -2.03145    -1.77025
