   81
 
Eu     0.00000     0.00000     0.00000
 O     2.30785     0.00000     0.00000
 O     0.90959     2.12186     0.00000
 N    -0.02191    -2.15423    -1.22648
 N    -1.99858     0.81344     1.22151
 N    -0.42220     0.68085    -2.44258
 N     0.45071    -0.66388     2.44310
 N    -1.88720    -2.69349     1.31233
 N    -3.20341    -0.69706    -1.32601
 N    -0.68418    -2.45533    -2.38950
 N    -2.54033     0.31347     2.37831
 N    -1.00286    -0.08128    -3.41770
 C    -0.05554     1.86945    -3.04222
 H     0.43882     2.64206    -2.47815
 C    -0.41349     1.85453    -4.39887
 H    -0.26493     2.62014    -5.12364
 C    -1.01647     0.59369    -4.60153
 H    -1.42786     0.18700    -5.50764
 C     0.59702    -3.32705    -0.82282
 H     1.18542    -3.36295     0.07704
 C     0.31703    -4.35954    -1.72680
 H     0.64586    -5.37164    -1.68729
 C    -0.50362    -3.76556    -2.71105
 H    -0.93159    -4.22229    -3.58534
 C    -4.49120    -0.87243    -0.93854
 H    -4.87744    -0.42136    -0.04476
 C    -5.16368    -1.71077    -1.87245
 H    -6.17839    -2.02846    -1.83038
 C    -4.20195    -2.02511    -2.83928
 H    -4.29272    -2.63059    -3.71807
 C     1.99201     2.77826     0.03887
 C     1.83921     4.24698     0.10495
 C     2.88180     5.07286     0.52905
 H     3.83826     4.64353     0.82926
 C     2.69674     6.45195     0.58338
 H     3.50822     7.09635     0.91611
 C     1.47172     7.00742     0.21513
 H     1.33058     8.08691     0.25683
 C     0.42663     6.18447    -0.20117
 H    -0.53185     6.61802    -0.48129
 C     0.60726     4.80488    -0.25109
 H    -0.21250     4.15109    -0.56027
 C     3.23634     2.13341    -0.00373
 H     4.13758     2.72794    -0.00699
 B    -1.64641    -1.47973    -3.15508
 H    -1.82690    -1.98812    -4.25931
 C     3.33810     0.73544    -0.04271
 N    -0.48198    -0.90805     3.41229
 C     0.12913    -1.19269     4.59672
 C     1.52620    -1.12787     4.40078
 C     1.68552    -0.79423     3.04718
 H     2.59219    -0.63662     2.48815
 H     2.28595    -1.29511     5.12766
 H    -0.40995    -1.41983     5.49867
 B    -2.01910    -0.95547     3.14147
 N    -3.02880    -1.39257    -2.47636
 N    -2.47384    -2.25966     2.45480
 C    -3.52410    -3.08739     2.80100
 C    -3.60143    -4.09374     1.83170
 C    -2.55191    -3.80624     0.91344
 H    -2.27710    -4.33814     0.02292
 H    -4.29377    -4.90002     1.77827
 H    -4.12910    -2.93245     3.67114
 H    -2.56346    -0.92849     4.24304
 C    -2.83721     1.84085     0.81790
 H    -2.63634     2.40206    -0.07758
 C    -3.90389     1.97787     1.71524
 H    -4.70939     2.67322     1.67390
 C    -3.68048     0.98571     2.69540
 H    -4.27374     0.76335     3.56419
 C     4.62711     0.01495    -0.10777
 C     5.79993     0.64877    -0.52221
 H     5.78526     1.69881    -0.81623
 C     6.99390    -0.06585    -0.57495
 H     7.90800     0.42692    -0.90054
 C     7.01858    -1.41274    -0.21439
 H     7.95474    -1.96856    -0.25442
 C     5.84764    -2.04998     0.19247
 H     5.86601    -3.10327     0.46704
 C     4.65142    -1.33931     0.24048
 H     3.72534    -1.83579     0.54221
