   75
 
Eu     0.00000     0.00000     0.00000
 O     2.39650     0.00000     0.00000
 O    -0.19233     2.38883     0.00000
 O     1.29347    -1.98715    -0.54425
 O    -1.34475     0.12122    -2.02361
 O    -2.01456    -1.44858     0.31009
 O    -2.19527    -3.45703    -0.44395
 O     0.68662    -0.37651     2.41514
 O     3.53059     0.04527    -4.64732
 O     1.81362    -2.16994     2.82943
 O     1.47911     0.21093    -5.33496
 H     3.19997    -2.41198     1.97974
 N    -2.75098    -2.45675    -0.00211
 O     2.08185    -4.52855     0.13249
 O     4.78387    -0.00596    -1.38177
 O     4.83242     0.44738     1.14995
 N     1.60223    -0.96947     3.08045
 N     2.51972     0.69518    -4.56016
 O    -3.95837    -2.34476     0.11913
 O     2.22023    -0.35207     3.92655
 O     2.29564     1.68639    -3.90794
 P     2.42292    -3.21445    -0.70089
 P     4.05811    -0.32551     0.00068
 C     4.06071    -2.34784     0.09729
 C     5.38046    -2.94865    -0.44455
 H     5.55625    -2.76546    -1.51592
 H     5.41397    -4.04121    -0.27889
 H     6.25530    -2.56043     0.10922
 C     2.48437    -2.78312    -3.28394
 H     1.44096    -2.47146    -3.43771
 H     2.81551    -3.44238    -4.10787
 H     3.14313    -1.90248    -3.23211
 C     0.77142    -4.56523     0.78210
 H     0.75651    -3.95745     1.70523
 H     0.78125    -5.64653     1.01485
 H    -0.10775    -4.31925     0.16094
 C     4.87912     1.33395    -1.90944
 H     5.42567     1.09647    -2.84198
 H     5.47158     2.01450    -1.28370
 H     3.90382     1.78176    -2.15532
 C     4.10653     1.14776     2.19650
 H     4.69990     2.07394     2.26941
 H     4.20792     0.52939     3.10643
 H     3.04334     1.39749     2.04561
 O    -0.66801     1.74025    -4.82286
 P    -2.26609     0.21131    -3.41727
 O     4.05223    -2.62942     1.43077
 C    -4.41693    -0.24689    -1.94403
 H    -4.70427    -1.28422    -2.15697
 H    -5.30290     0.41088    -1.87206
 H    -3.84241    -0.20010    -0.99881
 O    -1.97327    -1.03327    -4.35084
 C    -1.68905    -2.31948    -3.72861
 H    -0.59377    -2.43369    -3.69155
 H    -2.13911    -2.99244    -4.47726
 H    -2.10939    -2.54683    -2.73301
 C    -1.68020     1.83171    -4.18191
 O    -3.80670     0.37873    -3.10442
 H     0.63889     0.74179    -5.12936
 P    -0.35311     4.14643    -0.00679
 O    -0.20568     4.55087     1.56097
 C     0.66443     3.94846     2.52002
 H     0.29193     4.43307     3.44036
 H     1.71416     4.21499     2.35321
 H     0.55407     2.85886     2.61149
 O     0.97811     4.61287    -0.82676
 C     2.23035     3.92970    -0.86247
 H     2.93794     4.76994    -0.96204
 H     2.24717     3.29757    -1.76358
 H     2.49511     3.32415     0.01176
 C    -2.35389     3.11264    -3.84920
 H    -2.12678     3.41682    -2.79276
 H    -3.45469     3.09878    -3.92284
 H    -1.97273     3.93822    -4.47743
 O     2.63002    -3.73023    -2.19780
