  142
 
Eu     0.00000     0.00000     0.00000
 O     2.34460     0.00000     0.00000
 O    -1.45478     1.84582     0.00000
 O     0.61620     1.43418    -1.81103
 O     0.70266     1.29249     1.94399
 O    -1.31785    -1.67207    -1.23648
 O    -0.87599    -3.76102    -1.45231
 N     0.62875    -1.59093     1.92424
Eu     1.41714     4.50680    -0.15331
 O     1.44157     3.32768     1.69600
 N    -2.08690    -0.80627     2.20245
 N    -1.59256    -2.82605    -1.76645
 O    -0.97447     3.95827    -0.33850
 O     3.44208     1.88995    -0.34547
 O    -2.54065    -2.87994    -2.52604
 O    -3.26431     1.31769    -1.92996
 O     1.02413     3.22889    -2.98151
 N     2.36533     7.02650    -2.10540
 O    -6.02321     1.64883    -2.29864
 O    -0.67272     2.77423     4.40407
 O     2.57085     0.12347    -7.00243
 O     1.84874     6.59535     0.99035
 O     2.90420     1.53623    -4.77993
 O     3.83899     6.63955     1.79117
 C    -3.35513    -0.42567     2.31187
 C    -4.12422    -0.67167     3.47624
 C    -3.52637    -1.32005     4.53201
 C    -2.17337    -1.72692     4.43219
 C    -1.51800    -2.39824     5.51319
 C    -0.22665    -2.79043     5.38452
 C     0.50884    -2.53884     4.17845
 C     1.85541    -2.96403     4.08716
 C     2.55102    -2.71857     2.93018
 C     1.89874    -2.03945     1.88002
 C    -0.07970    -1.86471     3.08672
 C    -1.47732    -1.45959     3.23380
 C    -1.80472     3.00294    -0.34169
 C    -3.20957     3.27376    -0.69617
 C    -3.78218     4.46816    -0.23941
 C    -5.12434     4.72435    -0.45686
 C    -5.91461     3.79179    -1.14198
 C    -5.34934     2.62361    -1.62400
 C    -3.96758     2.35408    -1.42643
 C    -7.41995     1.81649    -2.48534
 C    -3.98218     0.17558    -2.38806
 C     0.78981     2.01951    -2.93040
 C     0.62831     1.17023    -4.14095
 C     1.66931     1.00350    -5.04305
 C     1.48621     0.18397    -6.18060
 C     0.27453    -0.46860    -6.38136
 C    -0.76172    -0.29384    -5.45991
 C    -0.59220     0.52093    -4.34824
 C     3.06150     2.82967    -5.36515
 C     2.37362    -0.51201    -8.25862
 H    -3.78165     0.10171     1.44348
 H    -5.16041    -0.34440     3.51761
 H    -4.07751    -1.52921     5.45019
 H    -2.08113    -2.57867     6.42941
 H     0.28923    -3.30527     6.19747
 H     2.31774    -3.47655     4.93196
 H     3.59018    -3.02045     2.80705
 H     2.48234    -1.81061     0.95942
 H    -3.15258     5.18850     0.28836
 H    -5.57338     5.64871    -0.10060
 H    -6.96993     4.00598    -1.29239
 H    -7.94613     1.85108    -1.52736
 H    -7.63642     2.70020    -3.09276
 H    -7.68066     0.90091    -3.03570
 H    -4.48593     0.39067    -3.33317
 H    -3.16247    -0.55944    -2.53085
 H    -4.67862    -0.19703    -1.63434
 H     0.12534    -1.12580    -7.23220
 H    -1.70928    -0.81164    -5.61042
 H    -1.40698     0.66028    -3.63504
 H     2.31694     3.52506    -4.95458
 H     4.06944     3.11251    -5.04277
 H     2.99528     2.76816    -6.45445
 H     1.55277    -0.05366    -8.81737
 H     3.33137    -0.32294    -8.76161
 H     2.21885    -1.58752    -8.12845
 C     3.41520     0.69867    -0.05266
 C     1.20059     2.31270     2.44098
 C     1.56772     2.35477     3.86920
 C     0.57792     2.45387     4.84184
 O     5.14776     1.63768     1.80190
 C    -1.70578     1.89074     4.82394
 H    -1.52306     0.88580     4.43415
 H    -2.58893     2.33788     4.34720
 H    -1.81936     1.87836     5.91170
 C     0.94127     2.38341     6.20627
 O    -0.11367     2.43030     7.06675
 C     0.19514     2.54341     8.44931
 H     0.77377     1.68582     8.80261
 H    -0.80393     2.54453     8.90548
 H     0.70953     3.48815     8.65406
 C     2.27858     2.26376     6.56491
 C     3.26114     2.20208     5.57209
 C     2.91161     2.23746     4.22957
 H     3.67457     2.16493     3.45064
 H     4.30982     2.12398     5.85652
 H     2.57595     2.23762     7.60908
 N     2.76974     7.22135     1.68624
 C     4.83507     3.68823    -2.29093
 C     5.92943     3.60327    -3.18695
 C     6.19022     4.67253    -4.01023
 C     5.36607     5.82172    -3.94298
 C     5.63107     6.96891    -4.76036
 C     4.87449     8.08894    -4.64925
 C     3.77576     8.14101    -3.72985
 C     3.00733     9.31851    -3.57932
 C     1.96379     9.33730    -2.68188
 C     1.66940     8.15461    -1.96585
 C     3.44517     7.01370    -2.94387
 C     4.29108     5.82669    -3.02792
 H     0.84445     8.13624    -1.23728
 H     1.36910    10.23297    -2.51664
 H     3.25596    10.19923    -4.17392
 H     5.07588     8.97177    -5.25757
 H     6.45738     6.91085    -5.47085
 H     7.01892     4.65105    -4.71924
 H     6.52747     2.69405    -3.21455
 H     4.59946     2.83765    -1.61884
 O     2.49024     8.30381     2.14082
 C     4.66599    -0.04179     0.28173
 C     4.92391    -1.27205    -0.32460
 C     6.10201    -1.94862    -0.04102
 C     7.03047    -1.40898     0.85546
 C     6.77100    -0.19169     1.47045
 O     7.59177     0.43946     2.35926
 C     8.82827    -0.19462     2.65260
 H     9.46440    -0.24166     1.76356
 H     8.67411    -1.18653     3.08696
 H     9.26084     0.48544     3.39963
 C     5.57177     0.50491     1.18864
 N     4.04803     4.75955    -2.20764
 C     6.14532     2.58011     2.18126
 H     6.58995     2.27934     3.13607
 H     5.55764     3.50451     2.29482
 H     6.90965     2.70740     1.41148
 H     7.94710    -1.95381     1.05975
 H     6.31117    -2.90408    -0.51769
 H     4.19699    -1.68109    -1.03002
