   68
 
Eu     0.00000     0.00000     0.00000
 O     2.37610     0.00000     0.00000
 O    -1.72694    -1.65394     0.00000
 O     1.18984    -0.46153    -2.06707
 O    -2.04298     0.99198     0.92201
 O     0.85175    -0.57787     2.23002
 O    -0.25906     2.39221    -0.55289
 O     3.38199    -1.05709     2.96927
Eu    24.90001    -1.79313   -77.59278
 O    -2.35094     3.64060     0.55260
 O    -3.86678    -4.78273    -0.75458
 N     2.50299    -0.52908    -2.14689
 N    -2.86445    -2.31284     0.09141
 O    22.33164    -3.07828   -76.14175
 O    25.55359    -0.51525   -80.46979
 O    -3.98851    -0.59874     1.16370
 N     4.83776     0.24605     0.64066
 O    26.07699    -1.71444   -76.69090
 O    40.06857    -2.64504  -125.90994
 O    23.92868    -4.00002   -79.63761
 C     3.13113    -0.28153    -1.01175
 C     4.62225    -0.32937    -0.76522
 C     5.41903     0.47383    -1.77149
 H     5.09030     1.52098    -1.87180
 H     5.36503     0.04205    -2.79074
 H     6.50556     0.49618    -1.55190
 H     2.79732    -0.76850    -3.07966
 H     4.97152    -1.40863    -0.75082
 H     4.30517    -0.30366     1.34924
 H     4.46436     1.21174     0.67908
 H     5.84848     0.26559     0.86813
 H    -3.06328     3.99700    -0.00208
 H    -2.22198     4.29267     1.25969
 H    -1.02703     2.94345    -0.17171
 H     0.15761     2.99942    -1.19422
 H    -3.52666    -5.59878    -0.36325
 H    -4.11899    -5.03765    -1.65270
 C    -3.93903    -1.71984     0.59041
 O    22.46572     0.01004   -78.31683
 H    -2.80966    -3.17384    -0.44081
 C    -5.27269    -2.49112     0.58261
 N    -6.11371    -1.89271     1.71862
 H    -5.92158    -2.37264     2.61221
 H    -5.84900    -0.88368     1.83210
 H    -7.12622    -1.95905     1.50297
 C    -5.98719    -2.27496    -0.73665
 H    -6.14449    -1.21234    -0.98205
 H    -5.40401    -2.69071    -1.58012
 H    -6.96619    -2.78615    -0.79102
 H    -5.11931    -3.59262     0.78215
 H    24.41798    -4.80367   -79.90110
 H    23.10420    -4.07229   -80.15275
 H    21.68199    -3.73127   -76.45643
 H    22.09755    -2.97405   -75.20089
 H    25.18337    -0.69713   -81.35114
 H    26.27074     0.11774   -80.66007
 H     3.56623    -0.66207     3.84259
 H     3.50113    -2.01300     3.11396
 H     1.82250    -0.73207     2.45737
 H     0.37975    -0.72325     3.07331
 H    -2.88721     0.32811     1.05078
 H    -2.40279     1.88595     0.99363
 H    40.36898    -3.43539  -125.30681
 H    26.91334    -1.65859   -76.04994
 H    22.43329     0.77192   -78.92664
 H    21.56315    -0.00923   -77.94550
 H    40.90627    -2.48291  -126.50278
 H    39.41216    -3.10381  -126.57112
