   40
 
Eu     0.00000     0.00000     0.00000
 O     2.33230     0.00000     0.00000
 O    -0.13518     2.37976     0.00000
 O    -2.30678    -0.41886     0.43870
 O    -0.40096     0.60456    -2.27427
 O     0.18620    -0.35527     2.35841
 O     0.11991    -2.34349    -0.61020
 O    -2.38437     2.01015     0.92530
 O     2.07351     0.42854    -2.49483
 O     0.62086    -2.69858     1.78471
 O     0.18580    -4.53069    -1.09461
 O    -0.31926     4.61052     0.00818
 O     0.36030    -0.68758     4.56376
 O    -0.69163     1.20214    -4.41348
 O    -4.48479    -0.72534     0.86383
 O     4.54431     0.36846    -0.10514
 C     0.24806    -3.56654    -0.34058
 C     0.51246    -3.94766     1.16312
 C     0.53596    -2.59889     3.17910
 C     0.33754    -1.05534     3.39551
 C    -0.74106     3.47251     0.16828
 C    -2.22755     3.37940     0.66628
 C    -3.67484     1.47956     1.05538
 C    -3.47083    -0.04837     0.75015
 C     3.40909     0.36580    -0.55919
 C     3.33955     0.83671    -2.05471
 C     1.53339     1.02826    -3.64508
 C    -0.01768     0.94356    -3.42417
 H     1.47378    -4.47035     1.25064
 H    -0.29574    -4.57440     1.54477
 H     1.46645    -2.92601     3.65449
 H    -0.31556    -3.15298     3.58624
 H    -2.34634     3.96185     1.58646
 H    -2.91345     3.74236    -0.10515
 H    -4.38165     1.91106     0.33918
 H    -4.04126     1.61565     2.07809
 H     3.49804     1.91546    -2.13993
 H     4.11208     0.29689    -2.62019
 H     1.80780     0.42326    -4.51860
 H     1.84618     2.06511    -3.78890
