   66
 
Eu     0.00000     0.00000     0.00000
 O     2.37100     0.00000     0.00000
 O     0.44978     2.33457     0.00000
 O    -2.03336     1.10383    -0.56313
 O     0.36463    -2.10920     1.13843
 O    -1.04977     0.20524     2.18859
 O    -0.13025     0.34092    -2.44291
 O    -2.14609    -1.68411    -0.46598
 O     0.32359    -1.76779    -2.73925
Eu     3.14794     0.64147     2.82524
 O     0.95837     0.62552     2.88413
 O    -1.42923    -3.73792    -0.04914
 O     2.19720     3.10819     1.05186
 O     2.15862    -2.19864     2.41891
 O     4.52893     0.00009     0.00005
 O     2.84679     1.96787     5.15324
 O     3.44042     0.10018     6.05062
 O     5.28295    -0.70917     3.52468
 C    -0.31125     0.51796     3.14409
 C    -0.76855     0.77197     4.52292
 C     1.21762    -2.76343     1.85175
 C     1.02468    -4.24219     1.99237
 C     0.04973    -0.66354    -3.22018
 C    -0.04239    -0.43923    -4.69927
 O     4.90260     2.61477     2.58744
 C    -2.34424    -2.89057    -0.51851
 C    -3.55594    -3.55004    -1.05752
 H    -0.40820    -0.01750     5.20862
 H    -1.86799     0.79365     4.58780
 H    -0.37131     1.72527     4.91863
 H    -0.01310    -4.56377     1.84253
 H     1.64891    -4.77451     1.25615
 H     1.34671    -4.57878     2.98961
 H     0.90567    -0.72905    -5.17327
 H    -0.84412    -0.98693    -5.19458
 H    -0.19841     0.63695    -4.88384
 H    -4.41290    -2.87389    -1.16933
 H    -3.32980    -3.97066    -2.05896
 H    -3.85413    -4.40595    -0.42671
 H    -0.74649    -3.27463     0.55996
 H    -2.19081     1.62909    -1.36521
 H    -2.88053     0.94108    -0.12753
 C     3.49507    -0.13553    -0.64707
 C     3.41447    -0.47033    -2.08982
 H     3.01900     0.38212    -2.66798
 H     4.40006    -0.73020    -2.49870
 H     2.72515    -1.31627    -2.27855
 C     1.16200     3.30508     0.36301
 C     0.75601     4.69007    -0.01627
 H     1.60362     5.38564    -0.05042
 H     0.02448     5.08262     0.70714
 H     0.26470     4.68968    -1.00409
 C     3.11134     1.29051     6.19618
 C     5.00161     3.83050     2.35931
 O     3.96847     4.58725     2.11203
 H     3.14264     4.07537     1.60947
 C     6.28942     4.55908     2.49873
 H     7.16946     3.90491     2.53934
 H     6.26932     5.15426     3.43339
 H     6.42265     5.28395     1.67653
 H     5.39481    -1.28883     4.30028
 H     6.16603    -0.59199     3.13868
 C     2.96932     1.92605     7.54298
 H     1.94607     2.31177     7.65820
 H     3.65426     2.75319     7.73577
 H     3.13413     1.15789     8.31657
