   55
 
Eu     0.00000     0.00000     0.00000
 O     2.36472     0.00000     0.00000
 O    -0.46762     2.33106     0.00000
 O     0.35928    -2.14189    -1.00317
 O    -2.30193    -0.66416     0.24135
 O    -1.33443     1.09087    -1.68345
 O     0.83461    -0.46258     2.21445
 O     2.51222    -3.41837    -1.05217
 O    -1.26090     1.63161    -4.31128
 S    -3.75216    -0.79349    -0.23333
 O     4.15720    -1.64979     0.03230
 C    -4.80419    -0.35087     1.04135
 S     3.71662    -0.39838     0.65163
 O    -3.80791     0.41788    -1.27943
 C    -4.83549     0.96836     1.50772
 H    -4.20847     1.74178     1.05330
 C    -5.68354     1.32035     2.54943
 H    -5.70722     2.34982     2.90711
 C    -6.51532     0.35978     3.14069
 O     3.33082    -0.47067     2.11931
 C    -6.48918    -0.95596     2.66612
 H    -7.13932    -1.70954     3.11351
 O    -4.06591    -2.06204    -0.81180
 C    -5.64286    -1.30852     1.62111
 H    -5.65098    -2.34569     1.25833
 C    -7.42183     0.74970     4.25069
 H    -7.95287    -0.10300     4.70041
 H    -8.19676     1.45702     3.90677
 H    -6.87945     1.25152     5.06873
 C     4.87461     0.84330     0.42920
 C     5.69383     0.84706    -0.70506
 H     5.62118     0.04933    -1.45356
 C     6.62595     1.86039    -0.89009
 H     7.26360     1.85775    -1.77456
 C     6.75756     2.88154     0.05972
 C     5.94657     2.86867     1.19966
 H     6.04972     3.65229     1.95064
 C     5.01350     1.85472     1.38464
 H     4.40165     1.85578     2.29516
 C     7.76476     3.95506    -0.14361
 H     7.70204     4.75902     0.60445
 H     7.66437     4.43218    -1.13186
 H     8.79205     3.55376    -0.09013
 H    -1.38388     2.53401    -4.61228
 H    -1.87656     1.10148    -4.82351
 H     2.86464    -3.48460    -1.94672
 H     3.18728    -2.83145    -0.57030
 H     1.99996    -0.49824     2.32104
 H     0.54241    -0.70287     3.08168
 H    -1.30537     1.29832    -2.60996
 H    -1.08626     2.26907    -0.95067
 H    -0.41400     3.22478     0.29272
 H    -0.27800    -2.79915    -1.29387
 H    -2.85431     0.79328    -1.55217
 H     1.31537    -2.68929    -1.03950
