   17
 
Fe     0.00000     0.00000     0.00000
Br     2.42368     0.00000     0.00000
 O    -0.64348     1.95334     0.00000
 O    -0.65510    -0.53166    -1.92604
 O     0.39824    -2.06398    -0.20431
 O     0.39714     0.72846     1.94387
 O    -2.11147    -0.20032     0.23111
 H    -2.52876    -0.51692    -0.61055
 H    -2.54743     0.67686     0.37428
 H    -0.13726    -0.02470    -2.59985
 H    -0.41732    -1.48060    -2.11839
 H    -0.08317     0.20410     2.62395
 H     1.35712     0.70824     2.22692
 H    -0.12608     2.47310    -0.66874
 H    -0.41639     2.40060     0.86517
 H    -0.08678    -2.59065     0.47028
 H     1.35604    -2.33843    -0.11409
