   23
 
Ga     0.00000     0.00000     0.00000
 C     1.95733     0.00000     0.00000
 C    -1.34747     1.42961     0.00000
 O    -0.61118    -1.41073     1.31716
 C    -1.06741    -2.48861    -0.69321
 C    -1.52041    -3.50511    -1.52979
 C    -2.04425    -4.73986    -1.18511
 C    -2.25975    -5.29460     0.06653
 C    -2.00728    -4.74096     1.31827
 C    -1.48433    -3.50869     1.65068
 C    -1.05926    -2.48083     0.80206
 H     2.33346    -0.46954     0.90965
 H     2.34571     1.01564    -0.05375
 H     2.33225    -0.56248    -0.85590
 H    -2.31423     1.03986     0.31822
 H    -1.05581     2.22916     0.67888
 H    -1.45653     1.83992    -1.00351
 H    -1.43984    -3.27834    -2.60469
 H    -2.33285    -5.37882    -2.04165
 H    -2.68812    -6.30587     0.07377
 H    -2.26788    -5.38842     2.17758
 H    -1.37682    -3.27861     2.72264
 O    -0.60569    -1.42396    -1.22125
