   19
 
Ga     0.00000     0.00000     0.00000
 O     1.96817     0.00000     0.00000
 O     0.25583     1.96702     0.00000
 O     1.83788     3.51442    -0.00281
 O    -0.13102    -0.08116     1.97668
 O    -1.58354    -0.02350     3.64332
 O    -1.96888     0.19088     0.15685
 O    -3.61083     0.27340     1.63716
 O    -0.09687    -1.97326    -0.17898
 O    -0.23161    -3.59645    -1.67541
 O    -0.08374    -0.09914    -1.98031
 O    -0.21941    -1.52900    -3.66260
 C     2.50864     1.16650    -0.00178
 C     1.48341     2.34295    -0.00248
 C    -1.32181     0.01035     2.44810
 C    -2.42346     0.17357     1.35692
 C    -0.16536    -2.40931    -1.38448
 C    -0.15918    -1.28533    -2.46450
 O     3.71788     1.35280    -0.00340
