   28
 
Ga     0.00000     0.00000     0.00000
Ga     3.28845     0.00000     0.00000
 I    -0.86147     2.36834     0.00000
 S     1.64417    -0.30707    -1.67010
 C     0.38879     1.00483    -3.73654
 C     2.89938     1.01359    -3.73383
 S     1.64426    -0.31088     1.67023
 C     1.64522     1.12455     2.88903
 I     4.15221     2.36750     0.00422
 I     5.01152    -1.81301    -0.00532
 C     2.89599     1.00791     3.73951
 C     0.38821     1.01871     3.73161
 H     1.63943     2.08723    -2.32461
 H     0.39855     1.75031    -4.54926
 H    -0.54003     1.18344    -3.18093
 H     0.29299     0.02601    -4.23078
 H     2.89657     1.77878    -4.52831
 H     3.82583     1.18000    -3.17011
 H     2.99422     0.04514    -4.24682
 H     1.65103     2.08386     2.31801
 H     3.83067     1.11023     3.17437
 H     2.91844     1.80884     4.49751
 H     2.95216     0.06017     4.29573
 H    -0.54217     1.12966     3.16135
 H     0.36864     1.81908     4.49031
 H     0.32027     0.07113     4.28687
 C     1.64264     1.12558    -2.89162
 I    -1.72530    -1.81083    -0.00042
