   19
 
Ga     0.00000     0.00000     0.00000
 O     1.98336     0.00000     0.00000
 O     0.28224     1.96330     0.00000
 O     1.86239     3.51140    -0.00290
 O    -0.13257    -0.07630     1.97655
 O    -1.58659    -0.01417     3.64196
 O    -1.96796     0.19172     0.15485
 O    -3.61160     0.28004     1.63272
 O    -0.08925    -1.97374    -0.17041
 O    -0.21972    -3.60280    -1.66091
 O    -0.08529    -0.10584    -1.97856
 O    -0.22034    -1.54195    -3.65544
 C     2.53054     1.16133    -0.00220
 C     1.50967     2.33940    -0.00254
 C    -1.32356     0.01713     2.44705
 C    -2.42405     0.17788     1.35465
 C    -0.15747    -2.41450    -1.37428
 C    -0.15750    -1.29421    -2.45844
 O     3.74099     1.34354    -0.00463
