   63
 
Gd     0.00000     0.00000     0.00000
 O     2.35630     0.00000     0.00000
 O    -0.26908     2.35357     0.00000
 O     0.52147    -2.31552    -0.25248
 O    -1.11671    -1.42380     1.57206
 O     0.37102     0.27477    -2.38737
 O    -2.45400     0.00007    -0.00011
 N     1.39069     0.68764     2.86981
 N    -1.66325     1.56246     2.25135
 N     1.45339    -2.25400     2.41275
 N    -1.86017    -3.55763     2.08837
 N    -4.42138    -0.63360     0.98620
 O     4.39707     0.35330     0.85308
 O    -1.14631     4.42101     0.11923
 O     1.29055    -4.41439    -0.30818
 C    -0.92930    -2.54982     2.09124
 C     0.30879    -3.00643     2.92822
 C     2.31312    -1.65998     3.45574
 C     1.64251    -0.34674     3.96495
 C     0.61943     1.81133     3.57938
 C    -0.97223     1.64267     3.59004
 C    -2.94461     0.77860     2.34464
 C    -3.21058    -0.00208     0.99456
 C    -5.04399    -1.43996    -0.07806
 C    -5.16667    -2.92067     0.32582
 C    -3.83353    -3.62695     0.55413
 C    -3.31836    -3.39607     1.98159
 C     2.17477    -3.10375     1.43372
 C     1.25681    -3.29260     0.15787
 C     2.71998     1.10923     2.33114
 C     3.18823     0.37747     0.91994
 C    -1.98282     2.90689     1.69814
 C    -1.03893     3.26907     0.47589
 H     1.16369     0.63342    -2.89855
 H    -0.03599    -0.25899    -3.12534
 H    -5.02861    -0.53490     1.79810
 H    -1.60138    -4.49679     2.38841
 H     0.11672    -2.85326     4.01211
 H     0.42693    -4.11955     2.81034
 H     3.32283    -1.41156     3.03741
 H     2.51127    -2.33783     4.31151
 H     0.68210    -0.59825     4.46370
 H     2.28916     0.08241     4.76587
 H     0.92972     2.80581     3.19809
 H     0.87013     1.84124     4.66824
 H    -1.14778     0.69358     4.15761
 H    -1.39524     2.44209     4.23422
 H    -3.83814     1.43089     2.52437
 H    -2.94503     0.06349     3.19990
 H    -4.49788    -1.32377    -1.04049
 H    -6.07176    -1.03138    -0.25840
 H    -5.83816    -3.02547     1.19895
 H    -5.68741    -3.45103    -0.50775
 H    -3.90757    -4.70569     0.31811
 H    -3.08245    -3.26040    -0.17369
 H    -3.61113    -2.39207     2.35659
 H    -3.79911    -4.12279     2.68092
 H     2.41769    -4.12225     1.81713
 H     3.16378    -2.68391     1.14302
 H     3.56337     0.94957     3.03648
 H     2.76962     2.20110     2.11273
 H    -1.97863     3.72015     2.45215
 H    -3.00890     2.97118     1.25601
