   14
 
Cl     0.00000     0.00000     0.00000
Cl     3.35730     0.00000     0.00000
Ge     1.67359     1.31720     0.00000
 C     1.61222     2.33786    -1.71440
 C     1.72117     3.65813     1.54053
Ge     1.72082     4.61471    -0.08282
Cl     3.45106     5.87074    -0.12614
Cl     0.10300     6.01377    -0.03478
 H     1.56145     1.68975    -2.57593
 H     1.69569     1.73770     2.47706
 H     1.60392     4.29012    -2.57904
 H     1.73844     4.29690     2.42173
 C     1.69826     2.33741     1.56763
 C     1.63355     3.65385    -1.69674
