   22
 
Ge     0.00000     0.00000     0.00000
Br     2.43627     0.00000     0.00000
 S    -0.09633     2.22670     0.00000
 C    -0.31143    -0.92998    -1.64647
 C    -0.31906    -0.93166     1.64550
 C    -1.87435     2.33459     0.01294
 C    -1.71163     4.77940     0.01850
 C    -3.93031     3.63299     0.03724
 H    -1.38004    -1.09797    -1.80066
 H     0.20311    -1.89394    -1.61092
 H     0.07586    -0.34432    -2.48275
 H    -0.07028    -0.28870     2.49181
 H    -1.36739    -1.23071     1.72019
 H    -2.38351     5.65432     0.01858
 H    -1.07155     4.85896    -0.88351
 H    -1.06650     4.86173     0.91656
 H    -4.25814     4.68427     0.03362
 H    -4.35435     3.14512     0.93919
 H    -4.37393     3.13541    -0.85008
 H     0.31025    -1.82525     1.67635
 S    -2.67989     0.84736     0.01646
 N    -2.46709     3.52293     0.02187
