   29
 
Ge     0.00000     0.00000     0.00000
 I     2.52681     0.00000     0.00000
 I    -0.74532     2.21254     0.00000
 C    -0.58498    -0.99721     1.66474
 C     0.11090    -0.27658     2.78923
 C    -2.08137    -1.05199     1.71179
 H    -2.55237    -0.06107     1.76614
 H    -2.40545    -1.59462     2.61885
 H    -2.52421    -1.58961     0.86230
 C    -0.25374    -3.44677     0.73660
 H    -0.18863    -4.39459     1.29768
 H     0.41115    -3.56648    -0.13440
 H    -1.28576    -3.37443     0.36933
 C     2.19527    -3.35282     2.65622
 H     3.09750    -2.98756     3.16784
 H     2.52400    -3.78854     1.69913
 H     1.78512    -4.17506     3.26341
 C     2.17138    -0.67762     4.23206
 H     1.94704     0.27232     4.73765
 H     3.17467    -0.57336     3.78439
 H     2.23935    -1.45512     5.00780
 C    -0.34401     0.99994     3.36850
 H    -0.35340     0.95222     4.47069
 H    -1.36357     1.27551     3.06816
 H     0.32529     1.83474     3.10440
 I    -0.71152    -1.08456    -1.94879
 C     0.14695    -2.30903     1.58280
 C     1.19394    -2.28961     2.45387
 C     1.17183    -1.02221     3.20479
