   26
 
 C     0.00000     0.00000     0.00000
Si     1.87872     0.00000     0.00000
Si     2.67332     2.09316     0.00000
 C     4.55203     2.09317     0.00691
 C     2.49034    -0.94537    -1.50393
 C     2.48118    -0.94189     1.50979
 C     2.08500     3.02969     1.51868
 C     2.09054     3.02759    -1.52211
 H    -0.40824    -1.02641    -0.00010
 H    -0.40824     0.51400    -0.88844
 H    -0.40824     0.51371     0.88861
 H     2.17893    -0.45965    -2.44588
 H     2.09843    -1.97793    -1.52422
 H     3.59266    -1.01431    -1.52228
 H     2.16408    -0.45399     2.44871
 H     3.58336    -1.01080     1.53500
 H     2.08909    -1.97438     1.53013
 H     4.96027     3.11958     0.00697
 H     4.96354     1.57861    -0.87970
 H     4.95700     1.58077     0.89777
 H     2.39716     2.52976     2.45293
 H     0.98383     3.11250     1.54606
 H     2.49027     4.05688     1.54726
 H     2.40603     2.52633    -2.45452
 H     2.49595     4.05472    -1.55066
 H     0.98948     3.11042    -1.55357
