   19
 
Hf     0.00000     0.00000     0.00000
 O     2.13585     0.00000     0.00000
 O     0.21396     2.02233     0.00000
 O     0.27633     0.09612    -2.01184
 O    -1.36272    -1.30808    -0.73280
 O     0.56265    -1.32988     1.40821
 O    -1.50178     0.63865     1.20773
 H     2.78875     0.78623     0.17527
 H     2.78937    -0.78561    -0.17033
 H    -1.69362     0.39665     2.21988
 H    -2.27741     1.32810     1.01227
 H     1.16801    -0.03403    -2.56100
 H    -0.41245     0.30656    -2.78207
 H     0.30842    -2.35464     1.51398
 H     1.23038    -1.19839     2.22177
 H     0.16514     2.70161    -0.80550
 H     0.41075     2.67385     0.80578
 H    -1.22136    -2.12282    -1.39196
 H    -2.40471    -1.36764    -0.55744
