   61
 
Hf     0.00000     0.00000     0.00000
 N     2.02687     0.00000     0.00000
 C     2.80118     1.25179     0.00000
 C     2.84120     1.96289    -1.36462
 C     2.79696    -1.21103    -0.32574
 N    -0.50203    -0.68054     1.89462
 C     2.94465    -1.48490    -1.83279
 C    -1.19634    -2.69613    -0.92670
 C    -0.11330    -3.77608    -1.11933
 N    -0.63205     1.93836    -0.35176
 C    -0.71654    -1.15216    -2.80241
 C    -2.12723    -0.91826    -3.37945
 C     0.50803    -0.75894     2.95505
 N    -0.75087    -1.36695    -1.35441
 C     0.83382     0.58576     3.63438
 C    -1.89998    -0.68520     2.34154
 C    -2.51407     0.70381     2.60064
 C    -1.46753     2.28338    -1.50479
 C    -2.97487     2.09981    -1.23810
 C    -0.62136     2.93871     0.72348
 C     0.29277     4.12848     0.36979
 H     3.84291     1.04153     0.33648
 H     2.37510     1.94716     0.76394
 H     3.51060     2.82648    -1.33599
 H     1.84611     2.32422    -1.65665
 H     3.18650     1.29160    -2.15633
 H     2.31914    -2.09630     0.16050
 H     3.81006    -1.13184     0.13443
 H     3.60096    -2.34075    -2.01142
 H     3.36541    -0.62110    -2.35647
 H     1.97526    -1.70778    -2.29407
 H    -2.11303    -2.98363    -1.49170
 H    -1.49788    -2.67456     0.14882
 H    -0.47016    -4.75092    -0.77757
 H     0.79099    -3.53217    -0.55089
 H     0.17657    -3.86912    -2.16957
 H    -0.06985    -0.28017    -3.05864
 H    -0.25321    -2.02975    -3.31141
 H    -2.08075    -0.67642    -4.44385
 H    -2.63207    -0.09459    -2.86202
 H    -2.75674    -1.80506    -3.26011
 H     0.16747    -1.48557     3.72962
 H     1.44856    -1.18909     2.53143
 H     1.52046     0.43952     4.47283
 H    -0.07058     1.06560     4.01922
 H     1.31129     1.28249     2.93776
 H    -2.52092    -1.21711     1.58016
 H    -1.98122    -1.29550     3.27189
 H    -3.47663     0.61395     3.11182
 H    -2.68859     1.24870     1.66591
 H    -1.85806     1.32036     3.22217
 H    -1.16844     1.66748    -2.38589
 H    -1.27162     3.34095    -1.80007
 H    -3.56283     2.37284    -2.11852
 H    -3.30991     2.72296    -0.40349
 H    -3.21430     1.06114    -0.98358
 H    -1.65169     3.31163     0.92640
 H    -0.26775     2.48933     1.68261
 H     0.37203     4.82416     1.20857
 H    -0.08725     4.67955    -0.49552
 H     1.30126     3.78356     0.11448
