   17
 
Hg     0.00000     0.00000     0.00000
 C     2.05779     0.00000     0.00000
 C     3.03906     0.95323     0.00000
 C     4.29514     0.23910     0.00110
 C     3.98521    -1.09190     0.00176
 O     2.61248    -1.26252     0.00110
 C    -1.98040     0.01429     0.00300
 C    -2.97125    -0.93119     0.04526
 O    -2.53760     1.28004    -0.05141
 C    -4.22413    -0.21433     0.01670
 C    -3.90845     1.11412    -0.04047
 H     4.52739    -2.00575     0.00262
 H    -2.88504    -1.99623     0.09080
 H    -5.19048    -0.66951     0.03763
 H    -4.44795     2.02940    -0.07869
 H     2.94552     2.01762    -0.00072
 H     5.25965     0.69854     0.00128
