   37
 
Hg     0.00000     0.00000     0.00000
 S     2.53307     0.00000     0.00000
 S     0.83310     2.39302     0.00000
 C    -5.43755    -1.78115    -1.40127
 C    -3.42261    -4.54040     1.44129
 N    -3.54510    -2.51941     0.01339
 S    -2.53555     0.00004     0.00005
 S    -0.83385    -2.39131     0.00861
 C     2.46454     1.75158    -0.00265
 N     3.54441     2.51838    -0.00597
 C     4.91679     1.96793    -0.01662
 C     3.47726     3.99550    -0.00418
 C     5.42642     1.75359     1.40851
 C     3.44124     4.53848    -1.43271
 H    -5.57702    -2.66742     0.59349
 H    -4.95182    -1.00571     0.58424
 H    -4.36041    -4.39911    -0.52841
 H    -2.58659    -4.34471    -0.56965
 H    -6.46247    -1.39049    -1.39497
 H    -4.82334    -1.06112    -1.96309
 H    -5.43941    -2.71692    -1.97078
 H    -4.30579    -4.25873     2.02446
 H    -2.54054    -4.16974     1.98516
 H    -3.35756    -5.63557     1.43844
 H     4.94985     1.01021    -0.59196
 H     5.58127     2.67077    -0.57006
 H     2.58464     4.34615     0.56996
 H     4.36067     4.39421     0.54579
 H     4.80095     1.03487     1.95933
 H     5.43872     2.68279     1.98840
 H     6.44596     1.34875     1.40150
 H     2.55311     4.18558    -1.97845
 H     3.40002     5.63474    -1.43224
 H     4.31921     4.23636    -2.01370
 C    -2.46618    -1.75115     0.00815
 C    -4.91862    -1.97205     0.02383
 C    -3.47400    -3.99652     0.01338
