   51
 
Ho     0.00000     0.00000     0.00000
 O     2.26930     0.00000     0.00000
 O    -2.33020    -0.00022     0.00000
 O    -0.54310     1.72574     1.47475
 O    -0.08627    -1.44636    -1.84826
 O     0.92616     1.59238    -1.51328
 O     0.16919    -1.72390     1.64046
 O     2.02494    -2.93412     2.85491
 O     1.84587    -3.11463    -2.00037
 S     4.99099    -2.49405     0.68028
 N    -2.78836     1.95475     1.72354
 N     3.55469    -1.87058    -0.10803
 O    -4.68407     3.74428     1.73138
 C     3.35847    -0.61615     0.23969
 C     4.46135     0.02841     1.01650
 C     4.55353     1.34189     1.42147
 H     3.76135     2.05447     1.20061
 C     5.70253     1.73511     2.12956
 H     5.79796     2.77250     2.45611
 C     6.70818     0.82044     2.40998
 H     7.59986     1.14093     2.95547
 C     6.60046    -0.52327     2.00261
 H     7.40483    -1.22660     2.24066
 C     5.47571    -0.90475     1.31009
 S    -3.99497     2.91324     2.66096
 O    -4.65361     2.00332     3.53749
 O     4.45199    -3.27744     1.78758
 O     5.92850    -3.05489    -0.23700
 C    -1.52066     2.29086     2.02593
 C    -1.42531     3.35811     3.04485
 C    -0.26104     3.89748     3.55239
 H     0.71322     3.54748     3.20818
 C    -0.36728     4.90652     4.52476
 H     0.54255     5.34653     4.93980
 C    -1.61267     5.34006     4.95602
 H    -1.68361     6.12613     5.71349
 C    -2.79678     4.78228     4.43467
 H    -3.76432     5.14478     4.79739
 C    -2.69345     3.79410     3.48343
 H     2.29226    -3.80939    -2.46603
 H    -0.54588    -2.10097     2.16610
 H     0.64702     2.34925    -2.05871
 H    -0.79024    -1.68928    -2.46839
 H    -2.95855     1.16110     1.00650
 H     1.76971    -3.83146     3.08232
 H     0.67243    -2.13964    -2.05823
 H     2.49923    -2.72691    -1.36411
 H     1.02995    -2.22217     2.07055
 H    -3.10898    -0.43904    -0.18649
 H     2.93801    -3.03700     2.45415
 H     1.91304     1.54742    -1.59493
