   43
 
In     0.00000     0.00000     0.00000
 O     2.14685     0.00000     0.00000
 O     0.16938     2.16060     0.00000
 O     0.02709    -0.25324     2.15294
 O    -0.22011     0.07792    -2.15693
 C    -2.79468     0.10008     1.38279
 C    -2.28391    -0.08257     2.67133
 C    -0.92843    -0.24943     2.96699
 C    -0.49796    -0.45050     4.39717
 C    -4.28244     0.23502     1.18426
 C    -0.41391    -0.39686    -4.41266
 C    -0.25661    -2.23146    -2.70463
 C    -0.13868    -2.77278    -1.42135
 C    -0.12118    -4.26927    -1.24404
 C    -0.28803    -0.86253    -2.98477
 C     1.23141     2.83193    -0.01802
 C     2.54394     2.34700    -0.01324
 C     2.91141     0.99858    -0.00015
 C     4.37210     0.62958     0.00766
 C     0.99505     4.32032    -0.03976
 H    -2.98696    -0.10160     3.49484
 H     0.59493    -0.55461     4.47691
 H    -0.94945    -1.35868     4.81630
 H    -0.80049     0.39889     5.02191
 H    -4.81140    -0.64583     1.56838
 H    -4.53724     0.34318     0.11888
 H    -4.66786     1.11838     1.70905
 H    -0.35999     0.70026    -4.48329
 H    -1.37587    -0.70905    -4.83915
 H     0.38568    -0.81384    -5.03667
 H    -0.32944    -2.91928    -3.53791
 H    -0.00976    -4.54701    -0.18474
 H     0.71358    -4.71919    -1.79587
 H    -1.05255    -4.71788    -1.61131
 H     3.34387     3.07916    -0.02084
 H     4.87874     1.01361    -0.88660
 H     4.51047    -0.46255     0.02833
 H     4.87660     1.04522     0.88916
 H    -0.08024     4.55615    -0.02562
 H     1.42128     4.76960    -0.94579
 H     1.45591     4.80509     0.82965
 O    -2.14070     0.15970     0.31374
 O    -0.04468    -2.14075    -0.34119
