   19
 
Ir     0.00000     0.00000     0.00000
 O     2.04241     0.00000     0.00000
 O     0.05833     2.90637     0.00000
 C     0.03580     1.75335     0.00144
 C    -1.74644    -0.08215     0.00029
 C     2.42694    -2.35564    -0.02326
 H     3.21235    -3.10357    -0.03825
 O    -2.90695    -0.14013     0.00161
 C     1.10111    -2.80422    -0.01273
 C     2.81017    -1.01221    -0.01687
 C     0.80909    -4.27807    -0.01259
 H     1.28500    -4.77717     0.84290
 H     1.18687    -4.75331    -0.92906
 H    -0.27227    -4.47989     0.04282
 C     4.26591    -0.64254    -0.02537
 H     4.41101     0.44691    -0.09636
 H     4.78927    -1.10306    -0.87465
 H     4.76161    -0.98176     0.89559
 O     0.05740    -2.08566    -0.00291
