   13
 
Ir     0.00000     0.00000     0.00000
 C     2.07880     0.00000     0.00000
 C     0.00794     1.96744     0.00000
 C    -0.00111    -1.96651    -0.00148
 C    -1.96390     0.00031     0.00021
 C     0.00322     0.00184    -1.96660
 C     0.00370    -0.00269     1.96665
 N     3.25043     0.00322     0.00014
 N    -0.00137    -3.14155    -0.00269
 N    -3.13897     0.00048     0.00032
 N     0.00298     0.00244    -3.14167
 N     0.00385    -0.00469     3.14166
 N     0.00935     3.14243     0.00013
