   28
 
Ir     0.00000     0.00000     0.00000
Cl     2.35726     0.00000     0.00000
Cl    -0.02997     2.30675     0.00000
Cl    -0.29046    -0.28262    -2.27209
 N    -0.09470    -2.04059     0.26087
 N    -2.07725    -0.13915     0.28349
 N     0.01623     0.01386     2.10095
 C    -1.46557    -2.55145    -0.17829
 C    -2.57790    -1.58608     0.29886
 C    -2.42194     0.52528     1.60730
 C    -1.38644     0.14568     2.69759
 C     0.64086    -1.28758     2.57854
 C     0.13978    -2.47373     1.71679
 H     0.61769    -2.55838    -0.31885
 H    -2.61783     0.36237    -0.46629
 H     0.59306     0.80086     2.49527
 H    -1.66343    -3.57645     0.18951
 H    -1.46501    -2.61724    -1.29815
 H    -3.45820    -1.68265    -0.37158
 H    -2.91937    -1.87174     1.31297
 H    -3.44361     0.26661     1.94776
 H    -2.41725     1.63585     1.44427
 H    -1.38422     0.93174     3.48296
 H    -1.69135    -0.79676     3.19375
 H     0.43610    -1.48051     3.64954
 H     1.75522    -1.18679     2.48687
 H     0.89581    -3.28701     1.74203
 H    -0.78859    -2.89050     2.15377
