   46
 
Ir     0.00000     0.00000     0.00000
Br     2.48933     0.00000     0.00000
 C    -0.10187     1.92461     0.00000
 N    -0.02489     0.40223    -2.02219
 C    -0.14193     2.62267    -1.23101
 N    -0.02852     0.38631     2.00150
 C     0.01280    -0.55038    -3.10730
 C     1.24775    -0.96433    -3.61760
 H     2.17693    -0.54143    -3.23035
 C    -1.18975    -1.10916     3.56762
 H    -2.14931    -0.77840     3.16287
 C     0.00804    -0.57330     3.08297
 C    -0.22261     4.00388     1.23201
 H    -0.25723     4.56274     2.16489
 C    -0.09666     1.68965    -2.35302
 H    -0.12420     2.04582    -3.38359
 C    -0.14424     2.61539     1.23569
 C    -1.18447    -1.08442    -3.59538
 H    -2.14422    -0.75539    -3.18979
 C     1.27068    -1.95899     4.59108
 H     2.22615    -2.29161     4.99446
 C     1.24236    -0.98800     3.59390
 H     2.17214    -0.56274     3.21053
 C    -0.10078     1.67131     2.34824
 H    -0.12962     2.01454     3.38260
 C    -1.13666    -2.05082    -4.59611
 H    -2.06279    -2.47590    -4.98115
 C    -1.14299    -2.07993     4.56417
 H    -2.06946    -2.50713     4.94603
 C    -0.25844     4.68436     0.00867
 H    -0.31934     5.76957     0.01194
 C     0.08952    -2.47502    -5.10672
 H     0.11971    -3.23024    -5.88963
 C     0.08269    -2.50560     5.07477
 H     0.11210    -3.26471     5.85401
 C    -0.22034     4.01134    -1.21837
 H    -0.25289     4.57585    -2.14794
 C     1.27710    -1.93158    -4.61829
 H     2.23300    -2.26353    -5.02114
 N     0.08436    -1.89955    -0.00402
 C     0.13702    -3.06525    -0.00952
 C     0.19509    -4.49404    -0.01485
 H     0.30077    -4.90060    -1.03998
 H    -0.72052    -4.94405     0.41834
 H     1.05259    -4.87456     0.57460
Br    -2.58193    -0.27901    -0.00671
