   17
 
Ir     0.00000     0.00000     0.00000
 N     2.04623     0.00000     0.00000
 N     0.27067     2.09736     0.00000
Cl    -0.07963    -2.36898    -0.01272
Cl     0.20777     0.19854     2.34573
 C     2.63501     1.38320    -0.31005
 C     1.71883     2.46331     0.30269
 H     2.44571    -0.30106     0.91483
 H     2.45554    -0.65937    -0.69576
 H     3.66091     1.47225     0.08732
 H     2.69351     1.50456    -1.41548
 H     1.85411     2.50431     1.40784
 H     1.97294     3.45912    -0.10160
 H    -0.33038     2.56736     0.70184
 H     0.01565     2.51467    -0.91408
Cl    -2.30846     0.25245     0.01659
Cl     0.21341     0.18013    -2.34551
