   13
 
Ir     0.00000     0.00000     0.00000
 C     1.96481     0.00000     0.00000
 C    -0.00006     1.96481     0.00000
 C     0.00012    -1.96480     0.00568
 C    -1.96481    -0.00013    -0.00018
 C     0.00004    -0.00750    -1.96480
 C    -0.00007     0.00745     1.96480
 N     3.13982    -0.00000    -0.00011
 N     0.00020    -3.13983     0.01029
 N    -3.13982    -0.00022    -0.00029
 N     0.00000    -0.01355    -3.13984
 N    -0.00012     0.01380     3.13976
 N    -0.00006     3.13980     0.00023
