   97
 
La     0.00000     0.00000     0.00000
 O     2.40773     0.00000     0.00000
 O     0.87187     2.25507     0.00000
 O     1.18882    -0.31831     2.10255
 O    -0.97187    -2.01338     1.29430
 O    -1.91655     1.73955    -0.00597
 O     0.81008    -1.94742    -1.56809
 O    -0.92678     1.53593    -1.91701
 O    -1.31653    -1.76337    -1.89019
 O    -2.26743    -0.35266     1.75848
 N    -1.59983     2.24433    -1.11864
 N    -1.90494    -1.51454     2.00467
 N    -0.27128    -2.39542    -2.09296
 O    -1.93769     3.37841    -1.41876
 O    -0.21098    -3.40074    -2.78246
 O    -2.38461    -2.18118     2.91165
 P     1.07565     2.81823     1.39603
 P     3.03118     0.10454    -1.38226
 P     1.95218    -1.62790     2.19789
 C     2.84436     2.95982     1.74775
 H     3.34283     3.65162     1.02169
 H     3.35517     1.96495     1.61842
 H     3.06236     3.33580     2.77260
 C     0.22852     1.93361     2.71623
 C    -1.18285     1.90210     2.73957
 H    -1.82167     2.39749     1.98326
 C    -1.84715     1.25285     3.77873
 H    -2.93780     1.18977     3.75651
 C    -1.13484     0.65534     4.81552
 H    -1.66418     0.13085     5.60981
 C     0.25405     0.72426     4.82772
 H     0.81401     0.26334     5.63826
 C     0.93971     1.35447     3.78853
 H     2.03060     1.38968     3.86643
 C     0.40537     4.51660     1.40168
 C     0.30642     5.24378     2.60287
 H     0.60094     4.82765     3.57127
 C    -0.19984     6.54021     2.58840
 H    -0.27979     7.09888     3.51855
 C    -0.61699     7.12198     1.39158
 H    -1.02143     8.13293     1.39116
 C    -0.52689     6.40482     0.20503
 H    -0.87180     6.84594    -0.72964
 C    -0.01961     5.10306     0.20018
 H     0.00203     4.56877    -0.76347
 C     3.70389    -1.50056    -1.90404
 H     2.87355    -2.26153    -2.02926
 H     4.40043    -1.92588    -1.14381
 H     4.24537    -1.44518    -2.87738
 C     4.44804     1.26697    -1.24062
 C     4.25488     2.65815    -1.22447
 H     3.26662     3.11948    -1.37087
 C     5.33313     3.51953    -1.02714
 H     5.16711     4.59588    -1.02097
 C     6.61688     3.01399    -0.84819
 H     7.45685     3.68928    -0.69607
 C     6.82141     1.63828    -0.87254
 H     7.82391     1.23566    -0.74161
 C     5.75038     0.76644    -1.06695
 H     5.97995    -0.30477    -1.06806
 C     1.91141     0.68523    -2.68260
 C     1.48919    -0.21117    -3.68937
 H     1.79174    -1.26688    -3.71829
 C     0.63591     0.21571    -4.70261
 H     0.30367    -0.49401    -5.45907
 C     0.18097     1.53174    -4.73781
 H    -0.50758     1.85251    -5.51842
 C     0.58950     2.42438    -3.75357
 H     0.20580     3.44426    -3.75023
 C     1.44170     2.01073    -2.72661
 H     1.70833     2.77627    -1.98394
 C     1.54566    -3.04885     1.17682
 H     0.47017    -3.39212     1.29895
 H     2.16220    -3.94149     1.45758
 H     1.69409    -2.89825     0.07138
 C     3.75268    -1.28754     2.01383
 C     4.61001    -2.17272     1.33975
 H     4.25815    -3.10770     0.89107
 C     5.96911    -1.88068     1.22431
 H     6.62706    -2.57628     0.70686
 C     6.49076    -0.71398     1.77475
 H     7.55162    -0.49114     1.68145
 C     5.64941     0.16543     2.44976
 H     6.05349     1.07958     2.87976
 C     4.29034    -0.11708     2.57684
 H     3.67181     0.60041     3.13084
 C     1.72673    -2.17131     3.93836
 C     0.49513    -2.74062     4.30698
 H    -0.32064    -2.93300     3.58580
 C     0.25553    -3.07633     5.63913
 H    -0.70712    -3.50889     5.91442
 C     1.22721    -2.85520     6.60980
 H     1.03143    -3.11432     7.64865
 C     2.45324    -2.30372     6.24687
 H     3.21857    -2.13793     7.00156
 C     2.70918    -1.96280     4.91982
 H     3.69170    -1.53982     4.69141
