   83
 
La     0.00000     0.00000     0.00000
 O     2.50335     0.00000     0.00000
 O     1.18803     2.20354     0.00000
 O    -1.62261     1.70973     0.96208
 O     0.73268    -2.24604    -0.94879
 O     0.91030    -1.89812     1.56087
 O    -1.21327     1.73253    -1.54746
 O    -2.13920    -1.04645     1.05386
 O    -1.93766    -1.35989    -1.07809
 O     1.10031     0.09825     2.35099
 O     0.60678     0.90157    -2.35136
 P     3.03132    -0.64257    -1.23138
 C     4.50144    -2.36424     0.15515
 C     3.85794    -3.68685     0.56737
 C     4.29035     1.65680    -1.75142
 C     3.70481     2.35642    -2.97481
 N    -2.61362    -1.52202    -0.01942
 C     1.96338    -0.61935    -3.88798
 C    -0.17248    -1.64269    -4.32790
 N     1.58865    -1.07409     2.21481
 N    -0.17001     1.90707    -2.21606
 N    -1.17483     1.50092     2.14257
 C     5.94166    -2.53642    -0.32979
 O     4.15528     0.21840    -1.96400
 C     5.81816     1.79142    -1.68685
 C     1.87160    -1.05487    -2.55896
 C     0.92988    -0.92409    -4.77674
 C    -0.23919    -2.07894    -3.00565
 N     0.76354    -1.76118    -2.13272
 O     2.64195    -1.36518     2.75329
 O     0.09224     2.96066    -2.76830
 P     0.88367     2.96778     1.23759
 O    -3.67256    -2.11089    -0.03327
 O    -0.00292     4.26424     1.08189
 O     3.74276    -2.04161    -1.06551
 O     2.18045     3.53646     1.96942
 C    -0.02448     2.13840     2.56564
 C    -1.92585     0.76488     3.01561
 C     0.06160     5.07905    -0.14390
 C     3.51129     2.98372     1.73358
 C     0.40942     2.00640     3.89177
 C    -1.50348     0.61061     4.33515
 C    -1.40979     5.13548    -0.54923
 C     0.59233     6.43163     0.33466
 C     3.85986     2.10316     2.93028
 C     4.34772     4.27060     1.70119
 C    -0.34552     1.23783     4.78096
 H     4.43760    -1.61943     0.98567
 H     4.42947    -4.17375     1.36208
 H     3.76739    -4.38030    -0.27609
 H     2.83419    -3.52106     0.95504
 H     3.82063     2.04478    -0.81069
 H     4.05866     1.91450    -3.91034
 H     3.96653     3.41881    -2.98212
 H     2.59843     2.30917    -2.97965
 H     2.82392    -0.03516    -4.23975
 H    -0.99925    -1.87539    -5.00256
 H     5.98208    -3.14339    -1.24382
 H     6.55068    -3.03452     0.43151
 H     6.41092    -1.57369    -0.56218
 H     6.11771     2.84270    -1.69251
 H     6.29324     1.29720    -2.54379
 H     6.22025     1.32234    -0.78172
 H     0.98327    -0.58156    -5.80869
 H    -1.08724    -2.67260    -2.61951
 H    -2.85324     0.30245     2.63203
 H     0.68460     4.66930    -0.97614
 H     3.62558     2.41394     0.77559
 H     1.33445     2.48410     4.24078
 H    -2.09730    -0.00965     5.01008
 H    -2.06116     5.37216     0.29963
 H    -1.74587     4.15757    -0.94487
 H    -1.57538     5.87687    -1.33542
 H     1.66219     6.38940     0.56824
 H     0.07600     6.75959     1.24638
 H     0.44340     7.19977    -0.43100
 H     3.28177     1.15847     2.92290
 H     3.66113     2.60351     3.88188
 H     4.91538     1.81558     2.91176
 H     4.08260     4.93171     2.53689
 H     4.17417     4.83405     0.77787
 H     5.41485     4.04570     1.77433
 H    -0.01337     1.11747     5.81071
