   92
 
La     0.00000     0.00000     0.00000
 O     2.46236     0.00000     0.00000
 O    -1.51213     1.98884     0.00000
 O    -1.86411    -1.44863     0.84262
 O     0.75607     2.04328    -1.25542
 O     1.22291    -0.92365     1.99919
 O    -1.00058     0.52114     2.27106
 O    -0.04724    -1.22038    -1.81075
 O    -1.22685    -0.20374    -3.36987
La     1.90791     3.38211     1.66067
 O     0.79807     1.55742     2.95193
 O    -0.28999     3.48832     1.03475
 O     3.42423     1.56677     1.19498
 O     2.37606     3.42941    -0.76581
 N     2.07361     1.69154    -5.17689
 O     1.39425     6.99479    -0.28579
 O     3.16936     4.84825     4.85439
 O     2.40626     5.09275     2.80759
 C     3.42295     0.77409     0.22172
 C     4.58151     0.72478    -0.68936
 C     5.67704     1.56953    -0.50846
 C     6.71538     1.52274    -1.43642
 C     6.61721     0.62741    -2.50784
 C     4.56314    -0.15462    -1.78550
 C    -0.28357    -0.90279    -3.05199
 C     0.70492    -1.42943    -4.02058
 C     0.51612    -1.19072    -5.39224
 C     2.50007    -2.26470    -5.90758
 C     2.76283    -2.54071    -4.56004
 C     1.83963    -2.12467    -3.60366
 C    -0.47374     1.44618     2.92091
 C    -1.29073     2.39858     3.69029
 C    -2.52613     2.80593     3.18123
 C    -3.28289     3.71985     3.90946
 C    -2.77339     4.18548     5.12918
 C    -0.84716     2.91404     4.91671
 H    -2.87870     2.41440     2.22089
 H    -4.24359     4.06728     3.54144
 H     0.11712     2.62344     5.36069
 H     3.72332    -0.84432    -1.96041
 H     1.99474    -2.34726    -2.54599
 H     5.71267     2.25903     0.34699
 H     3.19032    -2.57115    -6.70171
 H    -3.32413     4.90750     5.74639
 H    -0.35983    -0.63756    -5.76255
 H    -2.36753    -2.20733     0.54980
 H     7.40233     0.55010    -3.27092
 H     1.20548    -0.16093     2.63280
 H     7.58526     2.16390    -1.32664
 H     3.67236    -3.05820    -4.26956
 H    -2.18050    -1.19726     1.72835
 H     2.17051    -1.06549     1.82966
 N     5.56475    -0.19892    -2.67865
 O     5.47645     4.62268     0.54153
 N     1.39162    -1.61809    -6.31853
 C    -1.02481     3.12964     0.05613
 C    -1.31688     4.14417    -0.97561
 C    -1.68984     3.74937    -2.26134
 C    -1.84344     4.72822    -3.24192
 C    -1.60752     6.06439    -2.89864
 H    -1.69352     6.87329    -3.63527
 N    -1.26061     6.44704    -1.65208
 C    -1.13555     5.50667    -0.69822
 H    -0.87756     5.86356     0.31014
 H    -2.13259     4.45563    -4.25459
 H    -1.85183     2.68865    -2.49424
 H     5.73738     5.40137     1.03281
 H     5.49266     4.88122    -0.37778
 H     1.69436     6.68151    -1.13649
 H     0.57418     7.46195    -0.47311
 C     2.75424     5.56518     3.97283
 C     2.58435     7.02981     4.08983
 C     2.78905     7.63634     5.33913
 H     3.07510     7.04589     6.22330
 N     2.64540     8.95993     5.52219
 C     2.29394     9.72222     4.46656
 C     2.07170     9.19385     3.18959
 C     2.22020     7.82073     3.00033
 H     2.05250     7.37234     2.01227
 H     1.78821     9.83885     2.36415
 H     2.19037    10.79446     4.67324
 C     1.77924     2.68592    -1.58315
 C     2.30653     2.56495    -2.95390
 C     3.56822     3.07699    -3.26304
 C     4.07803     2.87906    -4.54112
 C     3.29929     2.16861    -5.46542
 H     3.65352     1.96462    -6.48526
 N    -1.58579     3.78634     5.62434
 C     1.57364     1.89438    -3.94496
 H     0.55580     1.50932    -3.76330
 H     5.05700     3.25562    -4.81986
 H     4.13603     3.61745    -2.50172
