   56
 
La     0.00000     0.00000     0.00000
 I     3.12828     0.00000     0.00000
 I    -0.23010     2.67989     0.00000
 I    -2.40492    -1.18074     0.43960
 O    -0.02863    -0.03892    -2.51462
 O     0.74759    -3.09515    -1.15832
 O     0.82714    -2.45591     2.17678
 O     0.26105     0.61113     3.12613
 C    -0.46839    -1.16568    -3.29502
 C     0.57635    -1.38528    -4.39254
 C     1.57972    -0.22869    -4.23526
 C     0.88387     0.75464    -3.29785
 C     0.09320    -4.19437    -0.52700
 C     0.82434    -5.47816    -0.94447
 C     2.04820    -4.99585    -1.74515
 C     2.06980    -3.47867    -1.52611
 C     0.06699    -2.62454     3.37031
 C     0.79510    -3.64498     4.25638
 C     2.10705    -3.95299     3.51178
 C     2.15958    -2.91273     2.38738
 C    -0.70418     1.28531     3.92806
 C    -0.11098     1.40635     5.33777
 C     1.39530     1.13941     5.15559
 C     1.56457     0.83527     3.66138
 H    -1.46133    -0.88163    -3.68982
 H    -0.55136    -2.01834    -2.59917
 H     0.11487    -1.38351    -5.39493
 H     1.07494    -2.36516    -4.28996
 H     1.83360     0.23125    -5.20457
 H     2.53655    -0.58504    -3.80710
 H     0.26000     1.49813    -3.82931
 H     1.56362     1.25663    -2.59160
 H    -0.94632    -4.14294    -0.88675
 H     0.13234    -4.02046     0.56394
 H     0.18102    -6.13350    -1.55251
 H     1.12649    -6.07050    -0.06542
 H     1.94592    -5.24654    -2.81344
 H     2.97904    -5.47276    -1.39981
 H     2.75188    -3.18222    -0.71026
 H     2.28866    -2.89166    -2.43055
 H    -0.01828    -1.63158     3.84636
 H    -0.91979    -2.97164     3.02467
 H     0.99037    -3.23608     5.26073
 H     0.19468    -4.55666     4.40420
 H     2.98266    -3.88287     4.17589
 H     2.10090    -4.97927     3.10943
 H     2.78144    -2.03944     2.64919
 H     2.46958    -3.31912     1.41150
 H    -1.60197     0.64951     3.87580
 H    -0.89815     2.26874     3.46644
 H    -0.56211     0.67707     6.02982
 H    -0.29727     2.40147     5.77238
 H     1.72807     0.29478     5.78006
 H     2.00108     2.00818     5.46165
 H     2.11227    -0.10040     3.46033
 H     2.01680     1.67575     3.10644
