   49
 
Li     0.00000     0.00000     0.00000
 O     2.08803     0.00000     0.00000
 O     0.51517     2.13322     0.00000
 O    -0.73475     0.12415     2.16033
 C     2.80777    -1.10125     0.53075
 C     2.63127     1.25305     0.39861
 C     1.86105     2.28073    -0.43149
 C    -0.34935     3.11975    -0.53717
 C    -0.46575     1.24820     2.97971
 C    -0.42167    -1.11165     2.79091
 O    -2.11122     0.50021    -0.72107
 O    -0.07383    -0.70020    -2.17464
 O    -0.13547    -2.16965     0.71825
 C    -0.98486    -2.18577     1.85906
 C    -3.21832     0.54249     0.16245
 C    -2.35997    -0.27765    -1.88545
 C    -1.15865    -0.02311    -2.79732
 C     1.08619    -0.75141    -2.98637
 C    -0.39923    -3.23140    -0.18253
 H     2.80385    -1.08693     1.62671
 H     3.83501    -1.10265     0.14385
 H     2.26435    -1.98438     0.16194
 H     2.47815     1.38841     1.48688
 H     3.71527     1.28556     0.17188
 H     2.21629     3.30966    -0.22555
 H     1.92389     2.07868    -1.51795
 H    -0.07923     4.10848    -0.14473
 H    -0.32884     3.11768    -1.63246
 H    -1.34647     2.82573    -0.17689
 H    -1.15956     1.26609     3.82962
 H    -0.65090     2.10725     2.31812
 H     0.57356     1.25614     3.32494
 H    -0.90456    -1.16017     3.78701
 H     0.67560    -1.19368     2.91101
 H    -2.02338    -1.96421     1.54652
 H    -0.95016    -3.18400     2.33885
 H    -4.03472     1.11860    -0.29138
 H    -3.55742    -0.46256     0.43476
 H    -2.82993     1.06283     1.05042
 H    -3.30012     0.05609    -2.36766
 H    -2.45064    -1.34372    -1.60144
 H    -0.91729     1.05386    -2.88231
 H    -1.33435    -0.44085    -3.80841
 H     1.40137     0.24836    -3.30348
 H     0.90589    -1.39729    -3.85510
 H     1.84787    -1.19817    -2.33117
 H    -1.45223    -3.25596    -0.48242
 H     0.23391    -3.00576    -1.05317
 H    -0.10001    -4.18563     0.26951
