   49
 
Li     0.00000     0.00000     0.00000
 O     2.16962     0.00000     0.00000
 O     0.51798     2.20603     0.00000
 O    -2.08580     0.50080     0.72714
 O    -0.04200    -0.69847     2.15909
 O    -0.70479     0.13552    -2.14880
 O    -0.07679    -2.15305    -0.72172
 C     2.90937    -1.06738    -0.56777
 C     2.62572     1.27957    -0.42341
 C     1.86518     2.27948     0.44938
 C    -0.31772     3.18915     0.58534
 C    -3.19376     0.55344    -0.15448
 C    -2.33188    -0.28819     1.88451
 C    -1.12901    -0.03834     2.79584
 C     1.12457    -0.74768     2.96159
 C    -0.31853    -3.23321     0.16300
 C    -0.90800    -2.18242    -1.87554
 C    -0.35786    -1.08592    -2.78929
 C    -0.45047     1.27524    -2.95122
 H     2.38566    -1.97135    -0.22254
 H     3.93693    -1.05459    -0.18122
 H     2.90535    -1.02292    -1.66235
 H     3.71882     1.36258    -0.26040
 H     2.40372     1.40915    -1.50053
 H     1.91060     2.01873     1.52438
 H     2.25375     3.30744     0.30520
 H    -0.27302     3.16067     1.67911
 H    -0.04149     4.18234     0.20890
 H    -1.32662     2.91681     0.24177
 H    -4.00876     1.12604     0.30641
 H    -2.80622     1.08375    -1.03698
 H    -3.53373    -0.44841    -0.43740
 H    -3.27192     0.03920     2.37134
 H    -2.42106    -1.35181     1.59088
 H    -1.29743    -0.47245     3.80128
 H    -0.89548     1.03925     2.89503
 H     0.95906    -1.41312     3.81847
 H     1.42771     0.25012     3.29612
 H     1.88838    -1.17051     2.29256
 H    -1.37408    -3.29342     0.44880
 H     0.29755    -2.99852     1.04362
 H     0.01526    -4.17224    -0.29650
 H    -1.95656    -1.99093    -1.57642
 H    -0.84036    -3.17504    -2.36326
 H    -0.82856    -1.13336    -3.79131
 H     0.74222    -1.14384    -2.89761
 H    -0.65543     2.12284    -2.28035
 H     0.59006     1.30653    -3.29117
 H    -1.14003     1.29095    -3.80487
