   32
 
 S     0.00000     0.00000     0.00000
 C     1.62557     0.00000     0.00000
 N     2.77757     0.00758     0.00000
Li     4.74281     0.02222     0.00005
 O     5.59606    -0.10504     1.89656
 O     6.03240     1.91666     0.09962
 O     6.10679    -0.04647    -1.86264
 O     5.67766    -2.06245    -0.02229
 C     6.70123     0.75568     2.13188
 C     6.28634     2.07885     1.47640
 C     7.17937     1.82527    -0.73292
 C     6.63785     1.24681    -2.04561
 C     7.06414    -1.09249    -1.77130
 C     6.24939    -2.29839    -1.28750
 C     6.55115    -2.18492     1.09044
 C     5.80284    -1.46349     2.21862
 H     7.62776     0.34034     1.70417
 H     6.82827     0.87031     3.22578
 H     7.03064     2.87207     1.66130
 H     5.29132     2.42668     1.84730
 H     7.96111     1.19341    -0.28311
 H     7.58288     2.84576    -0.87626
 H     7.40374     1.25846    -2.83979
 H     5.74194     1.80969    -2.40167
 H     7.88227    -0.83037    -1.08219
 H     7.48654    -1.26757    -2.77890
 H     6.85288    -3.22173    -1.29251
 H     5.33991    -2.45525    -1.91658
 H     7.53986    -1.74625     0.88684
 H     6.67662    -3.26264     1.31104
 H     6.31820    -1.57792     3.18738
 H     4.75354    -1.83702     2.32127
