   81
 
Lu     0.00000     0.00000     0.00000
 N     2.42347     0.00000     0.00000
 N     0.87795     2.11457     0.00000
 H     3.32386    -1.49755    -1.09834
 C     3.91429    -1.60674     1.01471
 H     4.57371    -2.45593     0.89366
 C     3.76864    -0.97415     2.26070
 H     4.29679    -1.36804     3.13071
 C     2.98743     0.15252     2.37599
 H     2.86627     0.68237     3.31660
 C     2.32722     0.66240     1.21487
 C     1.56525     1.86752     1.18907
 C     1.51050     2.80340     2.26767
 H     2.10743     2.60341     3.15384
 C     0.72713     3.92604     2.14642
 H     0.68003     4.65910     2.95410
 C    -0.01152     4.14512     0.96999
 H    -0.63641     5.02229     0.85550
 C     0.09769     3.21586    -0.06810
 H    -0.41525     3.36738    -1.03059
 N     0.56682    -3.00161    -3.26871
 C     0.42429    -4.33480    -3.37769
 H     1.34448    -4.88337    -3.60976
 C    -0.80341    -4.98499    -3.20542
 H    -0.87037    -6.06519    -3.27497
 C    -1.93152    -4.21285    -2.93942
 H    -2.90520    -4.67860    -2.78550
 C    -1.80623    -2.82762    -2.85366
 H    -2.66937    -2.20635    -2.62437
 C    -0.53054    -2.26218    -2.99369
 C    -0.33637    -0.79335    -2.86386
 C    -1.19011     0.08470    -3.54066
 H    -2.04418    -0.30235    -4.09570
 C    -0.89307     1.44998    -3.53877
 H    -1.56236     2.15484    -4.03930
 C     0.28143     1.88943    -2.95167
 H     0.59776     2.93211    -2.99335
 C     1.11667     0.95101    -2.30718
 H     2.14738     1.22715    -1.97386
 N     0.77954    -0.36151    -2.20407
 N    -0.66171    -0.07570     2.14447
 C     0.12668    -0.31515     3.21692
 H     0.68944    -1.26025     3.18075
 C     0.18626     0.53217     4.32422
 H     0.83151     0.29435     5.16145
 C    -0.62674     1.67898     4.33378
 H    -0.62305     2.33224     5.20791
 C    -1.42163     1.96937     3.25064
 H    -2.06499     2.84506     3.22402
 C    -1.40742     1.10157     2.11525
 C    -2.10935     1.38269     0.90270
 C    -2.71782     2.64625     0.62228
 H    -2.68310     3.41637     1.39079
 C    -3.31316     2.86081    -0.59757
 H    -3.76954     3.82601    -0.82733
 C    -3.36543     1.82768    -1.54773
 H    -3.86527     1.96320    -2.49818
 C    -2.79630     0.59608    -1.21708
 H    -2.91206    -0.29376    -1.85942
 N    -2.16544     0.35988    -0.04521
 N    -0.57117    -2.18415    -0.18479
 C     0.72017    -2.60228    -0.11770
 H     1.31282    -2.54563    -1.06505
 C     1.25242    -3.22213     1.02710
 H     2.30047    -3.52722     1.02863
 C     0.42264    -3.46112     2.11231
 H     0.80312    -3.97217     3.00147
 C    -0.91530    -3.08190     2.04329
 H    -1.61053    -3.30136     2.85617
 C    -1.37839    -2.42308     0.89406
 C    -2.82043    -2.07233     0.80221
 C    -3.45111    -1.47035     1.90821
 H    -2.88144    -1.23951     2.80732
 C    -4.79423    -1.12576     1.79828
 H    -5.30007    -0.63090     2.62879
 C    -5.47705    -1.41461     0.61715
 H    -6.52336    -1.15124     0.50123
 C    -4.78508    -2.05436    -0.41496
 H    -5.27357    -2.33137    -1.35656
 N    -3.47911    -2.38094    -0.33258
 C     3.22021    -1.08291    -0.08141
