   43
 
Lu     0.00000     0.00000     0.00000
 C     2.46383     0.00000     0.00000
 O    -0.12908     2.29674     0.00000
 C    -1.76559    -0.68026     1.80605
 C    -0.70520    -1.63919     1.76410
 C     0.46845    -1.00721     2.28283
 C     2.88989     0.65844     1.28422
 C     2.93098    -1.41449    -0.15199
 C    -1.33152     2.67873    -0.69570
 C    -0.34378    -0.18382    -2.57772
 C    -1.57303    -0.54367    -1.95461
 C    -1.37667    -1.76619    -1.25282
 C    -0.02320    -2.17242    -1.44701
 C     0.60047    -1.21164    -2.28425
 C     2.60191     0.91949    -1.17915
 C     0.22248     3.25213     0.99662
 H     0.74374     1.00718     3.19354
 H    -1.82189     1.41077     2.55117
 H    -2.79928    -0.87625     1.55509
 H    -0.81934    -2.69729     1.57448
 H     1.37942    -1.52307     2.54250
 H     2.32784     1.57659     1.51648
 H     3.96130     0.94989     1.23065
 H     2.77622    -0.00555     2.16265
 H     2.42295    -2.09824     0.55315
 H     2.73895    -1.83574    -1.15490
 H     4.01966    -1.49266     0.05333
 H    -2.20526     2.39188    -0.08334
 H    -1.34483     2.10912    -1.64144
 H    -1.29202     3.76221    -0.90829
 H    -0.21068     0.59930    -3.30179
 H    -2.52092    -0.03507    -2.06676
 H    -2.14995    -2.34079    -0.75987
 H     0.39139    -3.12242    -1.15143
 H     1.55106    -1.33558    -2.77501
 H     2.02777     1.86175    -1.08342
 H     2.30412     0.46389    -2.14519
 H     3.66547     1.23146    -1.30391
 H    -0.57510     3.30148     1.75654
 H     0.40416     4.22605     0.51121
 H     1.14482     2.87197     1.45603
 C     0.13324     0.33679     2.61905
 C    -1.24500     0.53251     2.32120
