   43
 
Lu     0.00000     0.00000     0.00000
 O     2.12223     0.00000     0.00000
 O     0.50868     2.06121     0.00000
 H     3.65252    -1.44053    -1.32106
 H     2.34110    -1.50399    -2.51726
 C     3.04857    -0.82353    -2.00416
 C     2.25654     0.20788    -1.24845
 C     1.70929     1.33910    -1.89012
 C     0.74095     2.14077    -1.24856
 C    -0.07259     3.15448    -2.00549
 H     3.70329    -0.36506    -2.75878
 O    -1.46446     0.51695     1.44775
 O     0.13918    -1.54939     1.44497
 H     0.54073     3.71374    -2.72644
 H    -0.87331     2.62495    -2.55672
 H    -0.56647     3.86064    -1.32006
 C    -0.92542     2.47922     2.63739
 C    -0.65170     1.04608     2.27186
 C     0.43477     0.33398     2.82381
 C     0.85276    -0.89532     2.27133
 C     2.17204    -1.51880     2.63656
 H    -0.23400     3.12767     2.06503
 H    -0.77180     2.66353     3.71018
 H    -1.94891     2.77317     2.35763
 O    -1.46263     0.52218    -1.44649
 O     0.14637    -1.54509    -1.44712
 H     2.97122    -1.01663     2.05739
 C    -2.35860    -0.27879    -1.02793
 C    -0.84978    -2.21749    -1.02890
 C    -3.66931     0.34811    -0.63857
 C    -2.14815    -1.67147    -0.94201
 C    -0.56430    -3.64238    -0.64071
 H     2.19787    -2.58495     2.36312
 H     2.39343    -1.40972     3.70771
 H    -3.75860     1.36808    -1.04333
 H    -3.70478     0.43379     0.46489
 H    -4.52628    -0.25402    -0.97194
 H     0.40325    -3.97882    -1.04424
 H    -1.35776    -4.32469    -0.97687
 H    -0.49230    -3.69950     0.46281
 H     1.95755     1.53415    -2.93004
 H     1.02232     0.78869     3.61697
 H    -2.98441    -2.32225    -0.70054
