   51
 
Lu     0.00000     0.00000     0.00000
 I     2.89488     0.00000     0.00000
 I    -0.39690     3.06415     0.00000
 O     0.49193    -0.10866     2.18066
 H     0.69773    -0.96653     2.65042
 H    -0.41986    -1.71525    -2.31026
 C     0.61494     1.00241     3.11826
 H     1.05984     1.82070     2.50173
 C     1.55472     0.58579     4.23757
 H     2.53416     0.26778     3.84871
 H     1.15164    -0.22664     4.85600
 H     1.75073     1.43434     4.91854
 C    -0.78964     1.32671     3.59462
 H    -1.48246     1.48752     2.75878
 H    -0.79377     2.26360     4.18480
 H    -1.20774     0.53847     4.23338
 C    -0.44082    -3.07601    -0.82073
 H    -0.98110    -3.02486     0.15635
 C    -1.17230    -3.96233    -1.82169
 H    -2.17696    -3.57819    -2.04426
 H    -1.30202    -4.98289    -1.42228
 H    -0.62712    -4.06202    -2.77057
 C     1.02236    -3.45133    -0.64922
 H     1.44330    -3.07667     0.29257
 H     1.64556    -3.04650    -1.45967
 H     1.16069    -4.54740    -0.64712
 O    -0.27511     0.57969    -2.11105
 H    -1.18215     0.60299    -2.53833
 C     0.72374     1.00545    -3.08469
 H     1.49282     1.52965    -2.46749
 C     0.06195     1.95808    -4.06571
 H    -0.42107     2.80195    -3.54684
 H    -0.69223     1.47028    -4.69626
 H     0.80980     2.40227    -4.74733
 C     1.26390    -0.25712    -3.73522
 H     1.64978    -0.97074    -2.99726
 H     2.10975    -0.01572    -4.40786
 H     0.50816    -0.76948    -4.34406
 O    -1.59768    -0.94553     1.20762
 H    -1.66769    -0.90908     2.20812
 C    -2.93600    -1.01391     0.64168
 H    -2.77158    -1.52618    -0.33825
 C    -3.79418    -1.85902     1.57731
 H    -3.31113    -2.81687     1.81397
 H    -4.76585    -2.09633     1.11234
 H    -4.01303    -1.34415     2.52323
 C    -3.46303     0.40213     0.46980
 H    -3.10903     0.87906    -0.45369
 H    -3.15612     1.05775     1.29869
 H    -4.56768     0.42037     0.43311
 O    -0.50290    -1.70748    -1.30863
