   53
 
Lu     0.00000     0.00000     0.00000
 C     2.38250     0.00000     0.00000
 C     2.77431     1.45833     0.00000
 C     2.77550    -0.73607    -1.25805
 C     2.75892    -0.72580     1.27029
 C    -0.80705     1.62718    -1.54238
 C    -0.63766     2.95467    -0.84028
 C    -2.25219     1.26345    -1.79269
 C     0.07073     1.47744    -2.76316
 C    -0.81967     0.53049     2.17239
 C     0.04699     1.67226     2.65057
 C    -0.64755    -0.73581     2.97794
 C    -2.26539     0.91925     1.96634
 C    -0.80647    -2.14761    -0.64512
 C    -2.25906    -2.16613    -0.22953
 C     0.04947    -3.13460     0.11388
 C    -0.60869    -2.20515    -2.14198
 H     2.41698     1.98273    -0.89901
 H     3.87499     1.55245     0.02538
 H     2.37649     1.99722     0.87227
 H     2.37560    -0.25758    -2.16395
 H     2.42060    -1.77787    -1.25468
 H     3.87620    -0.75852    -1.35359
 H     2.39062    -0.20645     2.16828
 H     3.85865    -0.79604     1.35304
 H     2.35938    -1.75028     1.29960
 H     0.40851     3.14697    -0.56128
 H    -1.23754     3.01393     0.08062
 H    -0.96179     3.77687    -1.50334
 H    -2.35882     0.25410    -2.21773
 H    -2.70291     1.97511    -2.50762
 H    -2.85138     1.29491    -0.87112
 H     1.13136     1.66351    -2.53548
 H    -0.23543     2.20173    -3.53920
 H     0.00422     0.47118    -3.20182
 H     1.10853     1.38895     2.71464
 H    -0.27452     1.99278     3.65800
 H    -0.01631     2.54770     1.98778
 H    -1.22243    -1.57497     2.55751
 H    -1.00038    -0.57497     4.01279
 H     0.40388    -1.05424     3.03128
 H    -2.85425     0.11107     1.50841
 H    -2.36746     1.80329     1.31888
 H    -2.73315     1.16089     2.93780
 H    -2.84005    -1.36836    -0.71493
 H    -2.38066    -2.04317     0.85737
 H    -2.71899    -3.13076    -0.51011
 H     1.11195    -3.05765    -0.16280
 H    -0.27914    -4.16661    -0.10492
 H    -0.01465    -2.99039     1.20241
 H     0.44418    -2.06690    -2.42845
 H    -1.19344    -1.43344    -2.66539
 H    -0.93134    -3.18876    -2.52827
