   43
 
Lu     0.00000     0.00000     0.00000
 O     2.17440     0.00000     0.00000
 O     0.55473     2.04825     0.00000
 H     2.32043    -1.52782     2.53617
 H     3.62638    -1.50397     1.33300
 C     3.03967    -0.86820     2.01368
 C     2.26955     0.17738     1.25339
 C     1.70622     1.29686     1.90680
 C     0.76263     2.11687     1.25498
 C    -0.05184     3.13764     2.00135
 H     3.70902    -0.41802     2.76060
 O    -1.47118     0.50780     1.43981
 O     0.14536    -1.55672     1.43239
 H    -0.87827     2.61829     2.52386
 H     0.55215     3.67498     2.74663
 H    -0.51123     3.86212     1.31127
 C    -3.67606     0.33054     0.62829
 C    -2.36343    -0.29420     1.01459
 C    -2.14759    -1.68537     0.92008
 C    -0.84815    -2.22864     1.00693
 C    -0.55791    -3.65050     0.61147
 H    -4.52995    -0.30342     0.90587
 H    -3.68692     0.47448    -0.46983
 H    -3.79378     1.32536     1.08492
 O    -1.45768     0.53248    -1.44460
 O     0.15258    -1.53818    -1.45097
 H    -1.35638    -4.33519     0.93076
 C    -0.64368     1.06232    -2.26760
 C     0.86360    -0.87838    -2.27538
 C    -0.91420     2.49770    -2.62626
 C     0.44093     0.35129    -2.82340
 C     2.18438    -1.49567    -2.64407
 H     0.40376    -3.99081     1.02571
 H    -0.47089    -3.69899    -0.49137
 H    -1.93486     2.79472    -2.33977
 H    -0.76609     2.68577    -3.69922
 H    -0.21686     3.14109    -2.05492
 H     2.21812    -2.56060    -2.36689
 H     2.98383    -0.98663    -2.07052
 H     2.40036    -1.38959    -3.71667
 H     1.92615     1.46671     2.95738
 H    -2.98133    -2.33769     0.67378
 H     1.02594     0.80869    -3.61736
