  113
 
Lu     0.00000     0.00000     0.00000
 O     2.28682     0.00000     0.00000
 O     0.64438     2.28877     0.00000
 O    -1.67579     1.23588     0.44814
 O     0.47420     0.47854     2.03408
 N     3.64778    -1.08394    -1.42368
 N     1.96681     4.07297    -0.32295
 N    -1.91897     3.48134     0.52538
 N     2.14584     1.75367     2.86580
 C     2.99977     0.03808    -1.02081
 C     3.31065     1.36904    -1.67979
 H     3.86532     1.23621    -2.64163
 H     4.01672     1.91029    -0.99844
 C     2.07558     2.21663    -1.94887
 H     2.30311     3.00043    -2.71795
 H     1.27659     1.60736    -2.43180
 C     1.51289     2.84149    -0.69441
 C     3.52773    -2.33350    -0.67338
 H     2.71691    -2.27606     0.07899
 H     4.47844    -2.55286    -0.14186
 H     3.28105    -3.17314    -1.35003
 C     4.58511    -1.10614    -2.55293
 H     5.47313    -0.47423    -2.34885
 H     4.10223    -0.77617    -3.48886
 H     4.96186    -2.13528    -2.72754
 C     1.31176     4.85066     0.72787
 H     0.47474     4.29589     1.18052
 H     0.89775     5.79357     0.30994
 H     2.04164     5.11253     1.51950
 C     2.98004     4.80706    -1.09290
 H     2.55506     5.22492    -2.02647
 H     3.84561     4.16766    -1.33835
 H     3.37418     5.65794    -0.49843
 C    -1.70051     2.28772     1.12558
 C    -1.59960     2.17872     2.63645
 H    -1.85867     1.13476     2.93043
 H    -2.35752     2.82825     3.14262
 C    -0.19384     2.51687     3.11343
 H     0.07689     3.55690     2.81142
 H    -0.16620     2.50570     4.23599
 C     0.84115     1.54061     2.58531
 C    -2.32187     4.67498     1.28254
 H    -3.37035     4.58346     1.63560
 H    -2.27809     5.57687     0.63700
 H    -1.66553     4.85991     2.14802
 C    -1.98136     3.60292    -0.93167
 H    -1.44292     2.77528    -1.43360
 H    -1.49566     4.54256    -1.25989
 H    -3.03196     3.58831    -1.28429
 C     2.60173     2.93449     3.61357
 H     2.12665     3.86434     3.26110
 H     3.69804     3.06989     3.49924
 H     2.39545     2.80848     4.69693
 C     3.20373     0.85265     2.41309
 H     2.80202    -0.13837     2.13168
 H     3.95222     0.70397     3.22137
 H     3.70165     1.25381     1.51087
 O    -0.10819    -1.85438     1.06408
 C    -0.40347    -1.77054     2.28075
 N     0.52863    -2.11499     3.20577
 C     1.90378    -2.41712     2.80485
 H     2.14590    -2.00216     1.80616
 H     2.03779    -3.51983     2.76079
 H     2.63350    -1.99516     3.52359
 C     0.28298    -1.95840     4.64390
 H    -0.66347    -2.44790     4.94423
 H     0.25527    -0.89652     4.94239
 H     1.08844    -2.45575     5.22715
 C    -1.84495    -1.58837     2.71018
 H    -1.89688    -0.81045     3.51146
 H    -2.18413    -2.54833     3.18797
 C    -2.80973    -1.21323     1.58775
 H    -3.85087    -1.53303     1.86302
 H    -2.89289    -0.10040     1.49390
 C    -2.43339    -1.75148     0.22544
 O    -1.79490    -1.06512    -0.60402
 O    -0.54548     0.83744    -1.87316
 C    -0.92881     0.13189    -2.83862
 N    -2.23954     0.07343    -3.16169
 C    -2.72407    -0.63352    -4.35463
 H    -2.10275    -0.40581    -5.24187
 H    -3.75626    -0.29819    -4.60230
 H    -2.75857    -1.72488    -4.20131
 C    -3.28855     0.57851    -2.27474
 H    -2.87673     1.05792    -1.36638
 H    -3.93303    -0.24746    -1.92031
 H    -3.90083     1.33487    -2.81083
 C     0.13135    -0.46575    -3.75173
 H     1.11669    -0.01645    -3.47927
 H    -0.05119    -0.16841    -4.81562
 C     0.20979    -1.98081    -3.61506
 H    -0.72000    -2.46139    -3.99929
 H     1.04075    -2.37306    -4.25827
 C     0.45719    -2.37986    -2.17374
 O     0.74932    -1.50912    -1.33557
 N     0.44324    -3.69090    -1.83189
 C     0.21506    -4.74273    -2.83213
 H    -0.73852    -4.60546    -3.37112
 H     0.18007    -5.74300    -2.35184
 H     1.04426    -4.76862    -3.56766
 C     0.54617    -4.11834    -0.43710
 H     1.18199    -3.43019     0.15191
 H     0.98527    -5.13520    -0.37009
 H    -0.44545    -4.10546     0.05423
 N    -2.91731    -2.95754    -0.17619
 C    -2.82183    -3.39445    -1.56896
 H    -2.25158    -2.67828    -2.18163
 H    -3.84096    -3.48448    -2.00598
 H    -2.32077    -4.38062    -1.63155
 C    -3.66814    -3.84839     0.71773
 H    -4.71535    -3.50260     0.83698
 H    -3.19301    -3.92629     1.70990
 H    -3.70510    -4.87603     0.29896
