   15
 
Mg     0.00000     0.00000     0.00000
 C     2.06499     0.00000     0.00000
 C     2.55891     1.43051     0.00000
 H     2.38600    -0.55004     0.88216
 H     2.38708    -0.55178    -0.88028
 H     3.65767     1.46564    -0.00366
 H     2.22395     1.98237    -0.88610
 H     2.22909     1.98051     0.88903
 C    -2.06514     0.00986    -0.00210
 C    -2.56808    -1.36306     0.38763
 H    -2.38382     0.30039    -1.00101
 H    -2.38341     0.78216     0.69470
 H    -3.66705    -1.38880     0.40009
 H    -2.23560    -1.65477     1.39078
 H    -2.24290    -2.13678    -0.31750
