   18
 
Mg     0.00000     0.00000     0.00000
 O     2.16107     0.00000     0.00000
 O     0.61296     2.11976     0.00000
 O     0.50950    -1.41423    -1.53853
 O     0.52423    -1.79517     1.07903
 O    -1.25356    -0.03298     1.79909
 O    -1.51367     0.90190    -0.50121
 H     2.47796     0.86455     0.33629
 H     2.45102    -0.64695     0.67761
 H    -2.08821     0.69426    -1.18639
 H     1.44826    -1.29498    -1.78838
 H     0.01043    -1.26391    -2.36180
 H    -2.07512     0.26457     1.29762
 H    -1.06090     0.72944     2.36896
 H     0.79149     2.34909    -0.93278
 H    -0.32661     2.46020     0.09807
 H    -0.11780    -1.88250     1.81975
 H     0.33681    -2.56380     0.50363
