   35
 
Mg     0.00000     0.00000     0.00000
 O     2.03689     0.00000     0.00000
 O     0.09148     2.12229     0.00000
 O     0.50925     0.39277    -2.01249
 O    -2.31380    -3.84840    -4.56149
 N    -1.29392    -2.85819    -2.76223
 H    -0.43971    -3.40378    -2.91542
 N    -3.52683    -2.29266    -3.41470
 H    -4.30014    -2.42730    -4.06451
 C    -2.76985    -0.32061    -0.32247
 C    -2.57596    -1.23696    -1.50221
 C    -1.32937    -1.93502    -1.68586
 C    -2.35763    -3.06367    -3.64322
 C    -3.62021    -1.41353    -2.35846
 H    -4.57584    -0.86821    -2.23747
 O    -0.30781     0.68539     2.17722
 H    -0.28870    -0.16616     2.64472
 H    -1.28319     0.83354     2.03615
 C     2.73397     0.74097     0.75611
 O     3.90505     0.54737     1.03645
 C     2.09660     1.99027     1.34642
 C     0.84123     2.52550     0.89634
 H     0.73127     1.35004    -1.98821
 H     1.40702    -0.03994    -2.01486
 N     0.41830     3.73149     1.49981
 H    -0.47327     4.14425     1.20576
 C     1.12218     4.37471     2.52334
 O     0.73700     5.39415     3.04629
 N     2.34012     3.77186     2.92042
 H     2.86187     4.23402     3.66382
 C     2.80059     2.61210     2.33508
 H     3.77082     2.21842     2.69851
 O    -1.83124    -0.32861     0.54711
 O    -3.80535     0.30999    -0.22605
 O    -0.28983    -1.86158    -1.03908
