   39
 
Mg     0.00000     0.00000     0.00000
 O     2.02656     0.00000     0.00000
 O    -0.42576     2.14181     0.00000
Br    -0.77365    -0.48538     2.30190
 C    -0.35205    -0.77899    -1.97001
 C     2.65834    -1.57483     1.60691
 C     2.69666     0.72375    -1.02519
 C     2.61888     2.21992    -0.78987
 C    -0.30818     2.76052     1.28234
 C    -0.11765     4.26176     1.12719
 C    -1.66044     2.36787    -0.68573
 H     0.53240    -1.36785    -2.17954
 H    -0.40148     0.06918    -2.63610
 H    -1.79515    -2.09649    -2.89434
 H    -2.49893    -0.98646    -1.71873
 H    -1.56554    -2.38762    -1.16857
 H     2.12491     0.53267     1.97012
 H     3.72794     0.29273     1.18302
 H     2.13431     0.40170    -1.93202
 H     3.73444     0.35135    -1.08751
 H     0.59883     2.27049     1.69446
 H    -1.18123     2.50762     1.91197
 H     0.26315     4.70653     2.05530
 H    -1.05472     4.77611     0.88489
 H     0.59972     4.49435     0.33052
 H    -2.69357     0.50206    -0.17602
 H    -1.85070     3.45365    -0.71913
 H    -3.76356     1.85098    -0.55241
 H    -2.92380     1.79558     1.00424
 H     3.39415    -2.15002     1.03457
 H     1.66986    -2.01584     1.38144
 H     2.83698    -1.74282     2.67603
 H     3.13765     2.77258    -1.58289
 H     1.57449     2.57377    -0.78625
 H     3.06741     2.51376     0.16503
 H    -1.40477     2.00492    -1.70663
 C    -1.61588    -1.59950    -1.93113
 C    -2.81209     1.59562    -0.06988
 C     2.70019    -0.09593     1.26285
