   37
 
Mg     0.00000     0.00000     0.00000
 N     2.16886     0.00000     0.00000
 C     3.32476     0.00097     0.00000
 C     4.75325     0.00149    -0.00178
 H     5.18500    -1.00988     0.17837
 H     5.18675     0.66358     0.78244
 H     5.18309     0.34990    -0.96900
 N    -0.14397    -2.10479    -1.48451
 C    -0.20834    -3.04961    -2.15028
 C    -0.29101    -4.21701    -2.97390
 H     0.10189    -5.12680    -2.46825
 H     0.28538    -4.11427    -3.92005
 H    -1.33611    -4.45589    -3.27219
 N    -0.14455     1.49279    -2.10455
 C    -0.21454     2.17605    -3.03576
 C    -0.30518     3.01817    -4.18941
 H    -0.03777     2.48555    -5.12903
 H     0.37037     3.90007    -4.12982
 H    -1.33045     3.42223    -4.34339
 N    -2.51632     0.01111     0.02466
 C    -3.67316     0.01673     0.03586
 C    -5.10432     0.02365     0.04967
 H    -5.53062     1.01754    -0.21205
 H    -5.54305    -0.70049    -0.67235
 H    -5.52440    -0.24036     1.04570
 N    -0.13304     2.10508     1.50103
 C    -0.19270     3.04669     2.17202
 C    -0.26595     4.21079     3.00168
 H    -1.16403     4.83192     2.78721
 H    -0.31411     3.96043     4.08477
 H     0.61276     4.88162     2.87749
 N    -0.12449    -1.50892     2.09672
 C    -0.18572    -2.16750     3.04662
 C    -0.26509    -2.98446     4.21933
 H    -0.53521    -2.40204     5.12805
 H    -1.02860    -3.78886     4.12823
 H     0.69585    -3.49454     4.45173
