   41
 
Mg     0.00000     0.00000     0.00000
 O     2.05254     0.00000     0.00000
 O    -0.23778     3.84127     0.00000
 O    -0.12139    -0.17446     2.14183
 O    -2.83132     0.69621    -1.78522
 O    -4.48633     0.13351     0.12686
 O     0.16187    -1.88319    -0.78248
 O    -1.00204    -4.02003    -1.66678
 O    -1.15590    -1.91257    -2.98288
 O    -2.51944    -2.35402     0.82688
 O    -0.30587     1.57829    -1.37563
 C    -2.71718    -1.94554    -0.51180
 C    -3.97845    -2.74071    -0.94928
 H    -4.28398    -2.51717    -1.97986
 H    -4.82540    -2.52634    -0.28309
 H    -3.79735    -3.82314    -0.87681
 H    -4.51211     0.96784     0.70364
 H    -1.19408    -0.89656    -2.90717
 H    -1.76856    -1.88482     1.29210
 H    -1.20208     1.47065    -1.77028
 H    -0.36693     2.45040    -0.83816
 P     2.61068     1.19348     0.77997
 O     2.08426     1.27092     2.19918
 O     4.22627     1.00534     0.83116
 H     4.42664     0.10694     1.24399
 C     2.51021     2.90823    -0.20101
 P     1.14438     4.33544     0.34085
 H    -0.78128     0.50456     2.36346
 H     0.76996     0.26684     2.39875
 O     1.62072     5.65734    -0.13933
 O     1.30761     4.38507     1.96396
 H     1.02626     3.48394     2.34407
 O     2.23187     2.54919    -1.52878
 H     1.35283     2.09538    -1.66861
 C     3.92074     3.57308    -0.30882
 H     4.32066     3.87304     0.66989
 H     4.64770     2.90514    -0.78937
 H     3.86915     4.47244    -0.94228
 P    -2.97971     0.01187    -0.46029
 P    -1.01401    -2.55182    -1.49366
 O    -1.99550     0.49790     0.60694
