   23
 
 C     0.00000     0.00000     0.00000
 C     3.46298     0.00000     0.00000
Mn     1.57145     0.94931     0.00000
 C     0.55576     2.72971    -0.63456
 H     2.06616    -1.73299     0.09422
 H     2.56610    -1.08284     1.68558
 O    -0.97009    -0.61757     0.00399
 C     1.80299     3.06132     0.00172
 C     2.09493     2.53146     1.31305
 C     3.19409     0.54936    -1.30935
 C     1.13317     1.67236     1.95593
 C     1.95957     0.21366    -1.96810
 H     2.56499     3.64545    -0.53391
 H     3.07585     2.71578     1.77323
 H     3.88613     1.28042    -1.75064
 H    -0.40832     2.81207    -0.12776
 H     0.43245     2.90221    -1.70616
 H     0.07485     1.93262     2.04150
 H     1.43851     1.06726     2.81342
 H     1.60742    -0.81548    -2.07456
 H     1.61934     0.81221    -2.81723
 H     4.36209     0.31462     0.54990
 C     2.49938    -0.87421     0.61435
