   13
 
Mn     0.00000     0.00000     0.00000
 C     1.90524     0.00000     0.00000
 O     3.04414     0.00184     0.00000
 C    -1.89264     0.00052    -0.00008
 O    -3.03152    -0.00030    -0.00013
 C     0.00096    -0.93859     1.64370
 O     0.00062    -1.50659     2.63084
 C     0.00055     0.93405    -1.64634
 O    -0.00212     1.49366    -2.63826
 C     0.00124    -1.64538    -0.93565
 O     0.00175    -2.63560    -1.49820
 C     0.00040     1.64475     0.93683
 O    -0.00291     2.63391     1.50134
