   28
 
 I     0.00000     0.00000     0.00000
Mn     2.72422     0.00000     0.00000
 N     2.64151     2.04562     0.00000
 C     2.33102     3.93518     1.49326
 C     2.36335     4.80874     0.40917
 C     2.53040     4.29104    -0.87027
 C     2.66537     2.90742    -1.04706
 C     2.40546     1.53471     2.31569
 C     2.18559     1.84888     3.65943
 C     2.09637     0.82742     4.59840
 C     2.23398    -0.48613     4.16449
 C     2.45524    -0.75846     2.81113
 C     2.73561    -1.76906     0.02340
 C     2.64764    -0.04308    -1.85488
 C     4.57461     0.10199     0.03669
 N     2.54419     0.22968     1.86729
 O     2.78125    -2.92559     0.01184
 O     2.60344    -0.08054    -3.00359
 O     5.72410     0.16283     0.05022
 H     2.19233     4.31598     2.50346
 H     2.25497     5.88339     0.56411
 H     2.55080     4.94760    -1.74051
 H     2.78966     2.50036    -2.06254
 H     2.07434     2.88813     3.96786
 H     1.91728     1.05353     5.64941
 H     2.16314    -1.31632     4.86926
 H     2.54947    -1.81113     2.49512
 C     2.46424     2.56307     1.26016
