   22
 
 C     0.00000     0.00000     0.00000
 C     1.40272     0.00000     0.00000
 C     2.12340     1.19561     0.00000
 C     1.46392     2.42056    -0.00012
 C     0.07269     2.43556    -0.00046
 C    -0.65173     1.24228    -0.00053
Mn    -1.06843    -1.76435     0.00112
 C     0.09563    -2.35268     1.33045
 C    -2.13064    -1.00848    -1.32880
 C    -2.13620    -1.00380     1.32397
 C     0.09850    -2.35879    -1.32292
 O    -2.78953    -0.52884     2.13840
 O     0.82101    -2.71805    -2.13811
 O    -2.78024    -0.53594    -2.14758
 O     0.81679    -2.70743     2.14883
 C    -2.02306    -3.34160     0.00307
 O    -2.61904    -4.32697     0.00466
 H     1.99146    -0.91683     0.00021
 H     3.21159     1.16645    -0.00008
 H     2.02553     3.35011     0.00010
 H    -0.45863     3.38567    -0.00081
 H    -1.73699     1.33892    -0.00086
