   25
 
Mn     0.00000     0.00000     0.00000
 O     1.90291     0.00000     0.00000
 O    -0.05497     1.85738     0.00000
 O     3.68798     1.07509    -0.64912
 O    -0.43604     2.83781    -1.95987
 O    -0.34604     0.02608    -2.27454
 C     2.47860     0.93760    -0.73231
 C     0.29092     2.16696    -1.25607
 C     1.70528     1.82262    -1.69620
 O    -1.87184     0.01183     0.12614
 O     0.17984    -1.85709    -0.08416
 O     0.06014     0.34562     2.03189
 C    -2.25668    -0.93953     0.98011
 C    -0.98348    -2.22753    -0.60232
 O    -2.77912    -0.70441     2.04511
 C    -2.11586    -2.34956     0.40903
 O    -1.13631    -2.49953    -1.78480
 H    -0.42348    -0.94745    -2.47331
 H    -1.27270     0.34532    -2.37663
 H    -0.69676     1.02682     1.98193
 H     0.88485     0.92164     1.88145
 H     1.67313     1.32828    -2.69514
 H     2.26524     2.76779    -1.85834
 H    -3.05833    -2.67138    -0.06372
 H    -1.87675    -3.08056     1.19996
