   19
 
Mn     0.00000     0.00000     0.00000
 O     2.13800     0.00000     0.00000
 O     0.00000     2.18900     0.00000
 O     0.00000     0.00000    -2.20400
 O     0.00000    -2.18900    -0.00000
 O     0.00000     0.00000     2.20400
 O    -2.13800     0.00000     0.00000
 H     2.30525     0.15184     1.00033
 H     2.30810    -1.01120    -0.02045
 H    -2.30815     1.01099     0.02967
 H    -2.30444    -0.14264    -1.00184
 H     0.89640    -0.27726    -2.57183
 H    -0.03509     0.94035    -2.56620
 H    -0.89718     0.27730     2.57026
 H     0.03257    -0.94188     2.56306
 H     0.87686     2.51889    -0.37803
 H     0.11068     2.51246     0.95213
 H    -0.88426    -2.51887     0.36115
 H    -0.09315    -2.51305    -0.95380
