   26
 
Mn     0.00000     0.00000     0.00000
 S     2.32248     0.00000     0.00000
 C     2.77210     1.81094     0.00000
 C     1.84623     2.62401    -0.87692
 S     0.04315     2.22259    -0.59771
 S    -2.12623    -0.13985    -0.86994
 C    -2.68649    -1.86039    -0.40608
 C    -1.56520    -2.86490    -0.55477
 S     0.02361    -2.28603     0.24128
 N    -0.40312     0.38183     1.94088
 C    -1.36344     1.22656     2.38697
 N    -1.34024     1.27314     3.78092
 C    -0.32206     0.42198     4.21625
 C     0.25207    -0.12686     3.07306
 H     3.81275     1.85865    -0.36211
 H     2.77332     2.16961     1.04251
 H     1.94455     3.70341    -0.67701
 H     2.05540     2.46565    -1.94957
 H    -3.08949    -1.83695     0.61919
 H    -3.52706    -2.09213    -1.08095
 H    -1.34761    -3.08171    -1.61513
 H    -1.81259    -3.82170    -0.06712
 H    -2.06915     1.80202     1.79818
 H    -1.92764     1.81438     4.36541
 H    -0.09155     0.27379     5.24532
 H     1.06582    -0.83275     3.00264
