   17
 
Mo     0.00000     0.00000     0.00000
 C     2.42824     0.00000     0.00000
 C    -1.26020     1.56226     0.00000
 C     0.03271     0.21399     1.97980
 N    -1.46377    -1.11185     0.20246
 O    -1.99081     2.46298     0.00468
 O     0.04182     0.34048     3.13458
 O    -2.43834    -1.79183     0.36813
 C     2.14994    -0.87421    -1.08765
 C     1.52853    -0.10955    -2.12170
 C     1.42799     1.23381    -1.67817
 C     1.99004     1.32115    -0.36310
 H     3.01572    -0.24348     0.86488
 H     2.42692    -1.90681    -1.15452
 H     1.24912    -0.47849    -3.08716
 H     1.09024     2.06522    -2.26615
 H     2.20870     2.22293     0.16966
