   26
 
 I     0.00000     0.00000     0.00000
 P     2.45785     0.00000     0.00000
 N     3.15604     1.51645     0.00000
 N     2.77809     0.38197    -1.80988
 N     3.01583    -1.67381    -0.04295
 N     2.79627    -0.46084     1.76065
 O     3.80712     2.54430    -2.06263
 O     3.60958    -2.69734     2.03712
 C     4.17442     2.11717     0.89602
 C     3.31903     1.63264    -1.45640
 C     1.99402     0.23250    -3.04002
 C     4.00662    -2.30129    -0.94052
 C     3.20948    -1.76454     1.39543
 C     2.08052    -0.24356     3.02392
 H     4.34576     3.14895     0.52183
 H     5.14512     1.59228     0.91134
 H     3.80104     2.18187     1.93472
 H     2.63451     0.53348    -3.89369
 H     1.07716     0.84463    -3.07830
 H     1.71368    -0.82707    -3.18263
 H     4.07896    -3.36518    -0.62919
 H     5.01880    -1.86452    -0.90263
 H     3.65831    -2.27080    -1.98977
 H     2.70399    -0.65720     3.84308
 H     1.09303    -0.73212     3.08195
 H     1.94845     0.83736     3.20779
