   13
 
Nb     0.00000     0.00000     0.00000
 C     2.13800     0.00000     0.00000
 C    -0.42550     1.97340     0.00000
 C     0.09304    -2.06888    -0.52981
 C    -1.69770    -0.73573     0.62581
 C    -0.42253     0.35283    -1.94546
 C     0.11927     0.17027     2.12107
 O     2.90499    -0.68404     0.56735
 O     0.11360    -2.90751    -1.34275
 O    -2.87154    -0.82572     0.71191
 O    -1.20630     0.45916    -2.81864
 O     0.18643     0.82407     3.08734
 O    -1.21771     2.84222     0.08040
