  101
 
Nd     0.00000     0.00000     0.00000
 O     2.45543     0.00000     0.00000
 O    -1.70888     1.77013     0.00000
 O     1.34651    -1.47184     1.48926
 O     0.50414     2.34594     0.68107
 O    -1.91042    -1.53647     0.64127
 O    -2.78415    -3.49717     0.67218
 O     0.38565    -0.06656    -2.55800
 O    -0.06667     2.12115     3.68909
 O    -0.12937     1.55269    -3.87287
 O     1.97943     2.56993     4.19597
 N    -2.88744    -2.32354     0.96432
 N     0.56330     0.56366    -3.67041
 C     0.09176     3.51435     0.85079
 P    -2.57378     3.21035     0.27389
 C     2.13960     4.16319    -0.29778
 C     1.84171     3.96676    -1.78657
 C     0.76391     5.91294     0.86465
 C     0.10737     6.77293    -0.21782
 C    -2.62077     4.07525    -1.28132
 C    -3.07683     5.40736    -1.37459
 C    -3.03414     6.05820    -2.60275
 C    -2.54171     5.40756    -3.73628
 C    -2.10149     4.09461    -3.64686
 C    -2.14309     3.41359    -2.42661
 C    -4.12563     2.73815     0.97028
 C    -4.27542     1.40069     1.39088
 C    -5.50091     0.98550     1.91985
 C    -6.56027     1.87463     2.03393
 C    -6.41102     3.19883     1.61460
 C    -5.20562     3.64060     1.08134
 P     4.10460    -0.29251     0.24156
 C     3.76090    -1.79606     1.27735
 C     2.45161    -1.60284     2.06524
 C    -1.29697     3.82654     1.43862
 C     1.16529    -1.69420     4.15236
 C     0.98197    -0.47937     5.04925
 C     3.66868    -1.68433     4.23802
 C     4.19471    -3.11233     4.40618
 C     4.80096    -0.66493    -1.34157
 C     3.95487    -0.56941    -2.46365
 C     4.46940    -0.83948    -3.73554
 C     5.79794    -1.20448    -3.89658
 C     6.63698    -1.30135    -2.78246
 C     6.15340    -1.03713    -1.50678
 C     4.75825     1.09841     1.10795
 C     6.09470     1.52257     0.93756
 C     6.53779     2.66802     1.58873
 C     5.67466     3.40021     2.40675
 C     4.35952     2.98979     2.57229
 C     3.88693     1.84366     1.92959
 N     0.88868     2.91867     3.71749
 O    -3.83746    -1.81713     1.53825
 O     1.42391     0.15087    -4.42768
 O     0.74939     4.05875     3.22525
 N     2.45345    -1.65706     3.41456
 N     0.90521     4.52071     0.43016
 H    -1.37427     3.21097     2.41920
 H    -1.40341     4.89184     1.76153
 H     2.90419     4.95401    -0.15342
 H     2.56473     3.22259     0.13626
 H     2.71749     3.57142    -2.31322
 H     1.54387     4.89918    -2.27489
 H     1.02246     3.25005    -1.94417
 H     1.77203     6.31732     1.11975
 H     0.19063     5.95956     1.82258
 H     0.02904     7.81646     0.10347
 H    -0.89896     6.42132    -0.46893
 H     0.68585     6.75005    -1.14971
 H    -3.46717     5.96381    -0.51696
 H    -3.38937     7.08386    -2.68118
 H    -2.50667     5.93224    -4.69069
 H    -1.70636     3.57364    -4.52417
 H    -1.78335     2.36765    -2.41866
 H    -3.47658     0.63591     1.31031
 H    -5.60884    -0.05895     2.23002
 H    -7.51303     1.53988     2.44419
 H    -7.24735     3.88940     1.70155
 H    -5.14447     4.68489     0.76106
 H     4.62315    -2.09684     1.92237
 H     3.57572    -2.66256     0.56224
 H     0.32164    -1.76304     3.42113
 H     1.13979    -2.63644     4.74501
 H    -0.08201    -0.28162     5.24418
 H     1.34646     0.45535     4.57443
 H     1.48634    -0.56953     6.01285
 H     4.44777    -1.01089     3.81741
 H     3.43224    -1.24684     5.24184
 H     5.09233    -3.12551     5.03689
 H     4.45245    -3.58412     3.45294
 H     3.44913    -3.75887     4.88914
 H     2.88284    -0.28916    -2.40204
 H     3.79763    -0.76015    -4.59832
 H     6.19035    -1.41734    -4.89171
 H     7.67888    -1.58694    -2.91681
 H     6.85025    -1.13638    -0.66947
 H     6.80937     0.99495     0.29885
 H     7.56499     3.00057     1.45326
 H     6.03305     4.29833     2.91041
 H     3.66406     3.55619     3.21376
 H     2.82541     1.57828     2.09353
