   73
 
Nd     0.00000     0.00000     0.00000
 O     2.55754     0.00000     0.00000
 C    -0.65957     3.55749     0.00000
 C    -0.88323     2.56677     1.03475
 C     1.14330     3.68386     1.39522
 C     0.20168     2.77294     1.97762
 C    -0.67410    -0.36369    -2.48914
 C    -2.09606    -0.02551    -2.68315
 C    -2.23538     1.18259    -3.29771
 C     0.03452     0.69075    -3.22960
 C    -0.91157     1.67385    -3.64884
 C    -0.47940    -1.76860     2.06830
 C    -1.80442    -2.33373     1.81819
 C    -1.70314    -3.59270     1.28915
 C     0.43533    -2.87455     1.83205
 C    -0.30194    -3.96790     1.27676
 C     0.57113     4.14561     0.14619
 H     1.02057     4.88523    -0.47521
 H    -1.38824     3.84478    -0.73327
 H    -1.86708     2.33968     1.37823
 C     0.46071     2.21477     3.22690
 H    -0.25423     1.54756     3.69642
 C     1.61857     2.58834     3.90048
 H     1.80805     2.20074     4.89920
 C     2.52119     3.50315     3.34205
 H     3.39829     3.80463     3.90699
 C     2.29553     4.04682     2.08067
 H     3.00073     4.74721     1.64485
 H    -0.38855    -1.37525    -2.70876
 H    -2.88516    -0.71291    -2.44697
 H    -3.13664     1.70570    -3.53868
 C    -0.49616     2.83735    -4.27661
 H    -1.21626     3.58594    -4.59749
 C     0.86730     3.01350    -4.52042
 H     1.21384     3.92412    -5.00372
 C     1.78883     2.02778    -4.16173
 H     2.84115     2.17147    -4.39699
 C     1.38566     0.86453    -3.50463
 H     2.10940     0.09231    -3.27321
 H    -0.32720    -1.14485     2.92357
 H    -2.71282    -1.84716     2.11538
 H    -2.49028    -4.24084     0.97056
 C     0.34361    -5.13198     0.88578
 H    -0.21873    -5.96955     0.48164
 C     1.72243    -5.22422     1.06351
 H     2.24617    -6.12961     0.77022
 C     2.44013    -4.16885     1.63722
 H     3.51165    -4.27512     1.78750
 C     1.80989    -2.98694     2.01678
 H     2.37665    -2.19194     2.48944
 S     4.09549    -0.00007    -0.00004
 C     4.43006     1.73932    -0.06359
 C     3.76309     2.47524    -1.04203
 H     3.06955     2.00179    -1.74780
 C     3.97930     3.84777    -1.14117
 H     3.44141     4.42975    -1.89146
 C     4.86480     4.47700    -0.26692
 H     5.02226     5.55528    -0.33090
 C     5.54381     3.73020     0.69706
 H     6.23978     4.22338     1.37579
 C     5.31451     2.36123     0.81409
 H     5.83839     1.80691     1.59626
 C     4.41749    -0.44555     1.68636
 C     5.07442    -1.65093     1.93082
 H     5.48620    -2.25310     1.11771
 C     5.21680    -2.10810     3.23967
 H     5.73604    -3.04584     3.43633
 C     4.67885    -1.37546     4.29768
 H     4.76792    -1.75006     5.31974
 C     4.01580    -0.17564     4.05052
 H     3.58123     0.39386     4.87443
 C     3.87890     0.28547     2.74368
 H     3.34039     1.22749     2.56976
