   66
 
Nd     0.00000     0.00000     0.00000
 O     2.51570     0.00000     0.00000
 O     0.29595     2.52700     0.00000
 O     0.34804    -2.47839    -0.57469
 O    -1.16980     2.39362    -1.58426
 O     2.35863     0.25447    -2.15929
 O     0.80608    -2.50363     1.55194
 N     0.52423     0.56199     2.48549
 N    -2.39313    -0.56871    -1.71774
 N    -1.81660     1.81220     1.52196
 N    -2.44786    -1.51875     0.97500
Cl     0.90190    -5.42038    -0.82184
Cl     1.93479    -5.10694     1.80559
Cl     3.24904    -3.83014    -0.38869
Cl     4.66523     2.26097    -1.03038
Cl     5.27363    -0.03629    -2.64053
Cl     5.35406    -0.23935     0.19908
Cl     0.63824     5.45069    -0.00011
Cl     0.05212     4.91911    -2.73298
Cl    -2.07452     5.16014    -0.80628
 C     1.68599    -4.29937     0.25905
 C     0.87171    -3.03236     0.43777
 C     4.52585     0.50607    -1.15177
 C     3.03650     0.21199    -1.13991
 C    -0.41353     4.58237    -1.07183
 C    -0.41816     3.08224    -0.87899
 C    -2.89899     2.41481     1.02852
 C    -3.61800     3.39233     1.75528
 C    -3.16854     3.74562     3.00734
 C    -2.00018     3.14308     3.53306
 C    -1.47430     3.50491     4.81469
 C    -0.35709     2.89867     5.28737
 C     0.32822     1.89734     4.52369
 C     1.49757     1.28566     5.04196
 C     2.14989     0.34420     4.28748
 C     1.63239     0.01448     3.01663
 C    -0.13738     1.51463     3.25089
 C    -1.35126     2.16139     2.75707
 C    -2.50927    -1.96587     2.22894
 C    -3.63623    -2.63341     2.76127
 C    -4.68525    -2.91005     1.91995
 C    -4.63616    -2.47663     0.57163
 C    -5.70790    -2.78319    -0.32601
 C    -5.66590    -2.35894    -1.61349
 C    -4.54444    -1.61860    -2.10604
 C    -4.48792    -1.22134    -3.46451
 C    -3.39883    -0.51682    -3.91738
 C    -2.37648    -0.19250    -2.99811
 C    -3.46230    -1.29720    -1.25547
 C    -3.50208    -1.76147     0.12858
 H    -3.18901     2.13883    -0.00062
 H    -4.49868     3.85646     1.31260
 H    -3.69628     4.49580     3.60192
 H    -1.98921     4.28067     5.38501
 H     0.05257     3.16506     6.26583
 H     1.86034     1.58195     6.02957
 H     3.05969    -0.14691     4.63685
 H     2.15807    -0.74602     2.38745
 H    -1.60697    -1.80527     2.84698
 H    -3.64226    -2.93080     3.80917
 H    -5.55905    -3.46787     2.26794
 H    -6.56163    -3.34821     0.05708
 H    -6.48964    -2.57415    -2.30078
 H    -5.31310    -1.48142    -4.13226
 H    -3.30955    -0.20835    -4.95945
 H    -1.51509     0.42733    -3.31800
