   62
 
Nd     0.00000     0.00000     0.00000
 O     2.44650     0.00000     0.00000
 O    -1.90830     1.54575     0.00000
 O    -2.10362    -1.17251    -0.53255
 O     0.67371     0.61935     2.29465
 O    -0.16090     1.47238    -1.97807
 O     0.25079    -1.30348    -2.09178
 O     0.44236    -1.94769     1.10221
 O    -2.02017    -0.44784     2.54060
 O     1.32218     3.10243     0.58746
 O    -0.91793    -2.87367     2.89471
 O     0.16911     0.37277    -4.06709
 O    -1.26710     2.46361    -3.99593
 O     1.50856    -3.54405     2.73111
 S    -0.17916     1.68609    -3.49883
 F     2.44742     2.01099    -3.16301
 C     1.40636     2.68103    -3.65748
 S     0.28986    -3.12855     2.11571
 F    -1.32411    -4.11090     0.20854
 F    -0.35917    -5.65164     1.28568
 F     0.70081    -4.51883    -0.14953
 F     1.76601     3.02218    -4.88756
 F     1.39453     3.82273    -2.97113
 C    -0.18420    -4.41503     0.83986
 H    -1.80847    -1.39518     2.80625
 H    -1.75595     2.22719    -0.71819
 H    -1.95729    -2.00248    -1.04597
 H     1.43609     3.72701    -0.15918
 H     2.86623    -0.74507    -0.48988
 H     0.02420     0.30814     2.97580
 H     0.19346    -0.75250    -2.99470
 H     0.50281    -2.18236    -2.38791
 C    -3.38576    -0.28996     2.20702
 H    -3.95021    -0.43965     3.16335
 C    -3.52787     1.16677     1.74050
 H    -2.80246     1.78022     2.32769
 H    -4.53104     1.54288     2.04015
 C    -3.34252     1.45821     0.25737
 H    -3.73180     2.47440    -0.00246
 C    -3.90481     0.39947    -0.68045
 H    -3.56250     0.59408    -1.72276
 H    -5.01380     0.49442    -0.71929
 C    -3.53610    -1.02159    -0.28039
 H    -4.03138    -1.75797    -0.95896
 C    -3.81837    -1.34445     1.17907
 H    -3.35033    -2.31945     1.45600
 H    -4.91236    -1.52223     1.28345
 C     2.52070     2.99332     1.34466
 H     2.95670     4.02494     1.40733
 C     3.52294     2.07343     0.63464
 H     4.55025     2.42243     0.89648
 H     3.44680     2.23508    -0.46621
 C     3.44122     0.58303     0.91858
 H     4.40105     0.08479     0.63271
 C     3.03633     0.20443     2.33523
 H     3.93160     0.28104     2.99493
 H     2.75353    -0.87842     2.37117
 C     1.91389     1.04493     2.93491
 H     1.77487     0.80179     4.01787
 C     2.06030     2.54190     2.73161
 H     1.07315     3.03001     2.93486
 H     2.74900     2.95009     3.50306
