   33
 
Ni     0.00000     0.00000     0.00000
 N     1.97511     0.00000     0.00000
 N     0.01008     1.97486     0.00000
 O     0.23780    -2.00171    -0.27120
 O     0.02866     0.24137    -2.09043
 O     0.24429     0.03246     2.09104
 C    -0.99558     2.32673     1.04603
 C     1.41771     2.39924     0.33604
 C     2.40681     1.40538    -0.33540
 C    -2.22040     1.37183     0.80579
 O    -3.32704     1.82989     1.13802
 C     0.04773     1.45596    -2.41460
 O     0.40439     1.92727    -3.51103
 H     1.64818     3.43038     0.00360
 H     3.43892     1.63065    -0.00227
 C     1.35691    -2.22530    -0.81005
 O     1.80403    -3.33284    -1.15346
 C     1.45899     0.03817     2.41547
 O     1.93377     0.38626     3.51331
 H     1.55589     2.37375     1.44159
 H     2.38271     1.54418    -1.44091
 C     2.49533    -0.41575     1.34225
 C    -0.40090     2.49648    -1.34329
 C     2.32036    -1.00651    -1.04745
 O    -2.00130     0.24782     0.27563
 H     2.56198    -1.52228     1.41302
 H     3.49414    -0.01737     1.58331
 H     0.00370     3.49272    -1.58447
 H    -1.50696     2.57109    -1.41461
 H     2.07926    -0.61376    -2.06412
 H     3.36815    -1.34050    -1.04562
 H    -0.60541     2.08323     2.06311
 H    -1.32168     3.37699     1.04358
