   30
 
Os     0.00000     0.00000     0.00000
Os     2.75323     0.00000     0.00000
 C    -1.51696     1.11509     0.00000
 C    -0.46419    -0.14685    -1.77037
 C    -1.01043    -1.59876     0.45287
 C     1.80711     2.43168     3.70637
 C     1.04897     1.43184     4.20064
 C     0.55828     0.40554     3.26835
 C     2.25150     2.34344     2.30743
 C     1.34301     2.22553     1.31416
 C     1.45977     1.47733     0.03780
 C     1.29357    -0.88134     1.18924
 C     1.43257    -0.34736     2.56568
 H     2.15644     3.26729     4.30292
 H     0.73607     1.37434     5.23722
 H    -0.50682     0.45085     3.08205
 H     3.31777     2.20275     2.18864
 H     0.34336     2.64831     1.50414
 H     1.38288     2.20070    -0.80902
 H     1.37161    -1.99479     1.22913
 H     2.42509    -0.50711     3.01684
 O    -1.42704    -2.59864     0.84133
 O    -0.67736    -0.32556    -2.91189
 O    -2.36322     1.88598     0.18361
 C     3.23706    -1.32754    -1.17347
 C     3.75596     1.32607    -1.00825
 C     4.27438    -0.63927     0.90298
 O     3.46458    -2.13014    -2.00071
 O     4.17169     2.23378    -1.58050
 O     5.11826    -0.93465     1.64150
