   31
 
Os     0.00000     0.00000     0.00000
 P     2.39242     0.00000     0.00000
 C     0.00065     1.85573     0.00000
 C     0.01714    -0.07157    -1.85726
 C     0.17003    -1.24082     1.22937
 C    -1.86477    -0.19206     0.22001
 O     0.06689     3.00556     0.20335
 O     0.07810    -0.31481    -2.99888
 O     0.31179    -2.06939     2.08675
 O    -2.98167    -0.40430     0.45208
 C     3.14835     0.06580     1.74927
 C     3.32725     1.42005    -0.88746
 C     3.23034    -1.53032    -0.78254
 H     2.69737    -0.79491     2.33743
 H     2.77868     0.99057     2.27206
 C     4.67589    -0.00059     1.90224
 H     4.42318     1.33593    -0.65964
 H     3.00847     2.39653    -0.42743
 C     3.16305     1.52730    -2.41254
 H     4.33778    -1.35872    -0.83481
 H     2.88938    -1.61971    -1.85036
 C     2.98559    -2.87788    -0.07942
 H     4.93195     0.01733     2.97438
 H     5.20338     0.84684     1.44664
 H     5.11601    -0.92391     1.50044
 H     3.73058     2.39776    -2.77833
 H     2.12568     1.68181    -2.74231
 H     3.55398     0.65808    -2.95927
 H     3.37795    -3.69417    -0.70189
 H     1.92124    -3.10986     0.10407
 H     3.48550    -2.95269     0.89693
