   18
 
Pb     0.00000     0.00000     0.00000
 S     2.80129     0.00000     0.00000
 S    -0.17330     2.64613     0.00000
 S     0.55246     1.29285     2.55029
 C     2.92540    -2.71945     0.22723
 C     2.53151    -2.80406    -1.13308
 C     3.15713    -3.96010     0.87493
 N     2.18851    -2.86549    -2.23710
 N     3.34378    -4.97859     1.39149
Pb     3.35151     1.26161     2.55672
 C     0.28941     2.80575     1.67027
 S     3.50004    -1.38982     2.53713
 C     0.45204     4.00886     2.27396
 C     0.88211     4.11676     3.62148
 C     0.20996     5.23729     1.60721
 N     1.26526     4.19710     4.71120
 N     0.01037     6.24380     1.07215
 C     3.06771    -1.52696     0.85634
