   21
 
Pd     0.00000     0.00000     0.00000
Cl     2.21309     0.00000     0.00000
Cl    -0.38598     2.19028     0.00000
 N     0.49696    -2.10560     0.36395
 C    -1.90385    -1.35989     0.20942
 C    -1.56732    -1.46295    -1.27968
 H     1.29282    -2.30429     0.97029
 H    -2.42596    -1.19515    -1.90820
 H    -1.25337    -2.46626    -1.57791
 H    -0.72833    -0.73690    -1.63053
 H     0.40473    -2.85589    -0.30611
 H    -2.83115     0.51461    -0.11742
 H    -2.29991     0.32881     1.43738
 H    -1.44852    -3.90187     1.40212
 H    -2.04131    -2.77840     2.63323
 H    -0.37766    -3.34366     2.69540
 H    -0.41111    -0.91608     1.81286
 H    -2.82886    -1.94586     0.43750
 N    -2.11224     0.10758     0.46814
 C    -1.17475    -3.02808     2.00618
 C    -0.73941    -1.84796     1.15609
