   29
 
Pt     0.00000     0.00000     0.00000
 S     2.33877     0.00000     0.00000
 S     0.07808     2.28047     0.00000
 C    -0.06767    -2.11122    -0.78069
 C    -0.16051    -2.11271     0.62339
 C    -2.00737    -0.04131     0.76403
 C    -2.04794    -0.13768    -0.65965
 N     5.26981     2.15574    -0.01630
 N     2.25990     5.18824     0.03277
 C     2.73895     1.70252    -0.00204
 C     1.78639     2.66155     0.00862
 C     4.12918     1.95739    -0.00912
 C     2.05105     4.04932     0.02114
 C    -1.44047    -2.44903     1.34883
 C    -2.26986    -1.20008     1.69069
 C    -2.43981    -1.41225    -1.36852
 C    -1.23139    -2.30062    -1.71104
 H     0.89335    -2.33728    -1.25968
 H     0.72895    -2.34577     1.22226
 H    -2.04471    -3.15990     0.75034
 H    -1.21488    -3.00548     2.28150
 H    -3.35060    -1.44902     1.68663
 H    -2.05458    -0.89407     2.73742
 H    -2.27787     0.91381     1.23583
 H    -2.31731     0.75163    -1.24287
 H    -3.17200    -1.97812    -0.75780
 H    -2.99242    -1.17585    -2.30084
 H    -0.91274    -2.09410    -2.75607
 H    -1.53693    -3.36780    -1.71652
