   64
 
Pr     0.00000     0.00000     0.00000
 O     2.45540     0.00000     0.00000
 O    -0.09929     2.46020     0.00000
 O    -2.46370     0.00010     0.00008
 O     0.15405     0.44841     2.41795
 O     0.37122    -0.07708    -2.43567
 O    -0.46045    -2.41469     0.32508
 O     0.19352     2.92853     2.94658
 N    -1.75760     1.76706    -2.13014
 N     1.67964    -1.88301     2.05640
 C    -0.23542     3.42410    -1.10481
 C    -1.58533     3.20168    -1.79355
 C    -3.39647     1.06832    -0.42981
 C    -3.15731     1.31110    -1.91782
 C     0.19823     1.02099    -3.43250
 C    -1.27607     1.40765    -3.48660
 C     0.22997    -0.48856     3.50944
 C     1.53757    -1.29530     3.41366
 C    -0.32292    -3.21940     1.57042
 C     1.15572    -3.26724     1.94800
 C     3.36946    -0.35099     1.11908
 C     3.07383    -1.78416     1.54950
 C    -0.98845     3.32469     3.68854
 C    -0.53910     3.73246     5.08404
 C     0.95575     4.05154     4.93517
 C     1.38951     3.35849     3.65052
 H    -0.14781     4.43849    -0.66791
 H     0.64129     3.20680    -1.73686
 H    -1.65252     3.87701    -2.68528
 H    -2.40932     3.54302    -1.12051
 H    -4.42648     0.71850    -0.21768
 H    -3.12892     1.91356     0.22754
 H    -3.92328     2.02437    -2.31764
 H    -3.33631     0.35917    -2.47758
 H     0.87618     1.80075    -3.05004
 H     0.56856     0.62816    -4.40167
 H    -1.86930     0.55199    -3.89723
 H    -1.41681     2.22597    -4.24089
 H     0.17977     0.08420     4.45672
 H    -0.67877    -1.10752     3.41113
 H     2.40025    -0.62667     3.63813
 H     1.54830    -2.06311     4.22726
 H    -0.95888    -2.66873     2.28434
 H    -0.74873    -4.22078     1.36270
 H     1.27537    -3.86409     2.89042
 H     1.72833    -3.84215     1.17939
 H     4.40382    -0.22706     0.74091
 H     3.13533     0.41730     1.87684
 H     3.83784    -2.11011     2.30458
 H     3.21567    -2.47535     0.68353
 H    -1.41048     4.16323     3.10403
 H    -1.66174     2.45659     3.66351
 H    -0.71285     2.93435     5.83050
 H    -1.10263     4.61587     5.46042
 H     1.12473     5.15013     4.88381
 H     1.53523     3.70816     5.81679
 H     1.98296     2.44739     3.81268
 H     1.89558     4.02869     2.93272
 H    -3.00541    -0.77382     0.30216
 H     0.21079     1.46644     2.79285
 H     3.02259     0.22846    -0.78088
 H    -0.07607     2.96616     0.86542
 H    -0.66049    -3.04948    -0.40881
 H     0.54666    -0.90179    -2.95962
