   75
 
Pr     0.00000     0.00000     0.00000
 O     2.44720     0.00000     0.00000
 O     0.02220     2.44766     0.00000
 O     1.33536    -1.99382    -0.67643
 O    -2.23512     0.82404     0.73806
 O    -1.53150    -1.57090    -1.29540
 O    -1.32376    -2.78340    -3.06332
 O     0.56129    -0.79247     2.42242
 O    -0.13950     2.83346    -3.47334
 O     1.83651    -2.52639     2.56611
 O    -2.00738     2.22815    -2.56466
 N    -1.65143    -2.71108    -1.88912
 N     1.54974    -1.38831     2.97127
 P     2.47101    -3.13812    -1.01881
 P     4.08679    -0.32914    -0.10969
 N    -1.16250     3.25566    -2.99725
 O    -2.08910    -3.64648    -1.23545
 O     2.16780    -0.82512     3.85633
 O    -1.58615     4.37551    -2.90970
 O     2.12209    -4.56597    -0.42121
 O     4.70686     0.22144    -1.47245
 O     4.93719     0.33802     1.05643
 C     4.10741    -2.34557    -0.17323
 C     5.42881    -2.90196    -0.75782
 C     1.73475    -3.44823    -3.51815
 C     0.89248    -4.72244     0.34454
 C     4.38546     1.57076    -1.89768
 C     4.42507     0.37127     2.41338
 O    -3.64149     3.26861    -0.67731
 P    -3.68091     1.46965     1.19659
 O     4.10936    -2.71710     1.14643
 C    -3.28262     0.46596     3.60384
 O    -4.87285     0.65273     0.53673
 C    -4.65092    -0.71068     0.08456
 C    -3.70495     3.24862     0.51730
 O    -3.81299     1.53136     2.78131
 P    -0.04691     4.18764     0.01382
 O    -0.59610     4.52006     1.51939
 C    -0.23592     3.83378     2.71761
 O     1.51803     4.63089    -0.09993
 C     2.61799     3.94414     0.50154
 C    -3.78794     4.43976     1.40294
 O     2.81584    -3.27806    -2.56370
 H     3.25949    -2.57064     1.70376
 H     5.58726    -2.65454    -1.81978
 H     5.47034    -4.00226    -0.65936
 H     6.30475    -2.53965    -0.19090
 H     1.25468    -4.43470    -3.45895
 H     2.33673    -3.36236    -4.44045
 H     0.96273    -2.65799    -3.49621
 H     0.85834    -4.12840     1.27292
 H     1.01892    -5.79550     0.57840
 H    -0.02737    -4.56152    -0.24236
 H     4.68464     1.47337    -2.95818
 H     5.01161     2.31260    -1.38430
 H     3.32242     1.86335    -1.84422
 H     5.21906     1.00133     2.85492
 H     4.41515    -0.62045     2.89261
 H     3.44505     0.85923     2.53319
 H    -3.82385    -0.48238     3.48914
 H    -3.49707     0.90779     4.59430
 H    -2.19749     0.30729     3.49164
 H    -3.75674    -0.87739    -0.54650
 H    -5.56282    -0.81278    -0.53184
 H    -4.66201    -1.42273     0.91913
 H    -2.68854     2.58706    -1.92775
 H    -0.97492     4.24864     3.42232
 H     0.77840     4.09532     3.04463
 H    -0.34428     2.74274     2.66737
 H     2.77669     4.31533     1.52225
 H     3.44389     4.26397    -0.15495
 H     2.55355     2.84855     0.50468
 H    -4.67858     4.46068     2.05037
 H    -3.77702     5.36549     0.79101
 H    -2.89730     4.52552     2.06895
