   55
 
Pr     0.00000     0.00000     0.00000
 O     2.58860     0.00000     0.00000
 O    -1.76563     1.90839     0.00000
 O     0.66466    -0.49069    -2.46778
 O     4.62779    -0.32983     0.57668
 O    -1.28804     3.62518     1.17975
 O    -1.30018    -2.29464    -0.04741
 O    -2.46469    -2.44541     1.73665
 O     1.34072     0.69301     2.96558
 O     1.96637    -2.73813    -0.90888
 O     2.07750     2.62002     0.78745
 O     1.29496     2.44334    -2.09486
 O     1.75237    -2.28036     2.08905
 N    -2.12393    -2.99125     0.69486
 N     3.83957    -0.05577    -0.30907
 N    -2.10273     3.09543     0.43024
 O    -2.45010    -4.08519     0.30691
 O     4.14299     0.17373    -1.47225
 O    -3.14781     3.56215     0.05987
 C     1.82401     2.86832     2.16518
 C     2.41117     1.63587     2.86453
 C     1.64225    -0.50481     3.66492
 C     2.57781    -1.43619     2.89516
 C     2.52853    -3.18480     1.29786
 C     1.64558    -3.65311     0.13692
 C     1.18366    -2.83840    -2.08949
 C     1.55290    -1.57875    -2.87556
 C     0.66121     0.59776    -3.41915
 C     1.78857     1.58286    -3.11783
 C     2.32513     3.19823    -1.44906
 C     1.74532     3.67174    -0.11175
 H     2.34081     3.79037     2.48102
 H     0.73660     2.99170     2.33440
 H     2.77340     1.87382     3.87703
 H     3.22879     1.18642     2.25800
 H     2.05679    -0.25161     4.65693
 H     0.63592    -0.95152     3.80685
 H     3.16304    -2.07330     3.58117
 H     3.27700    -0.87559     2.23674
 H     3.43936    -2.67706     0.91344
 H     2.81635    -4.02558     1.95273
 H     0.56524    -3.62162     0.37402
 H     1.91065    -4.67372    -0.18780
 H     1.49050    -3.74623    -2.64232
 H     0.10308    -2.93130    -1.85902
 H     1.42771    -1.72869    -3.95915
 H     2.58246    -1.22964    -2.63220
 H     0.73240     0.18917    -4.44169
 H    -0.34481     1.04340    -3.28897
 H     2.02870     2.20434    -3.99945
 H     2.71277     1.06460    -2.77865
 H     3.22304     2.56432    -1.28620
 H     2.57578     4.04456    -2.11031
 H     0.64679     3.80847    -0.13869
 H     2.21634     4.61392     0.21649
