   55
 
Pr     0.00000     0.00000     0.00000
 N     2.58020     0.00000     0.00000
 N     0.21585     2.57356     0.00000
 N     0.25679     0.22138     2.56156
 N    -1.16732     0.14822    -2.32163
 N    -2.39817     0.67246     0.71113
 N    -1.11502    -2.32765     0.22359
 N     1.32843    -2.33152    -2.28017
 N     1.75663    -2.73512     1.87852
 N     1.79728     1.69867    -2.86043
 C    -1.57464    -3.38929     0.37372
 C    -2.13967    -4.68413     0.55125
 C     0.37074     0.31966     3.71895
 C     0.51538     0.43542     5.13016
 C     2.29227    -3.59755     2.44098
 C     2.95721    -4.65978     3.13337
 C    -1.68552     0.22955    -3.36338
 C    -2.31348     0.33058    -4.63747
 C     0.30247     3.73596    -0.06206
 C     0.41401     5.15307    -0.13306
 C     2.33115     2.15468    -3.78448
 C     2.99012     2.71688    -4.92445
 C    -3.47812     0.97589     1.03536
 C    -4.79416     1.34590     1.42933
 C     3.74381    -0.03560    -0.06504
 C     5.16563    -0.07610    -0.14281
 C     1.76650    -3.09873    -3.03282
 C     2.30713    -4.04580    -3.95988
 H    -3.23624    -4.66048     0.76482
 H    -1.67843    -5.24944     1.39641
 H    -2.02370    -5.33800    -0.34824
 H     1.56358     0.66644     5.44473
 H     0.23723    -0.49913     5.67644
 H    -0.11552     1.24383     5.57440
 H     3.79690    -4.29728     3.76869
 H     3.39728    -5.41206     2.44011
 H     2.27748    -5.22271     3.81123
 H    -2.20274    -0.59650    -5.25191
 H    -1.89954     1.15829    -5.26308
 H    -3.41265     0.52000    -4.57498
 H    -0.42526     5.63356    -0.69281
 H     1.34883     5.49152    -0.64488
 H     0.42833     5.64450     0.87113
 H     4.06039     2.95192    -4.72629
 H     2.52317     3.66872    -5.26404
 H     2.98075     2.03504    -5.80401
 H    -5.49589     1.46385     0.56650
 H    -4.83325     2.31808     1.98058
 H    -5.27809     0.59914     2.10691
 H     5.54121    -0.15021    -1.19146
 H     5.60676    -0.94646     0.40014
 H     5.65404     0.83028     0.29134
 H     1.52121    -4.66417    -4.44903
 H     3.00945    -4.76322    -3.47804
 H     2.87719    -3.56133    -4.78436
