   73
 
Pr     0.00000     0.00000     0.00000
 O     2.43470     0.00000     0.00000
 O    -2.10784     1.27142     0.00000
 O     0.18149    -2.28326    -0.95272
 O    -0.03005    -0.65937     2.45233
 O    -0.37261     0.87584    -2.37790
 O     0.42549    -4.25092    -1.79337
 N     0.19840     2.62159    -0.01001
 O    -0.49399     1.24991    -4.48898
 N     4.22926     2.92577    -1.67444
 O    -1.87819    -0.73891     3.53342
 N     0.90575    -3.16517    -1.58072
 N    -0.66253    -0.86410     3.57210
 N    -0.93994     1.45317    -3.37772
 N     3.13437     1.41330    -2.89765
 N    -2.70158     2.24831    -0.57188
 N     1.41624     3.18389     0.15587
 N     3.67631     3.56561    -2.70557
 N     3.69886    -0.14040    -0.04874
 N     0.07904     4.70408    -0.76917
 O     2.03806    -2.80856    -1.89719
 O    -1.88713     2.20087    -3.13558
 O    -0.00562    -1.15550     4.54659
 C     3.91818     1.60282    -1.75562
 C     4.41778     0.57940    -0.86040
 C     3.00577     2.67005    -3.48562
 C     4.88593    -2.27612    -0.05029
 C     4.26859    -1.21103     0.86106
 C     2.60575     0.16557    -3.40954
 C     3.17471    -1.82850     1.72689
 C     5.32283    -0.53331     1.74475
 C     1.38995     4.44677    -0.30849
 C    -0.65205     3.54158    -0.55354
 C    -0.38665     5.90131    -1.43936
 C    -4.16749     1.97393    -0.81311
 C     2.29811     2.95848    -4.73943
 C    -2.06029     3.35584    -0.83729
 C     2.50894     5.39164    -0.36172
 C    -4.74841     3.03162    -1.75251
 C    -4.84510     2.01388     0.55983
 C    -4.27856     0.58622    -1.45264
 H     5.51420     0.46056    -0.86062
 H     5.73220    -1.91313    -0.63990
 H     4.14017    -2.69026    -0.75598
 H     5.24589    -3.12920     0.54112
 H     1.52064     0.26834    -3.65612
 H     2.70320    -0.66009    -2.67624
 H     3.13066    -0.13793    -4.33386
 H     2.44767    -2.40047     1.13256
 H     2.61200    -1.08028     2.31111
 H     3.59694    -2.53046     2.45715
 H     6.18058    -0.14839     1.18414
 H     5.71919    -1.24743     2.48065
 H     4.89429     0.30210     2.31958
 H    -0.84536     5.65335    -2.41914
 H     0.45861     6.59169    -1.63847
 H    -1.13044     6.43944    -0.82078
 H     2.29629     4.03998    -4.95946
 H     1.24081     2.63178    -4.70788
 H     2.76132     2.44753    -5.60147
 H    -2.57599     4.17995    -1.34637
 H     3.41799     4.94670     0.10639
 H     2.30503     6.34384     0.14462
 H     2.83084     5.59245    -1.40651
 H    -4.76938     4.03576    -1.31782
 H    -5.78946     2.78058    -2.00640
 H    -4.20346     3.07173    -2.71162
 H    -4.35997     1.32127     1.27110
 H    -5.89596     1.70756     0.48506
 H    -4.82378     3.00963     1.01527
 H    -3.93852    -0.20784    -0.77357
 H    -3.68024     0.51723    -2.37595
 H    -5.31651     0.35942    -1.72246
