   79
 
Pr     0.00000     0.00000     0.00000
 N     2.60910     0.00000     0.00000
 N     0.13937     2.60547     0.00000
 N     0.16414     0.12500     2.60122
 N     0.66918    -1.81913    -1.74742
 N    -1.80489     0.77255    -1.71936
 N    -1.78073    -1.69825     0.87021
 N    -2.70257     1.47276     1.48100
 N     1.30900     1.30886    -2.86831
 N     1.38258    -2.80515     1.38515
 N     3.41494    -1.05123    -0.33615
 C     1.16915     2.91732    -4.42800
 C     2.25323     2.10208    -4.77667
 C     2.30467     1.10174    -3.76648
 N    -0.20067     3.43157    -1.03407
 C    -0.13162     4.73527    -0.63946
 C     0.26746     4.76800     0.71406
 C     0.42118     3.42120     1.07732
 B    -0.58710     2.93564    -2.46714
 N    -1.78902     1.93425    -2.43880
 C    -4.16750     1.42028     3.18105
 C    -4.50076     2.52509     2.38743
 C    -3.55191     2.51967     1.32744
 B    -2.31839    -0.45095     3.07860
 N     1.83151    -2.53758    -1.75941
 N    -0.83698    -0.15652     3.48772
 C     2.98710    -4.36836     1.23745
 C     2.23358    -4.66206     2.38081
 C     1.23350    -3.65157     2.43494
 B     2.90015    -2.50225    -0.61692
 N    -2.42517    -1.64614     2.07409
 N     2.44311    -3.23907     0.66075
 C     1.90684    -3.29511    -2.89101
 C     0.74562    -3.06158    -3.65852
 C     0.00219    -2.13243    -2.91448
 N     0.62211     2.40682    -3.26883
 C    -2.95534     2.07699    -3.13121
 C    -3.77556     0.96281    -2.85196
 C    -3.02510     0.17589    -1.96469
 N    -3.07532     0.80772     2.60182
 C    -3.18007    -2.76756     2.25464
 C    -3.02209    -3.59483     1.12210
 C    -2.13892    -2.89586     0.28486
 C     3.43887     1.08838     0.18035
 C     4.77462     0.71516    -0.03329
 C     4.72010    -0.65625    -0.36261
 C     1.30504     0.33131     3.35045
 C     1.01563     0.18903     4.71623
 C    -0.36003    -0.12339     4.76503
 H     0.78413     3.78584    -4.92437
 H     2.90329     2.20087    -5.61383
 H     2.99308     0.28475    -3.66936
 H    -0.35486     5.56101    -1.28973
 H     0.40999     5.63012     1.32318
 H     0.68798     3.00841     2.03443
 H    -0.99311     3.92906    -3.06732
 H    -3.46403     3.20342     0.50553
 H    -5.29065     3.22299     2.53636
 H    -4.63164     1.06309     4.07877
 H     0.45518    -3.52008     3.16137
 H     2.37102    -5.46462     3.06651
 H     3.83560    -4.88245     0.83171
 H    -0.93719    -1.66948    -3.16138
 H     0.49818    -3.49288    -4.60043
 H     2.73416    -3.94389    -3.11272
 H     3.87019    -3.12390    -1.04663
 H    -3.30032    -0.74780    -1.48632
 H    -4.75338     0.77190    -3.22866
 H    -3.16431     2.91662    -3.76829
 H    -1.73632    -3.19361    -0.66747
 H    -3.47093    -4.54544     0.95086
 H    -3.77637    -2.94260     3.13116
 H    -2.88106    -0.82571     4.10562
 H     5.53205    -1.31833    -0.60125
 H     5.64311     1.32878     0.02836
 H     3.04149     2.05833     0.42288
 H    -0.97151    -0.31229     5.62811
 H     1.68399     0.28546     5.53999
 H     2.25012     0.54080     2.88074
