   15
 
Pt     0.00000     0.00000     0.00000
Cl     2.24143     0.00000     0.00000
Cl    -0.04578     2.24120     0.00000
 C    -2.00831     0.06482    -0.71227
 C    -2.01043     0.05780     0.70666
 C     0.09530    -2.00711    -0.71034
 C     0.09809    -2.00707     0.70857
 H    -2.22954     0.97171    -1.27558
 H    -2.32651    -0.79554    -1.29083
 H    -2.23213     0.95932     1.27882
 H    -2.32996    -0.80787     1.27662
 H    -0.76285    -2.34107    -1.28268
 H     1.00256    -2.21376    -1.27902
 H    -0.75818    -2.34053     1.28470
 H     1.00702    -2.21292     1.27485
