   17
 
Pt     0.00000     0.00000     0.00000
 S     2.27455     0.00000     0.00000
 S    -0.02050     2.28433     0.00000
 C     2.64321     1.69773    -0.00065
 C     1.67378     2.66339    -0.00090
 C     4.02361     1.98754    -0.00179
 C     1.95807     4.04541    -0.00374
 N     5.16113     2.21303    -0.00235
 N     2.17861     5.18386    -0.00653
 S    -2.27907    -0.08121    -0.00393
 S    -0.06813    -2.26246     0.00173
 C    -2.68865    -1.71876    -0.00127
 C    -1.70233    -2.69489    -0.00004
 C    -4.06417    -2.02381    -0.00332
 C    -1.99011    -4.07331    -0.00078
 N    -5.19891    -2.26336    -0.00529
 N    -2.21560    -5.21101    -0.00225
