   24
 
Pt     0.00000     0.00000     0.00000
Cl     2.31533     0.00000     0.00000
Cl    -0.09380     2.24311     0.00000
 N    -0.07108    -2.05959    -0.17596
 N     0.24759    -0.04425    -2.07327
 C     0.80275    -1.40237    -2.43264
 C     0.08040    -2.48999    -1.61939
 C    -1.40928    -2.50561     0.36030
 C    -2.51756    -1.56624    -0.15070
 N    -2.08983    -0.12608     0.02781
 H     0.91419     0.68228    -2.39504
 H    -0.61123     0.12725    -2.59987
 H     1.90583    -1.41485    -2.23434
 H     0.70766    -1.61559    -3.52108
 H     0.65428    -3.44461    -1.68746
 H    -0.90887    -2.71914    -2.07070
 H     0.67814    -2.52165     0.38218
 H    -1.36369    -2.50221     1.48085
 H    -1.64682    -3.55876     0.09176
 H    -3.46508    -1.77639     0.40119
 H    -2.75270    -1.75838    -1.21917
 H    -2.45612     0.22169     0.93479
 H    -2.55019     0.45701    -0.67953
Cl    -0.23964    -0.09062     2.23695
