   22
 
Pt     0.00000     0.00000     0.00000
Br     2.43400     0.00000     0.00000
 N    -0.18158     1.95070     0.00000
 N    -2.08133    -0.07271     0.02747
 C    -1.52161    -2.45516    -0.14733
 N    -0.06223    -2.03189    -0.14596
 H    -1.83291     3.28410    -0.53291
 H    -1.97931     2.51674     1.06269
 H    -2.35615     1.15104    -1.71989
 H    -3.59979     1.41903    -0.47404
 H    -2.23305    -1.18342    -1.80655
 H    -3.49272    -1.60952    -0.62122
 H    -1.67006    -3.38352    -0.74133
 H    -1.82841    -2.70307     0.89371
 H     0.24609     2.35422    -0.84331
 H     0.27120     2.41201     0.79890
 H    -2.46329    -0.12547     0.98174
 H     0.37732    -2.33167    -1.02120
 H     0.42568    -2.51398     0.61411
 C    -1.66153     2.33120     0.01259
 C    -2.52024     1.20495    -0.61928
 C    -2.42397    -1.32680    -0.71816
