   96
 
Rb     0.00000     0.00000     0.00000
Rb     5.93694     0.00000     0.00000
 O    -0.32277     2.86794     0.00000
 C     2.96219    -1.12404    -0.21571
 O    -0.19974    -1.62204    -2.73328
 O    -0.66563    -3.14298     0.04101
 O     6.84480     3.05382     0.28567
 O     6.21183     1.80734    -2.58436
 O     6.65315    -1.34761    -2.80815
 O     5.91653    -3.15425    -0.28516
 C    -1.03562     3.23107    -1.17778
 H    -1.11386     4.32993    -1.23023
 H    -2.04761     2.77920    -1.15764
 C    -0.18838     2.65390    -2.31804
 H    -0.11419     3.33997    -3.17839
 H     0.83262     2.38744    -1.96493
 C    -0.15168     0.57996    -3.51381
 H     0.85688     0.41423    -3.07578
 H    -0.04874     0.99525    -4.53000
 C    -0.98819    -0.70552    -3.48262
 H    -1.96705    -0.53025    -2.99281
 H    -1.14775    -1.12909    -4.48879
 C    -0.91837    -2.74706    -2.24094
 H    -1.11392    -3.43236    -3.08293
 H    -1.87899    -2.43239    -1.78550
 C     0.01510    -3.36103    -1.18996
 H     0.15473    -4.44596    -1.32730
 H     1.00541    -2.85477    -1.18895
 C     6.14298     3.42402    -0.89652
 H     6.07064     4.52356    -0.93340
 H     5.12197     2.98304    -0.90385
 C     7.00418     2.85103    -2.02964
 H     7.20398     3.59208    -2.82230
 H     7.96321     2.45547    -1.63885
 C     6.93474     0.88979    -3.39716
 H     7.88778     0.59805    -2.91169
 H     7.14480     1.37430    -4.36583
 C     5.99631    -0.31582    -3.53685
 H     4.99664    -0.09913    -3.10017
 H     5.87982    -0.64391    -4.58299
 C     5.83707    -2.47960    -2.52330
 H     5.67195    -3.04106    -3.45750
 H     4.85755    -2.16182    -2.10137
 C     6.65569    -3.27119    -1.49532
 H     6.73063    -4.34171    -1.75163
 H     7.67197    -2.84306    -1.38278
 H     2.98214    -2.16593    -0.43677
 C     2.96455    -0.06781    -1.16765
 H     2.95180    -0.18089    -2.22603
 C     2.97137     1.16205    -0.45666
 H     2.96827     2.13484    -0.88958
 O    -0.72473     1.50973     2.77457
 C    -0.05711     2.67625     2.30754
 C    -0.98043     3.22317     1.21249
 H    -1.08475     4.31982     1.26306
 H    -1.97959     2.74459     1.24850
 H     0.05593     3.37494     3.15335
 H     0.94551     2.42451     1.89490
 C     0.10202     0.61013     3.50602
 H     1.07491     0.45306     2.98839
 H     0.28159     1.03459     4.50743
 C    -0.71609    -0.68650     3.55029
 O     0.02688    -1.59953     2.75128
 O     6.14403     1.32091     2.87086
 C     6.93287     2.45600     2.53437
 C     6.09797     3.20660     1.48845
 H     6.00438     4.28194     1.71253
 H     5.08520     2.75849     1.38265
 H     7.09164     3.04944     3.45093
 H     7.91210     2.14961     2.11488
 C     6.86266     0.27571     3.51649
 H     7.82582     0.08316     3.00246
 H     7.05287     0.57761     4.56040
 C     5.93317    -0.94085     3.41867
 O     6.61630    -1.82390     2.53459
 C     2.96356    -0.54560     1.08178
 C     2.97485     0.86689     0.93198
 H     3.00008     1.57750     1.72440
 H     2.93207    -1.07688     2.00453
 C     6.65663    -3.47198     0.88815
 C     5.81890    -2.89330     2.03586
 H     5.65364    -3.61910     2.84891
 H     4.83890    -2.51566     1.66747
 H     6.75476    -4.56905     0.94986
 H     7.66338    -3.00882     0.85820
 H     4.94116    -0.65513     3.00341
 H     5.79588    -1.44986     4.38686
 C     0.13640    -3.34254     1.20051
 C    -0.70621    -2.74513     2.33470
 H    -0.80140    -3.42942     3.19467
 H    -1.71438    -2.45933     1.97282
 H     0.31374    -4.42313     1.32628
 H     1.11031    -2.81318     1.10135
 H    -1.73109    -0.52976     3.13338
 H    -0.79327    -1.10197     4.56936
 O    -0.90554     1.49439    -2.72536
