   55
 
Cl     0.00000     0.00000     0.00000
Rh     2.47042     0.00000     0.00000
 C     3.15801     2.00241     0.00000
Cl     1.50000    -0.80265    -2.36525
 C    -1.81540    -2.52405    -0.71140
 C    -1.59800    -1.99424    -2.05320
 C    -0.68710    -2.88683    -2.73435
 C    -0.18238    -3.80323    -1.77036
 C    -0.91424    -3.59163    -0.51835
 C    -2.77153    -1.97643     0.26867
 H    -3.78434    -1.90785    -0.15888
 H    -2.83724    -2.59398     1.17627
 H    -2.48857    -0.95814     0.59236
 C    -2.27618    -0.81989    -2.63221
 H    -3.19501    -1.10540    -3.16713
 H    -2.55843    -0.08923    -1.85523
 H    -1.62774    -0.28355    -3.34538
 C    -0.29175    -2.79392    -4.15262
 H    -0.90334    -3.46913    -4.77298
 H    -0.41673    -1.77511    -4.55436
 H     0.76524    -3.06445    -4.30990
 C     0.86011    -4.82636    -1.97405
 H     0.43482    -5.84208    -1.95306
 H     1.38037    -4.70721    -2.93630
 H     1.63448    -4.77615    -1.18703
 C    -0.70081    -4.34699     0.73050
 H    -1.59074    -4.93526     1.00263
 H     0.14563    -5.04714     0.65459
 H    -0.47447    -3.67262     1.57530
 C     3.09861     1.59497     1.40921
 C     3.92686     0.46830     1.55800
 C     4.57376     0.20333     0.24842
 C     4.19806     1.24502    -0.65033
 C     2.21076     2.20691     2.41565
 H     2.17647     3.30268     2.31960
 H     1.17396     1.83680     2.30032
 H     2.52436     1.97786     3.44433
 C     4.12913    -0.36800     2.75552
 H     5.19808    -0.49809     2.98482
 H     3.64770     0.05409     3.64970
 H     3.70094    -1.37806     2.60715
 C     5.48361    -0.92808    -0.00872
 H     6.35104    -0.91614     0.66910
 H     4.96395    -1.89468     0.14083
 H     5.86574    -0.93335    -1.04065
 C     4.64235     1.40946    -2.04745
 H     5.64273     0.98564    -2.21754
 H     3.94983     0.90103    -2.74487
 H     4.68426     2.46857    -2.34252
 C     2.30792     3.04138    -0.61002
 H     2.34478     3.98674    -0.04778
 H     2.59281     3.26085    -1.64994
 H     1.24824     2.71468    -0.63314
Rh     0.25870    -1.80205    -1.06564
Cl     1.99445    -2.23735     0.20452
