   43
 
 I     0.00000     0.00000     0.00000
Rh     2.63044     0.00000     0.00000
 O     2.52818     2.96480     0.00000
 O     2.78318    -1.60584     2.30037
 O     2.54203    -2.96319     0.00686
 O     2.78598     1.60900    -2.29394
 N     2.59357     1.84115     0.76290
 N     2.65233    -0.41541     1.94020
 N     2.59438    -1.84339    -0.76137
 N     2.65002     0.41842    -1.93795
 N     4.80960    -0.00019    -0.00151
 C     2.39017     3.21307     2.80211
 C     2.52857     1.93273     2.06581
 C     2.60779     0.62787     2.75262
 C     2.64069     0.54079     4.23310
 C     2.38529    -3.18872    -2.83724
 C     2.52095    -1.93091    -2.06266
 C     2.59965    -0.62494    -2.74890
 C     2.62621    -0.55060    -4.22985
 C     5.48987    -0.99385     0.60944
 C     6.88812    -1.03184     0.61963
 C     7.59208    -0.01292    -0.02037
 C     6.88886     1.01220    -0.65110
 C     5.49054     0.98703    -0.62196
 H     2.50812     3.10662     3.88853
 H     3.12458     3.96075     2.45819
 H     1.39189     3.65511     2.62350
 H     2.69903    -0.51395     4.56107
 H     3.51036     1.05629     4.66134
 H     1.73057     0.95914     4.68735
 H     2.34189    -4.07875    -2.18687
 H     1.46002    -3.18534    -3.43861
 H     3.22508    -3.33141    -3.53408
 H     2.70645     0.49894    -4.56817
 H     3.47954    -1.09202    -4.65852
 H     1.70552    -0.95557    -4.67467
 H     4.87805    -1.76838     1.10342
 H     7.40946    -1.84379     1.12066
 H     8.68228    -0.01791    -0.02772
 H     7.41077     1.81890    -1.15993
 H     4.87887     1.76676    -1.10806
 H     2.55213    -2.56602     0.98948
 H     2.53306     2.57196    -0.98246
