   37
 
Rh     0.00000     0.00000     0.00000
 N     2.09495     0.00000     0.00000
 N     0.10056     2.09231     0.00000
 C     2.44001     1.41011    -0.37898
 C     1.52495     2.36893     0.38140
 H     2.50454    -0.23062     0.92007
 H     2.52962    -0.66198    -0.66331
 H    -0.10843     2.51191    -0.92069
 H    -0.54096     2.55854     0.66202
 H     3.52248     1.65086    -0.15587
 H     2.35315     1.53482    -1.48547
 H     1.81775     3.43886     0.16001
 H     1.64379     2.27465     1.48792
 N    -0.01982    -2.09256     0.08556
 N    -0.01257    -0.07003    -2.09369
 N    -0.07234    -0.01222     2.09313
 N    -2.09122     0.08264    -0.09066
 C     0.31268    -2.37973     1.52010
 H    -0.93618    -2.50407    -0.15592
 H     0.65938    -2.56023    -0.53663
 C    -1.43919    -0.40142    -2.41916
 H     0.25364     0.82528    -2.53523
 H     0.61862    -0.77475    -2.50850
 C    -0.47193    -1.42197     2.41580
 H     0.83440     0.21018     2.53565
 H    -0.74645     0.65133     2.50848
 C    -2.36030     0.42817    -1.52569
 H    -2.54709    -0.81255     0.15057
 H    -2.52647     0.78401     0.53053
 H     0.07592    -3.45005     1.79883
 H     1.41521    -2.29261     1.67584
 H    -1.67718    -0.20455    -3.50726
 H    -1.60875    -1.49835    -2.29483
 H    -0.28650    -1.67136     3.50333
 H    -1.57562    -1.53882     2.29081
 H    -3.44011     0.24157    -1.80601
 H    -2.22139     1.52539    -1.68127
