   19
 
Rh     0.00000     0.00000     0.00000
 O     2.16535     0.00000     0.00000
 O    -1.84766     1.10496     0.00000
 O    -0.42249     0.38273    -2.06751
 O     0.09708    -1.91421    -0.95117
 O     0.59684     0.20817     2.05775
 O    -1.33544    -1.26363     1.06775
 H     2.72491     0.79461     0.08141
 H     2.77515    -0.69436    -0.30527
 H    -2.29959    -1.11807     1.05477
 H    -1.12902    -1.57933     1.96686
 H    -0.24811     1.14706    -2.64197
 H    -0.54980    -0.37336    -2.67238
 H     0.24735     0.76786     2.77065
 H     1.48806    -0.05658     2.34933
 H    -2.33555     1.21068    -0.83802
 H    -2.25630     1.73373     0.61671
 H     0.85900    -2.44940    -1.22633
 H    -0.57350    -2.56783    -0.66097
