   16
 
Ru     0.00000     0.00000     0.00000
 C     2.28741     0.00000     0.00000
 I    -2.80502     0.10806     0.00000
 C    -0.18010    -1.84740    -0.70049
 C    -0.16964    -0.57459     1.83257
 C     0.00840     1.91158     0.55914
 O    -0.23233    -2.90114    -1.15768
 O    -0.19973    -0.90716     2.93876
 O     0.02036     3.01868     0.86773
 C     1.89654     0.82275    -1.00989
 C     0.74958     0.46192    -1.83073
 H     1.96206    -1.03946     0.11465
 H     3.07381     0.26048     0.69260
 H     2.35374     1.80121    -1.16922
 H     0.80161    -0.41767    -2.45818
 H     0.20754     1.26000    -2.33350
