   31
 
Ru     0.00000     0.00000     0.00000
 O     2.13816     0.00000     0.00000
 N     0.64996     1.97736     0.00000
 O     1.19787    -1.42295     1.68455
 N    -0.55014    -2.23161     0.03776
 O    -1.29356     1.16218    -1.35059
 O    -4.03364    -1.67244     0.11432
 C     1.98600     2.27154     0.01739
 C     2.46834     3.58552     0.03015
 N     1.62203     4.63209     0.03815
 C     0.30064     4.36147     0.05851
 C    -0.19318     3.04825     0.04954
 C     2.87293     1.05491     0.07031
 N    -1.25203    -4.94355     0.10621
 C    -1.84357    -2.63125     0.11739
 C     0.39572    -3.19364    -0.03479
 C    -2.19877    -3.98557     0.15579
 C     0.03162    -4.55557     0.00803
 C    -2.84099    -1.48485     0.14038
 O    -2.22137    -0.36786     0.15398
 O     4.07262     1.10304     0.19144
 H     3.54795     3.80221     0.03561
 H    -0.37238     5.22772     0.08332
 H    -1.26695     2.82417     0.11238
 H    -2.24412     0.93305    -1.35653
 H    -0.77205     0.42001    -1.87131
 H     2.13906    -1.18423     1.71466
 H     0.68520    -0.56846     1.94601
 H     1.43845    -2.85145    -0.13363
 H    -3.24854    -4.30793     0.22731
 H     0.78394    -5.35270    -0.03479
