   29
 
Ru     0.00000     0.00000     0.00000
 N     2.07929     0.00000     0.00000
Cl    -0.00728     2.35603     0.00000
 N     4.19264    -1.01270    -0.34535
 C     2.77388     0.90511    -0.90625
 C     4.16386     0.23304    -1.16930
 C     3.06780    -0.84850     0.64029
Cl     0.00717    -2.11826     0.11210
 N    -1.91798     0.08761    -0.02078
 C    -2.84262    -0.72984    -0.80323
 C    -2.70402     0.87588     0.92801
 C    -4.17819    -0.73712     0.01303
 N    -3.92716     0.06861     1.24255
 H     2.17068     1.03868    -1.83128
 H     4.98926     0.88182    -0.82618
 H     2.62350    -1.82548     0.92747
 H    -2.42433    -1.74874    -0.93937
 H    -2.10560     1.10575     1.84132
 H    -4.51005    -1.75692     0.25590
 H     4.02359    -1.82362    -0.93624
 H     2.89457     1.90805    -0.44703
 H     4.32110     0.01703    -2.23572
 H     3.49329    -0.36580     1.55282
 H    -2.99008    -0.29430    -1.81310
 H    -3.03576     1.83809     0.46817
 H    -4.98887    -0.24291    -0.55363
 H    -3.74991    -0.54449     2.03632
Cl    -0.03666    -0.20649    -2.19039
Cl     0.17250     0.10010     2.17418
