   22
 
Ru     0.00000     0.00000     0.00000
 O     2.13375     0.00000     0.00000
 O     0.30601     2.26962     0.00000
 O     0.95389     0.89997    -1.86542
 C    -0.44554    -1.38828     1.58186
 C    -0.48314    -2.17098     0.38563
 C    -1.28337    -1.76552    -0.68421
 C    -2.08790    -0.58820    -0.57620
 C    -2.18948     0.07035     0.67119
 C    -1.37271    -0.32312     1.74716
 H     2.16222    -0.79079     0.60892
 H     3.02064     0.38864    -0.02068
 H     0.63894     3.04440    -0.47044
 H    -0.27530     2.58224     0.71941
 H     1.74425     0.96476    -2.41678
 H     0.16508     0.84577    -2.45655
 H     0.08335    -1.78297     2.46927
 H     0.04450    -3.14288     0.35673
 H    -1.39176    -2.40861    -1.57925
 H    -2.79696    -0.34404    -1.38717
 H    -2.98180     0.82724     0.82555
 H    -1.52542     0.11330     2.75278
