   23
 
Ru     0.00000     0.00000     0.00000
 C     2.03020     0.00000     0.00000
 C     1.78007     1.40213     0.00000
 C    -1.76806     1.12759    -0.65581
 C    -1.80967     1.11664     0.76696
 C    -1.73953    -0.10561     1.45563
 C    -1.77112    -1.33543     0.71953
 C    -1.78546    -1.32559    -0.67119
 C    -1.72915    -0.08425    -1.38284
 H     1.90029     1.98512    -0.90083
 H     1.89073     1.98377     0.90313
 H     1.86806    -0.20332     2.16849
 H     1.85008    -1.76836     1.26712
 H     1.86518    -1.76663    -1.27126
 H     1.89150    -0.20110    -2.16993
 H    -1.84061     2.07934    -1.18632
 H    -1.90742     2.05759     1.31020
 H    -1.77993    -0.13520     2.54431
 H    -1.82052    -2.27509     1.27164
 H    -1.85539    -2.25545    -1.23784
 H    -1.78171    -0.08203    -2.47083
 C     1.75963    -0.69367     1.21241
 C     1.77050    -0.69219    -1.21557
