   27
 
Ru     0.00000     0.00000     0.00000
 N     2.11759     0.00000     0.00000
 N     0.53274     2.17624     0.00000
 C    -0.29489    -1.84116    -0.00043
 O    -0.40682    -2.98946    -0.06414
 I    -0.31432     0.44504    -2.65962
 I     0.41861    -0.33658     2.83903
 C     2.88348    -1.11520    -0.10588
 C     4.27276    -1.06842    -0.19339
 C     4.90902     0.17420    -0.17589
 C     4.13766     1.32502    -0.06976
 C     2.74071     1.21700     0.02279
 C     1.87118     2.40005     0.13279
 C     2.37311     3.68968     0.37007
 C     1.48837     4.75964     0.45399
 C     0.12092     4.52771     0.30328
 C    -0.31928     3.22231     0.08088
 C    -2.01378     0.23987     0.15478
 H     2.33262    -2.06518    -0.11720
 H     4.84883    -1.99008    -0.27158
 H     5.99504     0.24033    -0.24379
 H     4.61533     2.30431    -0.06249
 H     3.44240     3.85267     0.49700
 H     1.86037     5.76845     0.63808
 H    -0.59509     5.34639     0.36014
 H    -1.38309     2.97799    -0.03741
 O    -3.12129     0.49928     0.31349
