   27
 
Ru     0.00000     0.00000     0.00000
 N     2.26261     0.00000     0.00000
 N     0.67829     2.15849     0.00000
 C    -0.31674    -1.99807    -0.09442
 O    -0.33905    -3.13510    -0.26130
 I     0.47212     0.39887    -2.77353
 I    -0.38566    -0.35491     2.81547
 C     3.00506    -1.12703     0.01185
 C     4.39380    -1.10756     0.16748
 C     5.03444     0.12047     0.31647
 C     4.27647     1.28903     0.30498
 C     2.88684     1.20355     0.14270
 C     2.01547     2.39535     0.11903
 C     2.51924     3.70028     0.20913
 C     1.63480     4.77591     0.17965
 C     0.26872     4.53017     0.06217
 C    -0.17144     3.20672    -0.02620
 C    -2.00469     0.30041    -0.01206
 H     2.44237    -2.06328    -0.11072
 H     4.95778    -2.03945     0.17024
 H     6.11732     0.16932     0.44024
 H     4.76387     2.25617     0.42119
 H     3.59040     3.87709     0.29778
 H     2.01033     5.79807     0.24708
 H    -0.44912     5.34903     0.03481
 H    -1.23519     2.94873    -0.12748
 O    -3.10090     0.62969    -0.11643
