   13
 
Sb     0.00000     0.00000     0.00000
 O     2.13627     0.00000     0.00000
 O     0.28895     1.98069     0.00000
 O    -0.17002    -0.21863    -1.99003
 O    -0.17920    -0.15540     1.99207
 O     0.12882    -2.01126     0.03927
 O    -1.99268     0.23797    -0.06169
 H     2.59543    -0.81095    -0.07928
 H     1.15220     2.35933     0.08235
 H    -0.91113     0.06090    -2.49336
 H    -0.08290    -0.95177     2.47769
 H    -0.01021    -2.58790    -0.68354
 H    -2.52535     0.67182     0.57177
