   18
 
Sb     0.00000     0.00000     0.00000
Cl     2.42471     0.00000     0.00000
 C    -0.23952     2.14730     0.00000
Cl     0.28118     4.72420     0.03117
Cl     0.82094    -2.50158     3.86906
Cl     0.79985    -2.19296    -4.05852
 C     0.72786     3.05520     0.05174
 C     0.11103    -0.96857     1.85122
 C     0.99960    -1.86284     2.27358
 C     0.05652    -0.95564    -1.86001
 C     1.09449    -1.46308    -2.51936
 H    -1.30574     2.45851    -0.05305
 H     1.81652     2.97115     0.10722
 H    -0.71694    -0.65594     2.53688
 H     1.88161    -2.30624     1.80395
 H    -0.96002    -1.01970    -2.32857
 H     2.16319    -1.52337    -2.29117
Cl    -2.36862    -0.26053     0.05920
