   15
 
Sb     0.00000     0.00000     0.00000
 F     1.96971     0.00000     0.00000
 C     0.00699     2.08706     0.00000
 C    -0.00639    -1.02879    -1.81566
 C    -0.00334    -1.05838     1.79911
 H     0.82631     2.52232    -0.61775
 H     0.14456     2.52592     1.01345
 H    -0.93825     2.53248    -0.38827
 H     0.93181    -0.89640    -2.40295
 H    -0.83617    -0.71963    -2.49239
 H    -0.12428    -2.12905    -1.69525
 H     0.97422    -1.54123     2.03171
 H    -0.23632    -0.42161     2.68181
 H    -0.76108    -1.87491     1.82483
 F    -1.96915    -0.00265     0.01128
