   25
 
Sb     0.00000     0.00000     0.00000
Br     2.60988     0.00000     0.00000
 C    -0.04583     2.14340     0.00000
 O    -0.13777     0.19990     2.08955
 O    -2.12948     0.05367     0.43010
 C    -0.43465     0.42021     4.38474
 C    -1.00508     0.29915     3.01184
 C    -2.37912     0.29389     2.74943
 C    -2.87827     0.17035     1.44293
 C    -4.33903     0.15863     1.13560
 C    -0.13588    -2.10252     0.38913
 H    -1.20142     0.49590     5.16498
 H     0.20914    -0.44537     4.62006
 H     0.21940     1.30644     4.46109
 H    -3.07486     0.38587     3.57247
 H    -4.96883     0.27182     2.02587
 H    -4.59683     0.96577     0.42820
 H    -4.62458    -0.78097     0.63168
 H    -1.18010    -2.46979     0.30798
 H     0.47243    -2.70020    -0.32378
 H     0.22214    -2.35863     1.40820
 H    -1.07211     2.54235    -0.13469
 H     0.57493     2.57073    -0.81721
 H     0.34468     2.56189     0.95127
Br    -0.54384    -0.22007    -2.49524
