   25
 
Sc     0.00000     0.00000     0.00000
 N     2.43249     0.00000     0.00000
 N    -2.43190     0.11657     0.00000
 N    -0.09973    -1.88995     1.53058
 N    -0.03951    -1.53550    -1.88695
 N     0.06907     1.87413    -1.56758
 H     0.82292     1.78531    -2.24149
 H     0.20157     2.75961    -1.08847
 H     0.53333    -2.35572    -1.70870
 H     0.31486    -1.10627    -2.73659
 H    -0.51838    -1.64088     2.42147
 H    -0.64822    -2.65400     1.14638
 H    -2.83616    -0.38559     0.78490
 H    -2.83930    -0.27407    -0.84418
 H     2.80824     0.94277     0.03666
 H     2.81029    -0.44012    -0.83381
 N     0.06674     1.48706     1.94147
 H    -0.86352     1.69614     2.29106
 H     0.50517     2.37535     1.71906
 H     2.81401    -0.50152     0.79663
 H    -2.75563     1.07776     0.06433
 H     0.82351    -2.26343     1.73037
 H    -0.97641    -1.86914    -2.09177
 H    -0.79442     1.95136    -2.09690
 H     0.59036     1.08356     2.71197
