   66
 
Sc     0.00000     0.00000     0.00000
Sc     3.98232     0.00000     0.00000
Sc     2.02376     3.78297     0.00000
 F     1.99654    -0.46292    -0.06503
 F     3.36063     2.06561    -0.27496
 F     0.71819     2.03031     0.21752
 C    -0.65217    -0.13853    -2.32288
 C     0.62246     0.29961    -2.89455
 C     0.55397     1.64379    -3.15552
 C    -0.77481     2.11096    -2.81809
 C    -1.50726     1.05022    -2.35039
 C    -1.84140     0.30689     2.33158
 C    -1.00576    -0.82713     1.87642
 C     0.08409    -0.89456     2.87421
 C    -0.06210     0.12557     3.76677
 C    -1.26240     0.87767     3.42544
 C     1.39747     3.81796     2.90956
 C     2.49609     4.43873     2.14165
 C     2.17814     5.87958     2.14988
 C     0.97861     6.06696     2.77235
 C     0.49135     4.78014     3.24752
 C     2.94681     4.75446    -2.65778
 C     1.62187     4.80244    -2.00668
 C     1.43973     6.22329    -1.65158
 C     2.57259     6.91104    -1.97560
 C     3.51312     5.99457    -2.60388
 C     3.44872     0.63393     2.88406
 C     4.19825     1.65821     3.38229
 C     5.60286     1.38109     3.11686
 C     5.69872     0.18608     2.46658
 C     4.34118    -0.34806     2.23441
 C     4.17057    -0.38198    -2.98223
 C     5.15166    -0.54418    -1.89054
 C     5.32389    -2.00687    -1.76978
 C     4.47505    -2.62732    -2.63848
 C     3.75647    -1.61353    -3.39743
 H    -1.04392    -1.11469    -2.51877
 H     1.43788    -0.36344    -3.10067
 H     1.31682     2.26302    -3.58161
 H    -1.10958     3.11858    -2.95894
 H    -2.54292     1.04332    -2.08204
 H    -2.76709     0.57508     1.86693
 H    -1.50690    -1.74919     1.62270
 H     0.82439    -1.66754     2.88005
 H     0.56282     0.36039     4.60694
 H    -1.60427     1.72692     3.98398
 H     1.37248     2.77728     3.16036
 H     3.50890     4.13186     2.35244
 H     2.83030     6.62411     1.74184
 H     0.45745     6.98991     2.92733
 H    -0.42460     4.65488     3.78793
 H     3.34295     3.87035    -3.11323
 H     0.80065     4.28028    -2.47538
 H     0.53337     6.60992    -1.23352
 H     2.77066     7.95388    -1.83129
 H     4.47455     6.29198    -2.97031
 H     2.39079     0.49585     2.97071
 H     3.85428     2.52517     3.91338
 H     6.39938     2.03035     3.42140
 H     6.58930    -0.33589     2.18417
 H     4.16731    -1.39418     2.43502
 H     3.88513     0.57327    -3.37475
 H     6.03637     0.07430    -1.91478
 H     6.04247    -2.46057    -1.11959
 H     4.34253    -3.67991    -2.78865
 H     3.04693    -1.84340    -4.16732
