   25
 
Sc     0.00000     0.00000     0.00000
 N     2.42168     0.00000     0.00000
 N    -2.44781     0.10781     0.00000
 N    -0.10497    -1.58300     1.84415
 N     0.02286    -1.84580    -1.57624
 N     0.04065     1.58481    -1.83852
 H     0.83522     1.43548    -2.45348
 H     0.09592     2.54529    -1.51304
 H     0.38770    -2.69644    -1.15704
 H     0.59887    -1.64477    -2.38824
 H    -0.63183    -1.21124     2.62918
 H    -0.55515    -2.45197     1.57137
 H    -2.84534    -0.31835     0.83164
 H    -2.85080    -0.37382    -0.79771
 H     2.79335     0.93885     0.10569
 H     2.80423    -0.37700    -0.86087
 N     0.02776     1.82199     1.62488
 H    -0.90765     2.10025     1.90666
 H     0.48255     2.65240     1.25840
 H     2.80109    -0.55526     0.76028
 H    -2.78288     1.06563    -0.03256
 H     0.81716    -1.82511     2.19488
 H    -0.90796    -2.06216    -1.92093
 H    -0.79529     1.51314    -2.41139
 H     0.52592     1.55687     2.46902
