   19
 
Sc     0.00000     0.00000     0.00000
 O     2.15300     0.00000     0.00000
 O     0.00000     2.15300     0.00000
 O     0.00000     0.00000    -2.15300
 O     0.00000    -2.15300    -0.00000
 O     0.00000     0.00000     2.15300
 O    -2.15300     0.00000     0.00000
 H     2.76632     0.79124     0.00000
 H     2.76632    -0.79124     0.00000
 H    -2.76632     0.79124     0.00000
 H    -2.76632    -0.79124    -0.00000
 H     0.79124     0.00000    -2.76632
 H    -0.79124     0.00000    -2.76632
 H    -0.79124     0.00000     2.76632
 H     0.79124     0.00000     2.76632
 H     0.00000     2.76632    -0.79124
 H     0.00000     2.76632     0.79124
 H     0.00000    -2.76632     0.79124
 H     0.00000    -2.76632    -0.79124
