   35
 
 S     0.00000     0.00000     0.00000
Si     2.06114     0.00000     0.00000
 O     2.71528     1.44438     0.00000
 C     2.34757     2.76729    -0.13589
 H     1.23762     2.89107    -0.06787
 C     2.86235     3.27415    -1.50176
 H     2.33896     2.75767    -2.31564
 H     2.70370     4.34556    -1.61159
 H     3.92816     3.05674    -1.61417
 C     3.03977     3.53897     1.01419
 H     2.65720     3.19345     1.98032
 H     2.86437     4.61022     0.93104
 H     4.11701     3.35217     1.00336
 O     2.60078    -0.78530    -1.30474
 C     3.81104    -1.22332    -1.80961
 H     3.51409    -1.57085    -2.83641
 C     4.36947    -2.41141    -1.00087
 H     3.58828    -3.16792    -0.85820
 H     5.22063    -2.86831    -1.50164
 H     4.67925    -2.09416     0.00278
 C     4.87104    -0.10964    -1.93421
 H     4.44315     0.76975    -2.42952
 H     5.73237    -0.45185    -2.50606
 H     5.21951     0.22290    -0.94955
 O     2.78087    -0.78275     1.22633
 C     3.25701    -0.60181     2.49941
 H     3.44761    -1.65538     2.83985
 C     2.24027     0.06834     3.44363
 H     1.25509    -0.40845     3.33677
 H     2.55568    -0.00918     4.48255
 H     2.09970     1.12664     3.19974
 C     4.58603     0.18838     2.48783
 H     5.30792    -0.29268     1.82185
 H     5.01278     0.25788     3.48645
 H     4.42737     1.20364     2.10204
