   22
 
Si     0.00000     0.00000     0.00000
 C     1.88937     0.00000     0.00000
 C    -0.64231     1.67306     0.00000
 C    -1.60746     2.21062    -0.89223
 H    -2.09280     1.71498    -1.70135
 C    -1.83212     3.55274    -0.53052
 H    -2.50076     4.22409    -1.00842
 C    -1.01170     3.85477     0.58049
 H    -0.96064     4.79112     1.07748
 C    -0.27688     2.70080     0.91130
 H     0.42467     2.64189     1.71181
 C    -0.57182    -0.94629     1.53380
 C    -0.58919    -0.94192    -1.52464
 H     2.30221    -1.01552     0.03342
 H     2.26143     0.56470     0.87000
 H     2.26212     0.50555    -0.90513
 H    -0.16656    -1.96465     1.56654
 H    -1.67184    -0.99946     1.54958
 H    -0.25437    -0.40752     2.44095
 H    -0.17451    -1.95680    -1.56784
 H    -1.68919    -1.00746    -1.52345
 H    -0.29092    -0.39893    -2.43650
