  126
 
Sm     0.00000     0.00000     0.00000
 O     2.28870     0.00000     0.00000
 O     0.95793     2.10520     0.00000
 N    -1.47893     1.12880     1.67678
 N     0.32799    -1.76672    -1.78258
 N    -1.58140     0.98202    -1.71856
Sm     3.20628     1.68416    -0.05094
 N     0.63798    -1.76232     1.74805
 N    -2.79106    -1.85491     0.12644
 N    -3.02197     2.49689     2.58206
 N     1.58580    -2.93634     3.41700
 N    -3.36669     1.43535    -3.01241
 N     0.11892    -2.99001    -3.66275
 N    -4.77435    -2.73388     0.69263
 C     1.63817    -1.77950     2.69064
 C     0.52248    -3.70532     2.94055
 N     2.30799     3.38288     2.47333
 C    -0.05611    -2.97271     1.91503
 C     2.44299    -3.31867     4.52482
 C    -0.13634    -1.78181    -3.07694
 C     0.77593    -3.79585    -2.73279
 C     0.90064    -3.03538    -1.57923
 N     4.68771    -0.16127     2.17131
 C    -0.22680    -3.39666    -5.01433
 C    -2.82114     0.54933    -2.12631
 C    -2.46145     2.48122    -3.19855
 C    -1.36482     2.19405    -2.40028
 N     3.28018     3.82065    -2.27577
 C    -4.66961     1.34065    -3.64920
 C    -2.30716     2.20419     1.45497
 C    -2.66251     1.58425     3.57481
 C    -1.71486     0.74401     3.00770
 N     5.34572     0.86865    -2.11655
 C    -4.01760     3.54555     2.73297
 C    -3.86415    -1.72868     0.94873
 C    -4.25982    -3.52923    -0.32438
 C    -3.02662    -2.97266    -0.66639
 N     1.05655     4.39454     4.03251
 C    -6.04780    -2.94682     1.35596
 C     1.12685     3.34351     3.14251
 C     3.00269     4.48591     2.95414
 N     5.70820     3.29244     0.70454
 C     2.23472     5.12859     3.92485
 C    -0.03150     4.70317     4.94202
 C     4.05901     3.87354    -3.39145
 C     2.59129     5.02983    -2.21892
 C     2.95572     5.82048    -3.30700
 N     6.20766    -1.36150     3.30365
 C     4.54977     5.53462    -5.23892
 C     6.63585     1.30143    -2.17727
 C     5.14098     0.08053    -3.24619
 N     7.24290     0.81583    -3.31364
 C     6.31293     0.04265    -4.00070
 C     8.62179     1.02900    -3.71585
 C     5.69036    -1.07110     2.05829
 C     4.57761     0.14016     3.52540
 N     3.88029     5.07756    -4.03433
 C     5.51411    -0.60498     4.24153
 C     7.31517    -2.25316     3.60081
 C     6.61202     3.14478     1.71258
 C     5.98969     4.51585     0.09851
 N     7.44720     4.23732     1.75853
 C     7.06788     5.11369     0.74544
 C     8.52630     4.47165     2.70048
 H     2.36146    -0.98995     2.83746
 H     0.26687    -4.67395     3.34904
 H    -0.91280    -3.21747     1.30275
 H     3.27961    -2.61235     4.66538
 H     1.86145    -3.35040     5.47741
 H     2.87455    -4.33256     4.36089
 H    -0.63742    -0.95169    -3.55636
 H     1.09084    -4.80678    -2.94942
 H     1.33661    -3.30756    -0.63616
 H    -0.89080    -2.66337    -5.51113
 H     0.68579    -3.50760    -5.64210
 H    -0.75333    -4.37907    -5.00947
 H    -3.29553    -0.36651    -1.78147
 H    -2.65450     3.31430    -3.85807
 H    -0.45614     2.75199    -2.26563
 H    -4.59741     1.55049    -4.74033
 H    -5.11413     0.33291    -3.53134
 H    -5.37966     2.07790    -3.21175
 H    -2.37921     2.73624     0.51558
 H    -3.09665     1.58947     4.56429
 H    -1.20675    -0.09909     3.44393
 H    -4.16402     4.11609     1.79518
 H    -5.00500     3.11485     3.01881
 H    -3.72212     4.26768     3.52533
 H    -3.98971    -0.96490     1.69645
 H    -4.77517    -4.39299    -0.71195
 H    -2.31674    -3.30035    -1.39755
 H    -6.22729    -2.19917     2.15124
 H    -6.88842    -2.87916     0.63060
 H    -6.08699    -3.95444     1.82722
 H     0.52276     2.91387     0.19907
 H     2.65738    -0.90321     0.15222
 H     0.35923     2.60396     3.00925
 H     3.98087     4.74058     2.58525
 H     4.71400     3.08520    -3.72770
 H     1.90225     5.24924    -1.42782
 H     7.11368     1.93642    -1.44523
 H     4.20412    -0.39831    -3.43724
 H     6.03535    -1.50878     1.13507
 H     3.87221     0.86398     3.88830
 H     6.66625     2.29904     2.37812
 H     5.41568     4.87720    -0.73314
 H     2.43438     6.01055     4.51495
 H     2.63898     6.81008    -3.59605
 H     6.53209    -0.45786    -4.93057
 H     5.72555    -0.63304     5.29856
 H     7.56130     6.05564     0.56678
 H    -0.86060     3.98457     4.85011
 H     0.32242     4.67913     6.00022
 H    -0.43250     5.72402     4.74369
 H     5.26444     4.78408    -5.62440
 H     3.81389     5.74597    -6.04662
 H     5.11717     6.47283    -5.04308
 H     8.76722     0.79796    -4.79395
 H     8.93510     2.07993    -3.55448
 H     9.31022     0.37264    -3.14046
 H     7.73302    -2.70941     2.68205
 H     8.14075    -1.70588     4.10850
 H     6.99851    -3.07684     4.27487
 H     8.60463     3.65983     3.44731
 H     9.50494     4.54531     2.17384
 H     8.36634     5.42424     3.25578
