  100
 
Sm     0.00000     0.00000     0.00000
 O     2.35490     0.00000     0.00000
 N     3.30999     2.03697     0.00000
 N    -0.26381    -2.42209     0.59914
 N    -0.28944     2.35192    -0.85001
 N    -1.65996    -0.39950    -1.96284
 N    -2.38706     0.05090     1.08605
 N     0.26366    -0.12952     2.64202
 N     1.28098     0.27053    -3.17273
 N     0.53666     1.17801    -3.86010
 N    -1.03143    -2.83107     1.67051
 N    -0.69805     2.67885    -2.12723
 N    -1.79938     0.48493    -3.01179
 N    -0.55768    -0.96584     3.36835
 N    -2.73184    -0.89930     2.02251
 C     3.42913     0.67677    -0.15695
 C     4.67005     0.05532    -0.46256
 C     5.76709     0.86636    -0.67638
 C     5.64325     2.25726    -0.57103
 C     4.39935     2.79027    -0.22094
 C    -2.62423    -1.37516    -2.16319
 C    -3.35651    -1.10357    -3.33385
 C    -2.80026     0.08257    -3.85218
 C    -3.20473     0.79760    -5.07856
 C    -2.84719    -2.52317    -1.26770
 C     2.39876     0.02241    -3.90554
 C     2.36723     0.79484    -5.10187
 C     1.16831     1.51883    -5.04232
 C     0.63744     2.48646    -6.02222
 C     3.43934    -0.92084    -3.45456
 C    -0.08333     3.55847    -0.19281
 C    -0.38959     4.63087    -1.04500
 C    -0.76832     4.03617    -2.26815
 C    -1.19422     4.73253    -3.49762
 C     0.42699     3.64102     1.18689
 C     0.25062    -3.57584     0.02706
 C    -0.20251    -4.70215     0.73597
 C    -1.00771    -4.19230     1.77835
 C    -1.72835    -4.95017     2.81866
 C     1.13177    -3.54155    -1.15460
 C    -3.53144     0.78241     0.83932
 C    -4.59710     0.28534     1.61965
 C    -4.05226    -0.77954     2.36323
 C    -4.73279    -1.65403     3.33723
 C    -3.57585     1.89964    -0.11936
 C     1.14342     0.42076     3.55068
 C     0.86536    -0.06242     4.84806
 C    -0.22012    -0.94545     4.69429
 C    -0.89583    -1.71668     5.75473
 C     2.21084     1.36721     3.18953
 B    -0.81829     1.65833    -3.30720
 B    -1.65516    -1.80783     2.67198
 H     4.71968    -1.02230    -0.51383
 H     6.73320     0.42981    -0.92737
 H     6.48896     2.90409    -0.75383
 H     4.25535     3.87059    -0.10697
 H    -4.15743    -1.67086    -3.74161
 H    -3.44981     1.85453    -4.89143
 H    -4.10249     0.33782    -5.52420
 H    -2.41708     0.76211    -5.85058
 H    -3.03075    -2.21223    -0.22599
 H    -1.99014    -3.21657    -1.25776
 H    -3.72453    -3.11076    -1.57330
 H     3.10467     0.81672    -5.86600
 H    -0.43401     2.34735    -6.22375
 H     1.15936     2.38721    -6.98874
 H     0.79096     3.52332    -5.68189
 H     3.34648    -1.14140    -2.37545
 H     4.44639    -0.50354    -3.60616
 H     3.38447    -1.87113    -4.00374
 H    -0.33455     5.66965    -0.82811
 H    -2.17524     4.38756    -3.86002
 H    -0.46565     4.60470    -4.31622
 H    -1.28436     5.81790    -3.32511
 H    -0.16151     3.06432     1.91255
 H     0.44565     4.67823     1.55114
 H     1.48281     3.28422     1.21959
 H     0.01716    -5.72429     0.54023
 H    -2.80394    -4.71436     2.84253
 H    -1.31788    -4.76074     3.82461
 H    -1.64626    -6.03656     2.64509
 H     0.63697    -3.10975    -2.04180
 H     1.46339    -4.54975    -1.44362
 H     2.05115    -2.95364    -0.96805
 H    -5.59981     0.63847     1.64015
 H    -4.64618    -2.72001     3.07454
 H    -5.81100    -1.42590     3.38618
 H    -4.33554    -1.52320     4.35709
 H    -2.80175     2.65995     0.07960
 H    -4.54495     2.41672    -0.10083
 H    -3.42281     1.55016    -1.15711
 H     1.37280     0.18245     5.74980
 H    -1.65069    -2.42623     5.38746
 H    -1.40556    -1.03981     6.46242
 H    -0.16195    -2.30143     6.33675
 H     2.57622     1.23698     2.15271
 H     3.09526     1.23824     3.83304
 H     1.88757     2.41293     3.30233
 H    -1.34042     2.29962    -4.22166
 H    -2.22057    -2.46650     3.54061
