   90
 
Sm     0.00000     0.00000     0.00000
 N     2.30095     0.00000     0.00000
 N    -0.95091     2.12404     0.00000
 N    -1.07819    -2.06540    -0.06545
 O    -0.19437     0.01700     2.47873
 O    -0.09013    -0.11022    -2.46790
Si    -2.87114    -2.37335    -0.32262
Si    -0.28912    -3.72217     0.06168
Si     3.38864     0.69051    -1.31260
Si     3.40708    -0.66467     1.30736
Si    -0.05138     3.72697     0.11874
Si    -2.73500     2.55068    -0.09325
 C    -3.78333    -3.45291     0.91700
 C    -3.33513    -2.94571    -2.05541
 C    -0.61094    -4.65003     1.66773
 C    -0.52893    -4.92391    -1.36466
 C     4.51591     2.11344    -0.83234
 C     4.39050    -0.56625    -2.29215
 C     4.36506     0.61818     2.29574
 C     4.57940    -2.05054     0.82459
 C    -0.59226     4.97454     1.41723
 C     0.14354     4.62593    -1.52262
 C    -3.50110     2.98898     1.56999
 C    -3.30605     3.81349    -1.36316
 C    -0.52491    -1.12041     3.31797
 C    -0.73214    -0.61587     4.74211
 C     0.02179     0.72025     4.77504
 C     0.01607     1.18215     3.32204
 C    -0.50710     0.94166    -3.37403
 C     0.25388     0.73595    -4.68085
 C     0.70697    -0.73327    -4.64984
 C     0.27693    -1.25690    -3.28103
 H    -3.44600    -1.03555    -0.18586
 H     1.13608    -3.39354     0.07150
 H     2.41697     1.24736    -2.25378
 H     2.45070    -1.25757     2.24210
 H     1.29748     3.30857     0.50151
 H    -3.34866     1.28240    -0.48577
 H    -3.45966    -3.25317     1.95183
 H    -3.63254    -4.52722     0.71765
 H    -4.87108    -3.27110     0.87214
 H    -2.77771    -2.38927    -2.82581
 H    -4.41033    -2.79847    -2.25132
 H    -3.12541    -4.01802    -2.20018
 H    -0.56625    -3.98074     2.54071
 H     0.13495    -5.44839     1.82143
 H    -1.60237    -5.13178     1.66887
 H    -0.48569    -4.41504    -2.34145
 H    -1.49776    -5.44736    -1.30159
 H     0.25391    -5.70197    -1.36320
 H     4.00184     2.81228    -0.14774
 H     4.83273     2.69007    -1.71739
 H     5.43217     1.76398    -0.32931
 H     3.82992    -1.50684    -2.42486
 H     5.33786    -0.81505    -1.78540
 H     4.65298    -0.18572    -3.29206
 H     5.29711     0.91222     1.78505
 H     4.65048     0.23517     3.28840
 H     3.76838     1.53401     2.44564
 H     5.47729    -1.67313     0.30885
 H     4.08341    -2.77238     0.15114
 H     4.92813    -2.60774     1.70994
 H    -0.82034     4.49429     2.38273
 H    -1.48776     5.53634     1.10174
 H     0.20158     5.71966     1.60063
 H     0.47080     3.94026    -2.32098
 H     0.89725     5.42848    -1.44950
 H    -0.79988     5.09383    -1.84659
 H    -3.13829     2.31750     2.36525
 H    -4.60034     2.90891     1.54276
 H    -3.25939     4.02203     1.86826
 H    -2.82205     3.66398    -2.34224
 H    -3.09941     4.84803    -1.04028
 H    -4.39615     3.74381    -1.52258
 H    -1.43588    -1.54490     2.86477
 H     0.33611    -1.80504     3.22567
 H    -1.80276    -0.47404     4.97269
 H    -0.35050    -1.32462     5.49457
 H     1.05050     0.58741     5.15656
 H    -0.45986     1.45052     5.44492
 H    -0.82756     1.85421     3.08675
 H     0.97932     1.60328     2.99090
 H    -0.24901     1.87831    -2.85399
 H    -1.59911     0.83314    -3.48122
 H    -0.37392     0.95198    -5.55971
 H     1.12399     1.41384    -4.75313
 H     1.79987    -0.81254    -4.79045
 H     0.25416    -1.31654    -5.46790
 H    -0.62118    -1.89540    -3.32094
 H     1.08926    -1.74830    -2.72197
