   22
 
Sm     0.00000     0.00000     0.00000
 O     2.41235     0.00000     0.00000
 O    -1.75773     1.65345     0.00000
 O     0.46301     2.14456     1.06592
 O     1.04453     1.71918    -1.38107
 O     0.56961     0.03574     2.39658
 O     1.66935    -0.61651     4.12251
 O     1.47839     1.69416    -3.48983
 O    -0.60653    -1.17513    -0.50133
 O    -2.45182    -2.59659    -1.24618
 N     0.58017    -0.41418     3.61647
 N    -1.38017    -2.96024    -1.25819
 N     1.25899     2.36236    -2.49467
 O    -0.49906    -0.59992     4.15418
 O    -0.37432    -3.47361    -1.33383
 O     1.23604     3.57787    -2.44006
 H     2.82427     0.61767    -0.63925
 H     1.00352     2.82622     0.63460
 H     3.00302    -0.08053     0.76281
 H     0.67495     2.09801     2.02040
 H    -1.47611     2.59082     0.02746
 H    -2.71682     1.65443     0.05378
