  110
 
Sm     0.00000     0.00000     0.00000
 O     2.27348     0.00000     0.00000
 O    -0.43147     2.28238     0.00000
 O    -1.66862    -1.20396    -1.16351
 O    -0.03000    -1.92744     1.51700
 O     0.25974     1.04779    -2.20281
 O    -1.57751     0.24808     1.88069
 O    -0.04601     0.60844     3.40653
 O     0.67054    -1.98931    -2.08010
Sm    -3.74185     2.83869    -1.33806
 O    -3.21092     0.27317    -1.52794
 O    -3.34258     2.09189     1.22437
 O    -1.80443     2.33722    -3.38447
 O     4.18868    -0.04934     1.09261
 O    -1.54002     4.14872    -0.19359
 O    -3.47033     1.71396    -4.65166
 O     3.40046    -0.21427    -4.84819
 O     3.74711     3.53214     2.58819
 C     3.56530    -0.05811     0.05241
 C     4.23126    -0.17132    -1.28863
 C     5.61406    -0.32058    -1.36604
 C     6.23487    -0.44578    -2.61118
 C     5.49016    -0.41192    -3.78695
 C     4.10840    -0.24939    -3.68244
 O    -3.70148     4.95204     0.91962
 O    -5.65451     2.75888    -1.41545
 C     3.46330    -0.13990    -2.45150
 C    -2.78058    -0.89149    -1.69396
 C    -3.52757    -1.85036    -2.52558
 C    -3.21345    -3.20761    -2.50893
 C    -3.95192    -4.09449    -3.29558
 C    -4.99429    -3.63673    -4.09298
 C    -5.27530    -2.26479    -4.10757
 O    -6.29679    -1.87395    -4.90918
 C    -4.54720    -1.35820    -3.33585
 C    -1.22666     0.52881     3.10801
 C    -2.32937     0.73962     4.08032
 C    -3.64925     0.45102     3.74020
 C    -4.67215     0.68063     4.66278
 C    -4.38213     1.18386     5.92512
 C    -3.04786     1.46785     6.24174
 O    -3.04273     5.40298    -2.85605
 C    -2.00902     1.25545     5.33635
 C    -7.01762     2.70020    -1.46987
 O    -7.67192     2.87509    -0.48149
 C    -7.56606     2.40343    -2.82073
 C    -8.94661     2.24268    -2.93124
 C    -9.52039     1.93181    -4.16581
 C    -8.72274     1.77765    -5.29464
 C    -7.34017     1.94650    -5.15504
 O    -6.60653     1.79023    -6.28919
 C    -6.74090     2.25450    -3.93409
 C    -0.50449     3.53197     0.19321
 C     0.62396     4.24370     0.83619
 C     0.68632     5.63679     0.79955
 C     1.77472     6.30044     1.37208
 C     2.80629     5.58992     1.97484
 C     2.72447     4.19042     1.99491
 O    -2.83802     1.96445     7.48836
 C     1.63748     3.50462     1.44656
 C    -2.25477     1.83752    -4.48351
 C    -1.25874     1.45822    -5.52120
 C     0.08100     1.81973    -5.38959
 C     1.00179     1.44225    -6.36910
 C     0.59022     0.71631    -7.48082
 C    -0.75987     0.36249    -7.58539
 O    -1.09336    -0.35210    -8.69133
 C    -1.69932     0.71930    -6.61772
 H     2.43518    -0.08921    -4.66776
 H    -6.45931    -0.89489    -4.84458
 H    -1.88119     2.14614     7.66007
 H     6.20435    -0.32985    -0.44721
 H     7.31686    -0.56844    -2.66135
 H     5.95461    -0.50773    -4.76430
 H     2.38560    -0.04238    -2.39378
 H    -2.38861    -3.56612    -1.89578
 H    -3.70300    -5.15556    -3.28589
 H    -5.58974    -4.31606    -4.70013
 H    -4.77470    -0.29256    -3.37063
 H    -3.88307     0.03525     2.75813
 H    -5.70505     0.45758     4.39184
 H    -5.16273     1.35654     6.66360
 H    -0.97068     1.47543     5.58687
 H    -0.47092     1.51479    -2.78797
 H    -9.57729     2.36636    -2.04707
 H   -10.60106     1.80601    -4.24207
 H    -9.14445     1.52927    -6.26620
 H    -5.63997     1.92100    -6.10867
 H    -5.66932     2.39778    -3.87287
 H    -0.10921     6.20233     0.32080
 H     1.81411     7.38910     1.33956
 H     3.66825     6.08930     2.41369
 H     3.62623     2.54138     2.49851
 H     1.60249     2.42031     1.50629
 H    -3.44789     2.69809     1.95089
 H     0.39901     2.41445    -4.53296
 H     2.05271     1.72627    -6.26867
 H     1.29018     0.42384    -8.26127
 H    -2.05716    -0.57205    -8.71275
 H    -2.75088     0.44530    -6.70228
 H     0.97244     0.83644    -2.80157
 H    -2.81571     1.29470     1.58254
 H    -0.13068    -2.36254    -2.46350
 H     1.37665    -2.62176    -2.20317
 H    -0.91296    -2.24776     1.78282
 H     0.57703    -2.21112     2.22347
 H    -3.66963     5.89112     0.72224
 H    -2.78041     4.75404     1.18965
 H    -3.08039     6.27336    -2.44782
 H    -2.09463     5.24795    -3.00511
