   72
 
Sm     0.00000     0.00000     0.00000
 N     2.52600     0.00000     0.00000
 N     0.65987     2.43974     0.00000
 N     0.37797    -1.78014    -1.76479
 N    -1.58209     0.82545    -1.81120
 N    -1.77729     0.63821     1.73791
 N     0.11184    -1.87121     1.76177
 N     1.34164     1.02496     3.01379
 N    -2.70591    -2.03835    -0.06268
 N     0.23641    -1.48970    -3.10094
 N    -1.31988     0.57841    -3.13738
 N    -0.91655    -2.29567     2.55719
 N    -2.47360    -0.22428     2.53954
 N     3.35399     0.93466     0.56393
 N     1.77783     2.99488     0.56462
 N     2.40287     1.84042     2.79392
 N    -3.12010    -2.34318     1.19248
 C     3.35177    -0.95239    -0.57230
 C     4.69506    -0.62097    -0.35370
 C     4.65696     0.58970     0.37401
 C     1.18693     0.91258     4.35554
 C     2.18407     1.68349     5.01900
 C     2.94158     2.26124     3.99408
 C    -0.04202     3.48514    -0.57521
 C     0.62890     4.69521    -0.35642
 C     1.78599     4.34265     0.37362
 C     1.23675    -2.55494     2.18051
 C     0.91011    -3.41897     3.23642
 C    -0.47199    -3.22450     3.44989
 C    -3.53373    -2.67209    -0.93023
 C    -4.51247    -3.40824    -0.20514
 C    -4.21897    -3.17602     1.14450
 C    -2.12361     1.91280     2.14366
 C    -3.04780     1.84900     3.19692
 C    -3.24542     0.46937     3.42277
 C    -2.87444     1.30933    -1.75103
 C    -3.42282     1.36844    -3.04073
 C    -2.40639     0.87953    -3.89443
 C     0.48143    -3.15477    -1.67193
 C     0.40761    -3.72680    -2.95027
 C     0.23569    -2.63390    -3.83197
 B     2.85512     2.18567     1.36218
 B    -2.39096    -1.78404     2.43217
 B    -0.01739    -0.06790    -3.50999
 H     2.94176    -1.79394    -1.10722
 H     5.56196    -1.15611    -0.66595
 H     5.48235     1.17605     0.73638
 H     0.40750     0.31451     4.78732
 H     2.31510     1.79000     6.07021
 H     3.78941     2.91378     4.05809
 H    -0.95958     3.30900    -1.11317
 H     0.33970     5.67142    -0.67077
 H     2.56716     4.98629     0.73674
 H     2.19588    -2.37980     1.72670
 H     1.55835    -4.07429     3.76976
 H    -1.10838    -3.69913     4.17384
 H    -3.41122    -2.58692    -1.99341
 H    -5.29517    -4.00398    -0.61148
 H    -4.71352    -3.54421     2.02071
 H    -1.68827     2.78148     1.68244
 H    -3.49943     2.65874     3.72082
 H    -3.88087    -0.00319     4.14900
 H    -3.33182     1.56042    -0.81025
 H    -4.39590     1.69634    -3.32287
 H    -2.43094     0.74552    -4.96036
 H     0.57974    -3.64225    -0.71779
 H     0.45688    -4.75871    -3.20871
 H     0.11796    -2.64449    -4.90010
 H     3.82750     2.92970     1.47075
 H    -2.98546    -2.22244     3.41417
 H     0.76274     0.50066    -4.56177
 H     1.10021     0.76588    -3.83363
