  113
 
Sm     0.00000     0.00000     0.00000
 O     2.38311     0.00000     0.00000
 O    -0.86305     2.23417     0.00000
 O    -0.35117    -2.25165    -0.74051
 O     1.03769     0.07507     2.17026
 O    -0.45719     0.95956    -2.19122
 O    -1.83902    -1.24673     1.11926
 O     0.50791    -4.27021     3.52678
 O     2.83630    -4.25608     1.29901
 C     0.57191     0.22057     4.75675
 C     2.03664     0.28414     4.31069
 C     2.12801     0.14644     2.79244
 C     3.35438     0.11019     2.10852
 C     3.42534     0.03861     0.71267
 C     4.75528     0.03259    -0.03829
 C     4.52719    -0.31042    -1.51424
 C     2.82615    -0.85322     4.96856
 C     2.63729     1.64608     4.68689
 C     5.34293     1.44624     0.08508
 C     5.70205    -0.99609     0.59092
 C    -2.34547     2.11847    -4.79501
 C    -0.90249     1.89989    -4.32206
 C    -0.87710     1.97891    -2.79644
 C    -1.29611     3.12334    -2.10079
 C    -1.26893     3.19945    -0.70305
 C    -1.72527     4.44300     0.05769
 C    -3.20473     4.68640    -0.26795
 C    -0.40852     0.52495    -4.78547
 C     0.01879     2.99592    -4.87370
 C    -1.55395     4.23090     1.56596
 C    -0.86865     5.63098    -0.39930
 C    -3.31328    -1.34416     3.30407
 C    -3.32152    -2.58303     2.40146
 C    -2.34706    -2.38577     1.24143
 C    -2.03359    -3.42695     0.34664
 C    -1.06979    -3.28890    -0.65273
 C    -0.81020    -4.38340    -1.68667
 C    -2.13745    -4.72118    -2.38072
 C    -4.72107    -2.79359     1.80887
 C    -2.88473    -3.80978     3.21005
 C     0.19926    -3.90014    -2.73341
 C    -0.26338    -5.61313    -0.95054
 C     0.39569    -5.58194     3.00476
 C     0.97648    -3.32727     2.58256
 C     2.49218    -3.44669     2.40728
 C     2.73893    -3.59267     0.05349
 H    -0.02569     1.00096     4.26833
 H     0.11269    -0.73827     4.48245
 H     0.47494     0.34310     5.83853
 H     4.27029     0.16069     2.67853
 H     3.83190     0.39953    -1.98174
 H     5.46210    -0.29001    -2.08068
 H     4.08201    -1.30581    -1.62839
 H     2.79707    -0.76768     6.06107
 H     2.40431    -1.83412     4.71323
 H     3.87879    -0.85395     4.66699
 H     2.09815     2.46690     4.19907
 H     2.58141     1.81417     5.76781
 H     3.69020     1.72275     4.39443
 H     5.50803     1.72891     1.13090
 H     6.30511     1.51753    -0.43323
 H     4.67487     2.19449    -0.35832
 H     5.97063    -0.73262     1.61989
 H     5.25339    -1.99725     0.61602
 H     6.63426    -1.07096     0.01963
 H    -3.02054     1.36577    -4.37006
 H    -2.72674     3.10370    -4.50495
 H    -2.41562     2.04503    -5.88585
 H    -1.65090     3.97420    -2.66322
 H    -3.82135     3.82644     0.02091
 H    -3.58628     5.56049     0.27106
 H    -3.36470     4.86173    -1.33755
 H    -1.02971    -0.27869    -4.36969
 H    -0.42212     0.43833    -5.87486
 H     0.61563     0.33599    -4.43933
 H    -0.31565     3.99693    -4.57943
 H     1.04578     2.87134    -4.50963
 H     0.05142     2.96656    -5.96828
 H    -2.13543     3.36624     1.91144
 H    -0.50693     4.02297     1.81953
 H    -1.87533     5.10701     2.13489
 H    -1.14501     6.54363     0.14020
 H     0.19626     5.44772    -0.21246
 H    -0.98527     5.83215    -1.46990
 H    -3.60963    -0.44666     2.74701
 H    -3.99061    -1.46157     4.15343
 H    -2.30598    -1.15040     3.69571
 H    -2.56459    -4.36290     0.43887
 H    -1.99279    -5.48298    -3.15413
 H    -2.88297    -5.10481    -1.67544
 H    -2.56860    -3.83703    -2.86466
 H    -5.03451    -1.92764     1.21394
 H    -4.75931    -3.67356     1.15753
 H    -5.46380    -2.93529     2.60133
 H    -2.96272    -4.73465     2.63000
 H    -1.83692    -3.71963     3.53839
 H    -3.49734    -3.92921     4.10929
 H     0.38420    -4.66226    -3.49489
 H    -0.15973    -2.99410    -3.23765
 H     1.15981    -3.64050    -2.27247
 H    -0.01509    -6.41456    -1.65449
 H     0.65195    -5.37456    -0.39165
 H    -0.98833    -6.01477    -0.23412
 H     1.34195    -5.91593     2.56425
 H     0.14382    -6.18262     3.88557
 H    -0.40645    -5.62485     2.26066
 H     0.69014    -2.36553     3.05527
 H     0.43736    -3.43397     1.62376
 H     2.97887    -2.45739     2.33306
 H     2.94315    -4.00780     3.25021
 H     3.33572    -2.67433     0.03986
 H     3.15010    -4.32335    -0.65195
 H     1.69257    -3.37307    -0.19112
