   39
 
Sn     0.00000     0.00000     0.00000
Sn     3.52433     0.00000     0.00000
Cl    -1.84022     1.49414     0.00000
 O     2.41564    -1.97710     0.26780
 C     1.74619     1.28387     0.08785
 C     1.74751     2.27708    -1.08607
 H     0.87201     2.94215    -1.05619
 H     1.76412     1.80784    -2.07515
 H     2.62050     2.94891    -1.04307
 C     1.75522     2.11706     1.37902
 H     2.63688     2.77687     1.42363
 H     1.76124     1.52155     2.29862
 H     0.88610     2.78906     1.43381
 C    -0.27459    -1.06247    -1.82947
 H    -0.64555    -2.07110    -1.67025
 H     0.64516    -1.12085    -2.40986
 H    -1.01187    -0.53772    -2.44244
 C    -0.36057    -1.19492     1.72590
 H    -1.10663    -1.96410     1.54627
 H    -0.72654    -0.57240     2.54552
 H     0.56236    -1.67052     2.06168
 C     4.06980    -0.80096    -1.92222
 H     4.53846     0.00337    -2.49681
 H     3.21052    -1.14584    -2.48785
 H     4.79810    -1.59994    -1.84094
 C     4.37336    -0.76528     1.81969
 H     4.68599     0.06792     2.45139
 H     5.24819    -1.37529     1.61957
 H     3.64303    -1.35493     2.36810
 S     2.41215    -3.34703    -0.35838
 C     4.01665    -4.07086     0.06175
 H     4.78980    -3.71262    -0.63248
 H     4.36287    -3.78725     1.06591
 C     1.36607    -4.32479     0.75200
 H     0.33327    -3.94697     0.72854
 H     1.67778    -4.27581     1.80183
 H     4.00995    -5.16155     0.00975
 H     1.33786    -5.37693     0.45991
Cl     5.11261     1.80842    -0.15134
