   51
 
Sr     0.00000     0.00000     0.00000
 I     3.40291     0.00000     0.00000
 I    -3.40662     0.01088     0.00000
 O     0.59568     1.93063    -1.23934
 O    -0.58645     1.99094     1.13893
 O     0.59301     0.09929     2.29446
 O    -0.59996    -1.98177     1.15384
 O     0.58888    -2.03599    -1.05703
 O    -0.59514    -0.00815    -2.29842
 C     1.50749     1.94945    -2.33331
 H     1.13303     2.63963    -3.09464
 H     1.50228     0.91584    -2.70337
 H     2.51886     2.22278    -2.01047
 C     0.67212     3.11670    -0.45551
 H     0.78985     4.00772    -1.09512
 H     1.54656     3.02529     0.21789
 C    -0.65767     3.13814     0.29853
 H    -0.77069     4.05976     0.89418
 H    -1.53279     3.01860    -0.36944
 C    -1.49991     2.06716     2.22911
 H    -1.12427     2.79274     2.95612
 H    -1.49913     1.05329     2.65019
 H    -2.50979     2.32790     1.89153
 C     1.50907     1.03137     2.86039
 H     1.13704     1.34422     3.84016
 H     1.50662     1.87086     2.15298
 H     2.51862     0.61022     2.93358
 C     0.65774    -1.17257     2.93067
 H     0.77123    -1.06420     4.02253
 H     1.53052    -1.71612     2.51920
 C    -0.67517    -1.82729     2.56725
 H    -0.79671    -2.80309     3.06721
 H    -1.54657    -1.18307     2.79489
 C    -1.51702    -2.95884     0.67119
 H    -1.14679    -3.95338     0.93573
 H    -1.51228    -2.81509    -0.41723
 H    -2.52719    -2.79238     1.06302
 C     1.50153    -2.99236    -0.52704
 H     1.12696    -3.99706    -0.74294
 H     1.49728    -2.79546     0.55294
 H     2.51233    -2.84947    -0.92675
 C     0.65915    -1.95438    -2.47662
 H     0.77283    -2.95548    -2.92579
 H     1.53401    -1.32838    -2.73973
 C    -0.67104    -1.31047    -2.86856
 H    -0.78835    -1.25784    -3.96422
 H    -1.54520    -1.82691    -2.42663
 C    -1.50843     0.89906    -2.90751
 H    -1.13704     1.16266    -3.90184
 H    -1.50145     1.77192    -2.24160
 H    -2.51999     0.47955    -2.95843
