   69
 
Sr     0.00000     0.00000     0.00000
 O     2.52950     0.00000     0.00000
 N    -2.33661     1.40515     0.00000
 F     1.90869     3.38702    -3.72380
 F    -0.10330     2.77933    -3.55987
 F     1.25861     1.60674    -4.66334
 F    -0.93069     2.06096     4.92387
 F    -0.74537     3.26667     3.20066
 F    -2.59928     2.37204     3.65923
 F    -1.16924    -3.89020     2.20851
 F    -2.81183    -2.98079     3.16934
 F    -0.96956    -3.18762     4.18725
 O     0.49598     1.31810    -1.53910
 O    -0.27456     1.16329     1.77667
 O    -0.50426    -1.53714     1.36296
 N    -2.51997    -1.31122    -0.70057
 N     1.24031    -3.46770    -0.85970
 N     0.13096    -1.39875    -2.66199
 C    -2.24713     2.74524    -0.03869
 C    -3.35663     3.56501    -0.28977
 C    -4.59050     2.96391    -0.51764
 C    -4.68994     1.57258    -0.49348
 C    -3.53666     0.82350    -0.22669
 C    -3.58448    -0.65807    -0.18212
 C    -4.67534    -1.33328     0.37903
 C    -4.65800    -2.72918     0.38770
 C    -3.56440    -3.40518    -0.14366
 C    -2.50204    -2.65386    -0.66918
 C     2.10369    -3.96402     0.04325
 C     3.46755    -4.13839    -0.23337
 C     3.94459    -3.78512    -1.49288
 C     3.06038    -3.26328    -2.43679
 C     1.71673    -3.11559    -2.07208
 C     0.72810    -2.55346    -3.02313
 C     0.44369    -3.21017    -4.22775
 C    -0.49991    -2.64294    -5.08256
 C    -1.12709    -1.45495    -4.71540
 C    -0.78185    -0.86344    -3.49307
 C     3.18781     0.34949    -0.96011
 C     2.79215     1.07950    -2.09151
 C     1.48161     1.49299    -2.25540
 C     4.68865    -0.09222    -0.90106
 C     1.14266     2.31574    -3.54239
 C    -0.90592     0.89215     2.79196
 C    -1.32040    -0.36380     3.23907
 C    -1.04964    -1.48642     2.46201
 C    -1.28825     2.13891     3.64637
 C    -1.49424    -2.87851     3.00520
 H    -1.24298     3.16056     0.14032
 H    -3.24710     4.64621    -0.30655
 H    -5.47437     3.57180    -0.71578
 H    -5.63997     1.08229    -0.68511
 H    -5.50767    -0.78789     0.81511
 H    -5.49241    -3.28209     0.82040
 H    -3.51829    -4.49132    -0.13901
 H    -1.58712    -3.12745    -1.06332
 H     1.67253    -4.22051     1.01929
 H     4.13740    -4.53016     0.52756
 H     5.00121    -3.90486    -1.73821
 H     3.40644    -2.96360    -3.42258
 H     0.94422    -4.13978    -4.48247
 H    -0.74332    -3.12680    -6.02849
 H    -1.86581    -0.98864    -5.36061
 H    -1.24699     0.07110    -3.14776
 H     3.53337     1.32434    -2.84669
 H    -1.84500    -0.46199     4.18265
 F     4.95284    -0.90684     0.11491
 F     5.54229     0.91828    -0.76868
 F     5.09782    -0.75587    -1.98060
