   36
 
Ta     0.00000     0.00000     0.00000
 O     2.10855     0.00000     0.00000
 O     0.81200     1.94314     0.00000
 O     5.11830     0.28644     3.17292
 C    -1.77131     1.09033    -0.14609
 C    -0.67781    -0.62038    -1.78286
 C     0.34830    -2.04820     0.16536
 C    -0.78979    -0.36821     1.78120
 C     3.18940     0.68028    -0.00874
 C     4.46065    -0.09394    -0.03272
 C     3.12866     2.08436     0.00902
 C     1.85927     2.67453     0.01185
 C     1.62973     4.15054     0.02972
 C     4.70828    -0.99497     3.63609
 C     3.18445    -0.95908     3.79237
 C     2.87005     0.53432     3.98917
 C     4.13488     1.26111     3.51389
 H     4.95504    -0.04002     0.96060
 H     5.16611     0.29994    -0.77792
 H     4.28533    -1.15975    -0.24647
 H     4.02865     2.68041     0.01366
 H     2.05579     4.62433    -0.86824
 H     2.09510     4.61245     0.91380
 H     0.55310     4.38804     0.05260
 H     5.22845    -1.18102     4.59036
 H     5.06307    -1.69737     2.86656
 H     2.83092    -1.57064     4.63478
 H     2.68061    -1.34837     2.89072
 H     2.64179     0.76126     5.04293
 H     1.97807     0.83394     3.41309
 H     4.58383     1.89936     4.29143
 H     3.98167     1.83933     2.58678
 O    -1.88476     2.24714    -0.22192
 O    -0.13733    -0.34934    -2.78956
 O     1.37449    -2.58924     0.27223
 O    -0.31479     0.04459     2.77831
