   37
 
Ta     0.00000     0.00000     0.00000
Cl     2.42112     0.00000     0.00000
Cl    -0.11264     2.54622     0.00000
 N     0.62887    -1.95564     1.09736
 C     0.74763    -2.33745     2.39820
 C     1.19010    -3.61020     2.77698
 C     1.52382    -4.53225     1.79038
 N     0.32000     0.63891    -2.16481
 C    -0.96052     0.85214    -2.61775
 C    -1.30277     1.95111    -3.41175
 C    -0.31500     2.87148    -3.75808
 C     0.99868     2.63534    -3.36739
 C     1.28811     1.50755    -2.58981
Cl    -1.96830    -1.50510    -0.16617
 C     1.40761    -4.16144     0.45322
 C     0.96082    -2.87368     0.13876
 N     0.32658     0.80323     2.13696
 C     1.27888     1.65762     2.61334
 C     0.97836     2.68726     3.51332
 C    -0.32966     2.83567     3.96240
 C    -1.30421     1.93808     3.52985
 C    -0.95082     0.93899     2.61798
 H     0.47543    -1.58467     3.14945
 H     1.26764    -3.86339     3.83155
 H     1.86970    -5.53055     2.05836
 H    -1.73411     0.10300    -2.33243
 H    -2.33428     2.08232    -3.73215
 H    -0.56999     3.76136    -4.33483
 H     1.79909     3.32075    -3.63757
 H     2.32121     1.27093    -2.28502
 H     1.65618    -4.85436    -0.34788
 H     0.86317    -2.56096    -0.92624
 H     2.30261     1.49995     2.23572
 H     1.76443     3.36734     3.83400
 H    -0.59174     3.64495     4.64437
 H    -2.33399     2.01387     3.87253
 H    -1.71880     0.21891     2.24836
