   38
 
Ta     0.00000     0.00000     0.00000
 N     2.29133     0.00000     0.00000
 N     1.97220     4.92684     0.00000
 C     0.24992    -2.17695    -0.44811
Cl     0.76130     1.90705    -1.49588
 C     1.81512     0.99137     0.79435
 C    -0.84057     0.05497     1.89834
 C     2.88818     0.92234    -3.59402
 C     3.08525     4.52892    -0.52226
 C     3.44674     4.20621    -1.81078
 C     2.38123     4.33649    -2.70539
 C     1.12675     4.77076    -2.24327
 C     0.93623     5.04510    -0.88550
 C    -1.78147     0.65338    -1.04028
 H     3.93310    -0.81483    -0.99423
 H     5.55343     0.89823    -0.04778
 H     4.67577     2.70399     1.43607
 H     2.20421     2.77741     1.94546
 H     0.96067    -2.57435     0.28405
 H    -0.73622    -2.64384    -0.41298
 H     0.67326    -2.10154    -1.46860
 H    -0.06244    -0.44671     2.52917
 H    -0.94205     1.14980     2.11750
 H    -1.80570    -0.48954     1.88106
 H     2.95862    -0.12080    -3.45479
 H     3.52551     1.57430    -3.05981
 H     2.10083     1.32211    -4.17563
 H     4.43202     3.87174    -2.09604
 H     2.51567     4.08696    -3.75693
 H     0.29251     4.84607    -2.93487
 H    -0.02275     5.35235    -0.46719
 H    -1.98103     1.72714    -0.90684
 H    -2.54670     0.00083    -0.58357
 H    -1.56182     0.39191    -2.09927
 C     3.62168    -0.01044    -0.32198
 C     2.64895     1.98809     1.34248
 C     4.49664     0.93428     0.19984
 C     3.99939     1.94538     1.03884
