   21
 
Ta     0.00000     0.00000     0.00000
 C     2.18542     0.00000     0.00000
 C     0.29473     2.21118     0.00000
 C     0.34257    -1.53515    -1.59741
 C    -0.94877    -0.82608     1.85100
 C    -1.48443     0.62969    -1.58045
 H     2.41549     0.64044     0.87090
 H     2.42339    -1.06023     0.20006
 H     2.59801     0.37418    -0.94159
 H    -0.71591     2.58127     0.23114
 H     0.98579     2.35328     0.84362
 H     0.68645     2.56044    -0.95639
 H    -0.65623    -1.97914    -1.71584
 H     0.73599    -1.08147    -2.50719
 H     1.03965    -2.22849    -1.10720
 H    -1.42257     0.03075     2.33988
 H    -1.66710    -1.56638     1.48351
 H    -0.13731    -1.26529     2.43781
 H    -2.06729     1.39915    -1.05864
 H    -2.07009    -0.28592    -1.73114
 H    -0.98324     0.98840    -2.47753
