   21
 
Ta     0.00000     0.00000     0.00000
 C     2.07400     0.00000     0.00000
 C    -0.77400     2.00809     0.00000
 H    -1.86567     2.05608     0.08079
 H    -0.38523     2.37610    -0.97229
 H    -0.23944     2.45519     0.86201
 C    -0.95950    -2.07227     0.14711
 H    -2.03935    -1.97635     0.20929
 H    -0.49156    -2.49657     1.03799
 H    -0.60565    -2.54747    -0.77124
 C    -0.85756    -0.01330     2.08915
 H    -1.94277    -0.09704     2.04108
 H    -0.50156     0.93128     2.51188
 H    -0.36194    -0.88137     2.54127
 C    -0.95052    -0.16738    -2.01834
 H    -2.03316    -0.25306    -1.91853
 H    -0.46519    -1.06689    -2.42366
 H    -0.61912     0.74936    -2.52090
 H     2.40597    -0.34426    -1.00108
 H     2.38478    -0.70442     0.80105
 H     2.39769     1.03888     0.21303
