   52
 
Tb     0.00000     0.00000     0.00000
 O     2.26170     0.00000     0.00000
 O     0.86081     2.12248     0.00000
 O    -0.43620    -0.22491    -2.39555
 O    -0.57155    -0.19851     2.39970
 O    -1.52800     1.18571    -3.59031
 O    -1.26998    -2.02007     3.29100
 N    -1.99019    -1.54774     0.21227
 N    -2.96885     1.14535    -0.89834
 N     0.48604    -3.05869     0.55640
 N    -0.90282     0.13188    -3.55608
 N    -0.93787    -0.84808     3.46145
 O    -0.69683    -0.59570    -4.49967
 O    -0.93597    -0.26836     4.52123
 C     1.57562    -3.84085     0.47108
 H     2.52436    -3.31624     0.29056
 C     1.50876    -5.23407     0.59848
 H     2.41008    -5.83855     0.53333
 C     0.26245    -5.81939     0.80106
 H     0.16785    -6.90367     0.88731
 C    -0.87071    -5.01081     0.89417
 H    -1.84959    -5.46416     1.03692
 C    -0.71933    -3.61965     0.79238
 C    -1.91525    -2.73352     0.91404
 C    -2.96651    -3.21977     1.70995
 H    -2.79469    -4.06288     2.38229
 C    -4.19801    -2.58247     1.69194
 H    -5.00997    -2.90378     2.34712
 C    -4.37327    -1.53802     0.78812
 H    -5.35005    -1.07082     0.66394
 C    -3.27695    -1.07510     0.05812
 C    -3.58904    -0.05230    -0.97876
 C    -4.51933    -0.35885    -1.97481
 H    -4.98291    -1.34017    -2.02913
 C    -4.81704     0.62265    -2.92522
 H    -5.52457     0.40831    -3.72784
 C    -4.19060     1.86057    -2.84712
 H    -4.38243     2.63677    -3.58497
 C    -3.25565     2.08012    -1.82092
 H    -2.70210     3.02444    -1.73504
 C     1.80936     4.26812    -0.08322
 H     0.75959     4.58659     0.03176
 H     2.16776     4.66661    -1.04450
 H     2.39350     4.75401     0.71082
 C     1.93906     2.78464    -0.03671
 C     3.18520     2.13804    -0.04246
 H     4.08507     2.73558    -0.06679
 C     3.29245     0.74356    -0.01775
 C     4.61000     0.04599    -0.01798
 H     4.49477    -1.04315     0.09623
 H     5.25566     0.40017     0.79823
 H     5.14996     0.22128    -0.96072
