   22
 
Tc     0.00000     0.00000     0.00000
Cl     2.31487     0.00000     0.00000
 C     0.17145     2.28468     0.00000
 C     0.16930     1.87934     1.38030
 C    -1.11299     1.33678     1.67539
 C    -1.88935    -1.37571    -0.65571
 C    -1.39340    -1.87077     0.57912
 C    -0.03293    -2.27069     0.38375
 H     0.96422     2.82576    -0.49123
 H     0.97227     2.04489     2.07978
 H    -1.45053     1.00696     2.63980
 H    -2.89539    -1.05577    -0.84929
 H    -1.95791    -1.99163     1.48459
 H     0.59133    -2.77632     1.10005
 C    -1.11922     1.98838    -0.54430
 C    -1.90916     1.41152     0.49503
 C    -0.84780    -1.47457    -1.63310
 C     0.28819    -2.06373    -1.00333
 H    -1.46729     2.26107    -1.52340
 H    -2.94807     1.15319     0.42326
 H    -0.95021    -1.26319    -2.68115
 H     1.20271    -2.37170    -1.48769
