   31
 
Tc     0.00000     0.00000     0.00000
Cl     2.31954     0.00000     0.00000
Cl     0.00731     2.37725     0.00000
 P    -0.02634     0.06790     2.52268
 C     1.48176     0.89505     3.07733
 C    -0.10389    -1.61690     3.16484
 C    -1.47537     1.01494     3.03882
 H     2.41762     0.34229     2.77563
 H     1.54659     1.03776     4.18166
 H     1.59976     1.91967     2.61706
 H     0.76517    -2.25038     2.82207
 H    -1.01470    -2.17438     2.79746
 H    -0.12195    -1.68317     4.27834
 H    -1.49569     2.04814     2.58273
 H    -1.56117     1.15732     4.14171
 H    -2.44529     0.54305     2.70556
Cl    -2.37885     0.01382    -0.00229
Cl    -0.00191    -2.37664    -0.00036
 P    -0.03287    -0.06918    -2.52257
 C    -1.50979    -0.97031    -3.04072
 C    -0.05295     1.61639    -3.16599
 C     1.44977    -0.94631    -3.06967
 H    -2.46515    -0.46173    -2.72043
 H    -1.59276    -1.12130    -4.14209
 H    -1.57148    -1.99671    -2.57392
 H    -0.95043     2.20131    -2.80916
 H     0.83189     2.22380    -2.81627
 H    -0.05781     1.68094    -4.28002
 H     1.52680    -1.97716    -2.61475
 H     1.51851    -1.08637    -4.17390
 H     2.40232    -0.42823    -2.75837
