   19
 
Tc     0.00000     0.00000     0.00000
 O     2.67328     0.00000     0.00000
 O     0.00000     2.67328     0.00000
 O     0.00000     0.00000    -2.67328
 O     0.00000    -2.67328    -0.00000
 O     0.00000     0.00000     2.67328
 O    -2.67328     0.00000     0.00000
 H     3.26282     0.76854     0.00000
 H     3.26282    -0.76854    -0.00000
 H    -3.26282     0.76854     0.00000
 H    -3.26282    -0.76854    -0.00000
 H     0.76854     0.00000    -3.26282
 H    -0.76854     0.00000    -3.26282
 H    -0.76854     0.00000     3.26282
 H     0.76854     0.00000     3.26282
 H     0.00000     3.26282    -0.76854
 H     0.00000     3.26282     0.76854
 H     0.00000    -3.26282     0.76854
 H     0.00000    -3.26282    -0.76854
