   13
 
Tc     0.00000     0.00000     0.00000
 O     1.61200     0.00000     0.00000
 C    -0.32735     2.09708     0.00000
 N    -2.16266    -0.05797     0.00072
 N    -0.46375     3.24553    -0.00013
 C    -3.33525    -0.08934     0.00056
 C    -0.18552    -2.07929    -0.00174
 C    -0.25690     0.01321    -2.06708
 N    -0.28599    -3.23181    -0.01213
 N    -0.35638     0.02179    -3.21933
 N    -0.35814     0.02677     3.21921
 C    -0.25636     0.01711     2.06719
 S    -4.95720    -0.13661    -0.00210
