   20
 
Te     2.78000     0.00000     0.00000
Te    -0.92667     2.62101     0.00000
Te    -0.92667    -1.31050    -2.26986
Te    -0.92667    -1.31050     2.26986
Cl    -2.40000     0.00000     0.00000
Cl     0.80000    -2.26274     0.00000
Cl     0.80000     1.13137     1.95959
Cl     0.80000     1.13137    -1.95959
Cl     4.03585     1.96583     0.00053
Cl     4.03585    -0.98364     1.70204
Cl     4.03585    -0.98239    -1.70276
Cl     0.50812     4.46031     0.00070
Cl    -2.27143     3.47759    -1.70280
Cl    -2.27290     3.47707     1.70190
Cl     0.50812    -2.22974    -3.86298
Cl    -2.27161    -3.21333    -2.16028
Cl    -2.27239    -0.26447    -3.86249
Cl     0.50812    -2.23009     3.86278
Cl    -2.27258    -0.26454     3.86237
Cl    -2.27164    -3.21331     2.16028
