   13
 
Te     0.00000     0.00000     0.00000
 O     1.88416     0.00000     0.00000
 O     0.20260     1.87187     0.00000
 O    -0.31761     0.18796    -1.85545
 O    -1.87086     0.04398     0.20428
 O     0.09663    -1.84167    -0.36508
 O     0.01285    -0.22304     1.86097
 H     2.31589    -0.80284     0.36825
 H     1.05655     2.20694     0.36102
 H    -0.00461     1.01264    -2.28004
 H    -2.38768     0.34412    -0.57541
 H    -0.12471    -2.10011    -1.29094
 H    -0.87806    -0.34926     2.27607
