   45
 
Ge     0.00000     0.00000     0.00000
 C     1.92348     0.00000     0.00000
 C     2.60648     1.20617     0.00000
 C     4.00198     1.19262    -0.01562
 C     4.68717    -0.02152    -0.03109
 C     3.98337    -1.22526    -0.02946
 C     2.58818    -1.21719    -0.01356
 H     2.06980     2.15522     0.01477
 H     4.55351     2.12963    -0.01551
 H     5.77476    -0.02963    -0.04386
 H     4.52044    -2.17049    -0.03993
 H     2.03786    -2.15826    -0.00730
 C    -0.64121     1.68819     0.66328
 C    -0.98784     1.80816     2.00001
 C    -1.43491     3.04237     2.47415
 C    -1.52739     4.13023     1.60697
 C    -1.17598     3.99040     0.26483
 C    -0.72846     2.75860    -0.21403
 H    -0.91858     0.95600     2.67668
 H    -1.71121     3.15393     3.51976
 H    -1.87578     5.09123     1.97872
 H    -1.25093     4.83997    -0.40941
 H    -0.45800     2.64782    -1.26435
 C    -0.64771    -0.26520    -1.79148
 C     0.18227    -0.84303    -2.73938
 C    -0.30476    -1.04432    -4.03168
 C    -1.60797    -0.66653    -4.35224
 C    -2.42846    -0.08539    -3.38604
 C    -1.94597     0.11863    -2.09275
 H     1.20219    -1.13619    -2.48879
 H     0.33311    -1.49596    -4.78751
 H    -1.98569    -0.82510    -5.35981
 H    -3.44370     0.20969    -3.63940
 H    -2.58555     0.57828    -1.33895
 C    -0.63509    -1.41902     1.13287
 C     0.06220    -1.70397     2.29743
 C    -0.40157    -2.72211     3.13125
 C    -1.55010    -3.43463     2.78848
 C    -2.23740    -3.13503     1.61308
 C    -1.77733    -2.11796     0.77537
 H     0.96251    -1.14959     2.56347
 H     0.13346    -2.95923     4.04751
 H    -1.91064    -4.22755     3.43989
 H    -3.13183    -3.69323     1.34750
 H    -2.31221    -1.88625    -0.14601
