   52
 
Tl     0.00000     0.00000     0.00000
 O     2.27706     0.00000     0.00000
 N     0.52766     2.15662     0.00000
 O    -0.53050    -2.18002     0.38871
 N     0.03456    -0.17121     2.21335
 O    -0.36987     0.22809    -2.23522
 N    -2.18863     0.34321    -0.14678
 C    -0.30967     3.17767    -0.03940
 C     2.74448     1.18675    -0.02844
 C     4.13533     1.40285    -0.04787
 C     4.65181     2.69158    -0.07940
 C     3.82931     3.81385    -0.09524
 H     1.92363     5.76377    -0.15687
 H    -0.54900     5.33178    -0.13318
 H    -1.38797     2.98290    -0.03576
 H     4.78989     0.53493    -0.04630
 H     5.73627     2.82752    -0.09645
 H     4.26070     4.80741    -0.12724
 C    -0.28448    -1.43019     2.63633
 C    -0.31617    -1.76274     4.01607
 C     0.02326    -0.72385     4.93984
 C     0.35694     0.51997     4.47978
 C     0.35367     0.77710     3.07562
 C    -0.57380    -2.43985     1.63620
 C    -0.91583    -3.72950     2.08536
 C    -0.95707    -4.01848     3.44279
 C    -0.66310    -3.06053     4.40880
 H     0.01528    -0.95369     6.00509
 H     0.63195     1.32637     5.15599
 H     0.62555     1.77006     2.69970
 H    -1.13691    -4.49070     1.34147
 H    -1.22408    -5.02935     3.76160
 H    -0.69512    -3.31785     5.46093
 C    -2.59679     0.51326    -1.43875
 C    -3.96185     0.73142    -1.76215
 C    -4.89046     0.74277    -0.67379
 C    -4.44848     0.55027     0.60611
 C    -3.05663     0.34838     0.84907
 C    -1.59976     0.44587    -2.49031
 C    -2.03116     0.63748    -3.81659
 C    -3.37115     0.86714    -4.09877
 C    -4.33701     0.91585    -3.09796
 H    -5.94612     0.89991    -0.89387
 H    -5.13132     0.54140     1.45264
 H    -2.69631     0.18515     1.87106
 H    -1.28941     0.59133    -4.60986
 H    -3.67646     1.01013    -5.13858
 H    -5.37663     1.08897    -3.34955
 C     1.87932     2.35112    -0.02893
 C     2.43863     3.65520    -0.07781
 C     1.52087     4.75219    -0.11195
 C     0.17328     4.51949    -0.09659
