   51
 
Ti     0.00000     0.00000     0.00000
 C     2.41775     0.00000     0.00000
 C     1.98291     1.36658     0.00000
 C     1.25263     1.60138     1.20663
 C     1.25477     0.37415     1.97036
 C     1.98792    -0.60219     1.22442
 C    -2.05395     1.06883    -0.69000
 C    -2.32405    -0.33007    -0.56672
 C    -2.15260    -0.69558     0.81063
 C    -1.73717     0.46727     1.53125
 C    -1.67163     1.56708     0.59537
 C     0.39537     0.59479    -2.01621
 C    -0.06811    -2.14024     0.07264
 C     0.10623     1.82241    -2.62472
 C     0.38287     2.03934    -3.96842
 C     0.96819     1.00464    -4.71280
 C     1.30563    -0.20912    -4.12375
 C     1.03153    -0.39614    -2.76496
 C     0.14891    -2.95744     1.18943
 C     0.11088    -4.34162     1.08260
 C    -0.15452    -4.91566    -0.16936
 C    -0.41243    -4.12822    -1.28627
 C    -0.38635    -2.73658    -1.14793
 H     3.12349    -0.43066    -0.69799
 H     2.29984     2.12501    -0.70552
 H     0.97637     2.57270     1.59141
 H     0.97534     0.28774     3.01028
 H     2.32876    -1.56044     1.59733
 H    -2.28517     1.67143    -1.55965
 H    -2.78259    -0.95059    -1.32505
 H    -2.45992    -1.63621     1.25193
 H    -1.72228     0.56415     2.60741
 H    -1.60040     2.61068     0.86552
 H    -0.33096     2.64208    -2.05147
 H     0.15652     2.98647    -4.44827
 O     1.16459     1.33991    -6.02023
 H     1.78156    -1.00237    -4.68797
 H     1.36309    -1.34369    -2.32218
 H     0.33857    -2.52264     2.17273
 H     0.28154    -4.98086     1.94344
 O    -0.13947    -6.27920    -0.13963
 H    -0.64256    -4.56558    -2.25054
 H    -0.65046    -2.14800    -2.03534
 C    -0.40566    -6.95410    -1.35927
 C     1.75216     0.35611    -6.85739
 H    -1.41593    -6.73225    -1.71651
 H     0.34811    -6.71094    -2.11433
 H    -0.32628    -8.00924    -1.06421
 H     2.76355     0.10923    -6.52021
 H     1.12112    -0.53590    -6.91621
 H     1.78589     0.86668    -7.82941
