   27
 
Ti     0.00000     0.00000     0.00000
Cl     2.28944     0.00000     0.00000
 N     0.01547     2.19878     0.00000
 C     0.03111     5.00369    -0.00173
 C     0.85149     2.89182    -0.81825
 C     0.88183     4.28947    -0.84105
 C    -0.82765     4.30031     0.83866
 C    -0.81256     2.90247     0.81749
Cl    -2.26998     0.01056    -0.00088
Cl     0.01027     0.00992     2.26914
Cl     0.00298     0.01178    -2.26995
 N     0.00559    -2.17766    -0.00187
 C    -0.81857    -2.87910     0.82271
 C     0.83091    -2.87514    -0.82844
 C    -0.84004    -4.27673     0.84217
 C     0.85336    -4.27285    -0.85331
 C     0.00647    -4.98381    -0.00753
 H     0.03713     6.09451    -0.00251
 H     1.52499     2.31830    -1.48322
 H     1.56751     4.80418    -1.51264
 H    -1.50786     4.82364     1.50912
 H    -1.49203     2.33768     1.48357
 H    -1.49017    -2.31244     1.49583
 H     1.50268    -2.30527    -1.49893
 H    -1.51660    -4.79744     1.51847
 H     1.53044    -4.79027    -1.53167
 H     0.00652    -6.07469    -0.01001
