   21
 
Sn     0.00000     0.00000     0.00000
 O     2.00989     0.00000     0.00000
 C     2.74089     1.18972     0.00000
 O    -0.58501     1.48026     1.09661
 C    -1.84042     2.08028     1.07714
 O    -0.75064     0.22785    -1.76645
 C    -0.94518    -0.76909    -2.71760
 O    -0.58061    -1.71725     0.67112
 C     0.04575    -2.47706     1.65443
 H     2.59760     1.74449    -0.93626
 H     2.49782     1.82019     0.86513
 H    -1.74654     2.90559     1.80154
 H    -2.07652     2.48061     0.08196
 H     0.01676    -1.16468    -3.07002
 H    -1.46078    -0.24808    -3.54050
 H     1.08221    -2.71357     1.37828
 H     0.00665    -1.96704     2.62614
 H     3.78561     0.84669     0.07112
 H    -2.61591     1.37783     1.41011
 H    -1.58088    -1.57616    -2.32928
 H    -0.55306    -3.40142     1.69158
