   61
 
Ti     0.00000     0.00000     0.00000
 N     1.93256     0.00000     0.00000
 C     2.72727     1.24002     0.00000
 C     3.37650     1.57452    -1.35825
 C     2.77285    -1.20776     0.03518
 N    -0.47624     0.16024     1.88159
 C     3.16815    -1.72289    -1.36434
 C    -0.70818    -2.87987     0.01215
 C     0.15606    -3.91689    -0.73564
 N    -0.59710     1.63492    -0.83817
 C    -1.66212    -1.71302    -1.90359
 C    -3.16955    -1.65588    -1.57833
 C     0.39302     0.69824     2.93926
 N    -0.82587    -1.59481    -0.70105
 C     0.14699     2.19122     3.23662
 C    -1.77381    -0.30250     2.40210
 C    -2.86830     0.78463     2.39231
 C    -0.41298     1.75101    -2.29614
 C    -1.74606     1.81429    -3.07232
 C    -1.21659     2.82856    -0.25441
 C    -0.28813     4.06124    -0.27636
 H     3.52300     1.18896     0.78106
 H     2.07357     2.09913     0.29697
 H     3.74635     2.60334    -1.36732
 H     2.65369     1.47217    -2.17573
 H     4.21783     0.91036    -1.57451
 H     2.22452    -2.02188     0.57221
 H     3.69894    -1.03107     0.63053
 H     3.68838    -2.68130    -1.29203
 H     3.82431    -1.01668    -1.88072
 H     2.28578    -1.86353    -2.00070
 H    -1.71944    -3.31685     0.19408
 H    -0.26335    -2.71507     1.02578
 H     0.28948    -4.81781    -0.13119
 H     1.14966    -3.51354    -0.96317
 H    -0.29983    -4.21228    -1.68489
 H    -1.41267    -0.89079    -2.61674
 H    -1.44283    -2.65709    -2.45512
 H    -3.76832    -1.74047    -2.48842
 H    -3.43121    -0.71104    -1.08698
 H    -3.46102    -2.46348    -0.90055
 H     0.27296     0.11727     3.88450
 H     1.46345     0.56776     2.64518
 H     0.84450     2.55453     3.99558
 H    -0.87077     2.36357     3.59851
 H     0.28178     2.80239     2.33600
 H    -2.13821    -1.16734     1.79300
 H    -1.66588    -0.69556     3.44092
 H    -3.79309     0.40249     2.83315
 H    -3.09675     1.10746     1.36944
 H    -2.56029     1.66994     2.95582
 H     0.18730     0.88541    -2.67944
 H     0.19155     2.65834    -2.53872
 H    -1.58702     1.61347    -4.13495
 H    -2.21333     2.79893    -2.98079
 H    -2.46345     1.07636    -2.69283
 H    -2.17022     3.07625    -0.77565
 H    -1.49678     2.61138     0.80633
 H    -0.70558     4.87014     0.32890
 H    -0.14491     4.43752    -1.29313
 H     0.70107     3.81579     0.12617
