   37
 
Tl     0.00000     0.00000     0.00000
 S     2.61251     0.00000     0.00000
 S     1.00487     2.45919     0.00000
 C    -4.15308     0.64693     3.25541
 C    -0.61266    -1.83326    -2.37406
 C     5.01704     1.83945     0.04362
 C    -0.92765    -4.08889    -3.26233
 C     3.65541     3.92760     0.00329
 C    -1.13217    -2.09782    -4.74823
 N     3.68986     2.46161     0.02590
 N    -2.77607     0.16350     3.40242
 N    -0.87505    -2.63012    -3.40587
 S    -0.29836    -0.44979     2.56660
 S    -2.41180     0.65749     0.78641
 S    -0.31901    -2.47887    -0.78180
 S    -0.54831    -0.10148    -2.56057
 H    -2.06274    -1.32364     4.75347
 H    -1.52548     0.34932     5.11992
 H    -3.19961    -0.15193     5.47098
 H    -4.73151     0.51400     4.18337
 H    -4.68648     0.09378     2.45496
 H    -4.16868     1.72502     2.99700
 H     5.10093     1.09950     0.86689
 H     5.21932     1.31329    -0.91075
 H     5.81512     2.58272     0.19848
 H    -1.72169    -4.38907    -2.54859
 H    -1.13921    -4.58473    -4.22283
 H     0.03830    -4.48629    -2.88841
 H     3.14035     4.32458     0.90182
 H     3.11614     4.29922    -0.89208
 H     4.66935     4.35713    -0.01901
 H    -1.32665    -2.90282    -5.47441
 H    -0.26233    -1.51759    -5.11859
 H    -2.01654    -1.42822    -4.74721
 C     2.57547     1.73528     0.00958
 C    -1.93064     0.12896     2.37649
 C    -2.37509    -0.25927     4.74877
