   37
 
Tl     0.00000     0.00000     0.00000
 N     2.37629     0.00000     0.00000
 N     0.40768     2.19203     0.00000
 H     2.75877    -0.65575    -0.68775
 H     0.24204     2.58949    -0.93626
 H    -0.21590     2.69581     0.64722
 N    -2.24811     0.28404    -0.35057
 H    -2.76596    -0.53829    -0.01405
 H    -2.61663     1.09695     0.15924
 N    -0.12077    -0.33957    -2.27068
 H     0.25897     0.47142    -2.77530
 H     0.43231    -1.15613    -2.55898
 N    -0.29808    -0.09395     2.28503
 H     0.57232     0.17042     2.76381
 H    -1.02465     0.56077     2.59901
 N     0.04064    -2.29398     0.37586
 H    -0.83392    -2.72018     0.04712
 H     0.80781    -2.74292    -0.13717
 C     2.75838     1.40494    -0.32438
 H     3.83132     1.61123    -0.03006
 H     2.74015     1.56202    -1.43092
 C     1.83873     2.39208     0.40121
 H     1.93956     2.30608     1.51092
 H     2.16787     3.44902     0.16706
 C    -2.43583     0.45668    -1.82415
 H    -3.52033     0.30560    -2.10920
 H    -2.21569     1.51245    -2.11773
 C    -1.56604    -0.53743    -2.59852
 H    -1.74579    -0.40640    -3.70795
 H    -1.86436    -1.59431    -2.39037
 C    -0.67517    -1.50067     2.61982
 H    -0.56534    -1.69149     3.72952
 H    -1.76091    -1.66572     2.41388
 C     0.20275    -2.48940     1.84761
 H    -0.07305    -3.54576     2.14410
 H     1.27923    -2.39116     2.13121
 H     2.73254    -0.27656     0.92043
