  138
 
Tm     0.00000     0.00000     0.00000
 N     2.21046     0.00000     0.00000
 N    -1.02253     1.97983     0.00000
 N    -0.60499    -1.36569    -1.70986
Tm    -1.21641    -2.74590    -3.43757
 N    -0.92492    -2.28297    -0.92054
 O    -1.24341    -0.78413     1.84025
 O     0.52038    -1.26491    -5.14175
 N    -3.98678    -2.31705    -4.19535
 N     0.13577    -5.11881    -4.38617
Si     3.34787    -0.87652     1.19643
Si     3.37115     0.85475    -1.19868
Si    -0.68852     3.48659     1.04237
Si    -2.44754     2.50137    -1.10651
 C     4.53713    -2.16447     0.50483
 H     5.51507    -2.13240     1.01632
 H     4.73414    -2.04421    -0.57646
 H     4.12631    -3.18411     0.62428
 C     4.27885     0.26588     2.37818
 H     5.31512    -0.07660     2.54233
 H     3.78468     0.30867     3.36507
 H     4.33014     1.30803     2.01539
 C     2.25510    -1.89830     2.36232
 H     2.89940    -2.46481     3.06438
 H     1.65865    -2.64820     1.81599
 H     1.58868    -1.27579     2.97991
 C     4.80941     1.86490    -0.52222
 H     4.45300     2.64436     0.17712
 H     5.34913     2.37497    -1.34161
 H     5.56013     1.24581     0.00317
 C     4.08246    -0.29529    -2.51376
 H     3.27363    -0.82954    -3.04205
 H     4.75223    -1.06401    -2.08394
 H     4.67722     0.26329    -3.25665
 C     2.36109     2.13024    -2.15715
 H     1.90095     2.87751    -1.47972
 H     1.55222     1.67548    -2.74961
 H     3.00893     2.68844    -2.85763
 C     0.04287     4.94376     0.09018
 H    -0.39328     5.90437     0.41230
 H    -0.11788     4.85541    -0.99898
 H     1.13625     5.00712     0.23832
 C     0.65993     3.02742     2.28333
 H     0.85629     3.88519     2.95547
 H     1.62025     2.79327     1.78437
 H     0.38432     2.17699     2.92633
 C    -2.12748     4.06158     2.12633
 H    -2.19853     5.16352     2.14664
 H    -2.00426     3.72335     3.16944
 H    -3.10794     3.68414     1.78745
 C    -3.98408     1.57442    -0.54039
 H    -3.82080     0.48220    -0.53667
 H    -4.84156     1.76621    -1.21328
 H    -4.28253     1.87772     0.47844
 C    -2.96892     4.29250    -1.35331
 H    -3.24562     4.80500    -0.41334
 H    -3.86193     4.34147    -2.00653
 H    -2.17696     4.88880    -1.84348
 C    -2.04352     1.89953    -2.84786
 H    -1.85217     0.81685    -2.87493
 H    -1.15835     2.42747    -3.24493
 H    -2.89083     2.09766    -3.53289
 C    -1.99555     0.01952     2.80724
 H    -2.24881     0.94504     2.25570
 H    -1.29327     0.20266     3.63877
 C    -3.21093    -0.80620     3.18958
 H    -4.05802    -0.62877     2.49339
 H    -3.59216    -0.55612     4.19581
 C    -2.71937    -2.25572     3.09065
 H    -2.46300    -2.66819     4.08591
 H    -3.50409    -2.92531     2.68880
 C    -1.50026    -2.19476     2.17903
 H    -0.56304    -2.53254     2.65127
 H    -1.66928    -2.67886     1.19723
 C     1.32579    -1.79139    -6.21763
 H     1.48878    -2.85259    -5.94111
 H     0.71532    -1.69472    -7.13276
 C     2.59292    -0.94656    -6.22675
 H     3.36368    -1.35797    -5.54152
 H     3.06888    -0.90302    -7.22109
 C     2.11616     0.42925    -5.72788
 H     1.95824     1.13294    -6.56600
 H     2.87179     0.91104    -5.07810
 C     0.81232     0.13832    -4.98826
 H    -0.06526     0.66212    -5.40814
 H     0.88278     0.26784    -3.89236
Si    -4.54996    -1.10668    -5.39893
 C    -5.74052     0.24542    -4.82181
 H    -6.49850     0.47164    -5.58975
 H    -6.28259    -0.02822    -3.89967
 H    -5.19415     1.17751    -4.59583
 C    -5.22479    -1.83177    -7.01419
 H    -6.10276    -1.27109    -7.37519
 H    -4.46238    -1.80945    -7.81034
 H    -5.53093    -2.88637    -6.90144
 C    -2.99513    -0.15317    -5.93995
 H    -3.28848     0.63559    -6.65929
 H    -2.51431     0.36110    -5.09348
 H    -2.26572    -0.79236    -6.45748
Si    -5.37108    -3.22774    -3.48086
 C    -6.66274    -3.98249    -4.62951
 H    -6.18996    -4.65293    -5.36890
 H    -7.39902    -4.57508    -4.05811
 H    -7.23297    -3.21346    -5.18066
 C    -6.31994    -2.27864    -2.14900
 H    -5.63135    -1.91981    -1.36610
 H    -6.83863    -1.39564    -2.56187
 H    -7.08593    -2.91344    -1.67325
 C    -4.60044    -4.70325    -2.57550
 H    -4.03206    -5.35458    -3.26258
 H    -3.95035    -4.39337    -1.74350
 H    -5.39532    -5.33236    -2.13253
Si    -0.25874    -6.04069    -5.87808
 C    -0.98978    -7.76187    -5.58103
 H    -0.58364    -8.50471    -6.28669
 H    -0.78046    -8.12659    -4.56098
 H    -2.08710    -7.75450    -5.69638
 C    -1.63766    -5.06767    -6.73767
 H    -1.89502    -5.56089    -7.69520
 H    -2.56978    -5.04672    -6.14469
 H    -1.34603    -4.03685    -6.98695
 C     1.11671    -6.17828    -7.17559
 H     1.13697    -7.18334    -7.63001
 H     0.97171    -5.44845    -7.98848
 H     2.11871    -5.99288    -6.75493
Si     1.54299    -5.84800    -3.51569
 C     3.03206    -4.70280    -3.74494
 H     2.80556    -3.67657    -3.41546
 H     3.90070    -5.05235    -3.15939
 H     3.33571    -4.66141    -4.80483
 C     2.15501    -7.59748    -3.84471
 H     2.43761    -7.76157    -4.90034
 H     3.05331    -7.80961    -3.23591
 H     1.38987    -8.34961    -3.57955
 C     1.11505    -5.79223    -1.67306
 H     0.87139    -4.77706    -1.32387
 H     0.25513    -6.44818    -1.45153
 H     1.96677    -6.14160    -1.06234
