   40
 
 B     0.00000     0.00000     0.00000
 C     1.63908     0.00000     0.00000
 C     2.10274     1.46485     0.00000
 C     2.10543    -0.76207    -1.24995
 C     2.36698    -0.66454     1.18250
 C    -0.81997    -0.69492     1.23732
 C    -2.35877    -0.67013     1.19652
 C    -0.43217    -2.18110     1.27525
 C    -0.43181     0.04628     2.52598
 C    -0.81935     0.69349    -1.23867
 C    -0.00905     1.33393    -2.38033
 C    -1.67466     1.82796    -0.65398
 C    -1.66954    -0.40073    -1.90219
 H     3.19841     1.52531     0.00487
 H     1.74486     1.99888     0.88750
 H     1.77088     2.02625    -0.87975
 H     1.74764    -1.79782    -1.24498
 H     3.20122    -0.79756    -1.29674
 H     1.77574    -0.30329    -2.18802
 H     3.45457    -0.59032     1.05499
 H     2.13582    -1.73237     1.26956
 H     2.13269    -0.18625     2.14047
 H    -2.77481    -1.16978     2.08075
 H    -2.76299    -1.19515     0.32349
 H    -2.76126     0.34933     1.19691
 H     0.63673    -2.34820     1.44465
 H    -0.70244    -2.68975     0.34303
 H    -0.95454    -2.69787     2.09024
 H    -0.96128    -0.37432     3.39022
 H    -0.69315     1.10909     2.47168
 H     0.63564    -0.02023     2.76142
 H    -0.68091     1.75907    -3.13692
 H     0.62617     0.60821    -2.90101
 H     0.62749     2.15553    -2.03228
 H    -2.40954     1.48457     0.08166
 H    -2.24663     2.32976    -1.44467
 H    -1.05334     2.58983    -0.16983
 H    -2.23527     0.00728    -2.74933
 H    -2.40952    -0.84531    -1.22834
 H    -1.04553    -1.21343    -2.29072
