   25
 
Fe     0.00000     0.00000     0.00000
Cl     2.26378     0.00000     0.00000
Cl    -0.35877     2.04653     0.00000
Cl    -0.71045    -0.41172    -1.97286
 S     0.31480    -0.03718     2.56060
 S    -2.39118    -0.56748     0.81004
 S     0.32404    -2.35678     0.15564
 C    -1.26927    -0.45219     3.39197
 C    -2.45120    -0.01588     2.55352
 C    -2.42199    -2.40364     0.88545
 C    -1.37787    -3.01205    -0.02359
 C     0.75599    -2.74083     1.90316
 C     1.31023    -1.56816     2.68019
 H    -1.28294     0.07783     4.37041
 H    -1.31466    -1.52490     3.64874
 H    -3.40099    -0.34736     3.02029
 H    -2.53036     1.09762     2.50752
 H    -2.32690    -2.75593     1.92811
 H    -3.43655    -2.73253     0.56332
 H    -1.35141    -4.11540     0.10376
 H    -1.64766    -2.86964    -1.10365
 H     1.52779    -3.54696     1.85698
 H    -0.10793    -3.19957     2.41985
 H     1.45721    -1.84244     3.74478
 H     2.33735    -1.28629     2.32482
