   14
 
Hf     0.00000     0.00000     0.00000
 C     2.15701     0.00000     0.00000
 C    -0.77780     2.01145     0.00000
 C    -0.77155    -1.13671    -1.66268
Cl    -0.64838    -0.95594     1.79897
 H     2.53772     1.00737    -0.21124
 H     2.50209    -0.31692     0.99521
 H     2.53443    -0.70005    -0.75585
 H    -1.47664     2.14237    -0.83643
 H    -1.30567     2.18611     0.94811
 H     0.04522     2.73144    -0.09604
 H    -1.53069    -0.55894    -2.20367
 H     0.04712    -1.39871    -2.34574
 H    -1.22447    -2.05929    -1.27087
