   13
 
Sb     0.00000     0.00000     0.00000
 C     2.17351     0.00000     0.00000
 C    -0.22906     2.16194     0.00000
 C    -0.22866    -0.25816    -2.14650
 H     2.57190    -1.01231    -0.20202
 H     2.59776     0.67821    -0.76226
 H     2.57258     0.31745     0.98196
 H     0.40251     2.65281    -0.76248
 H    -1.27734     2.45090    -0.20430
 H     0.04285     2.59536     0.98077
 H    -1.27644    -0.08735    -2.45820
 H     0.40461     0.43809    -2.72551
 H     0.04046    -1.28474    -2.45865
