   13
 
 C     0.00000     0.00000     0.00000
Ga     1.97742     0.00000     0.00000
 C     2.95634     1.71800     0.00000
 C     2.96637    -1.71185     0.01712
 H    -0.37730     0.61015    -0.81746
 H    -0.39171    -1.00792    -0.11002
 H    -0.37069     0.41499     0.93487
 H     2.60338     2.35356    -0.80893
 H     2.79026     2.23874     0.94073
 H     4.02462     1.56017    -0.12366
 H     4.01931    -1.55799    -0.20456
 H     2.88402    -2.17432     0.99864
 H     2.55284    -2.39688    -0.71932
