   17
 
 B     0.00000     0.00000     0.00000
 C     1.65314     0.00000     0.00000
 H     1.99645     1.03578     0.00000
 H     2.04135    -0.48682     0.89101
 H     2.04099    -0.48840    -0.89025
 C    -0.57786     0.70227    -1.37972
 H    -0.15635     0.22866    -2.26283
 H    -1.66327     0.65938    -1.41343
 H    -0.27657     1.75135    -1.38155
 C    -0.58270     0.77833     1.33611
 H    -0.27088     1.82299     1.28980
 H    -1.66919     0.74908     1.35915
 H    -0.17931     0.34193     2.24643
 N    -0.51080    -1.54980     0.04270
 H    -0.15993    -2.00347     0.88056
 H    -0.16701    -2.04518    -0.77433
 H    -1.52570    -1.57791     0.04773
