   50
 
 V     0.00000     0.00000     0.00000
 V     3.70473     0.00000     0.00000
 O     0.75942     2.18319     0.00000
 C     5.61788     1.39318     0.31504
 C    -1.54969     1.35776    -1.03689
 C     5.71259     0.23677     1.14972
 C     5.76703    -0.92599     0.30094
 C     5.68090    -0.48158    -1.05943
 C     5.56252     0.94850    -1.04859
 C     2.31920     4.00690    -0.23753
 C     1.56628    -0.59557     3.82219
 C     1.36874     0.76823     3.10491
 C     2.17925    -1.56376     1.69637
 C     2.18201    -3.03733     1.15512
 C     1.83425    -0.95320    -2.18067
 C     2.05717    -2.24144    -2.98198
 C    -1.80873     1.33113     0.38686
 F     3.28421     4.18273    -1.13019
 F     1.13314    -3.17546    -2.77468
 F     3.22499    -2.82654    -2.72392
 F     2.05654    -2.03516    -4.29540
 F     2.76149     4.52298     0.90165
 F     1.29947     4.75831    -0.62647
 F     0.20559     0.85965     2.46261
 F     2.30195     1.06726     2.20661
 F     1.37307     1.78409     3.95976
 F     2.85073    -3.06761     0.00720
 F     0.96072    -3.48125     0.90302
 F     2.76125    -3.90704     1.96591
 O     2.94164     1.73193    -0.01444
 O     1.85786    -1.67528     3.07645
 O     1.42320    -0.69853     5.00175
 O     1.22843    -0.85348     1.04691
 O     3.39055    -1.00793     1.52387
 O     0.68232    -0.71981    -1.71088
 O     2.86709    -0.68432    -1.33235
 H    -2.59394    -0.32019     1.68845
 H    -2.48459    -1.82737    -0.54276
 H    -1.75048    -0.24316    -2.59122
 H    -1.37566     2.25033    -1.62164
 H     5.86689     0.23597     2.22166
 H     5.98649    -1.93584     0.63118
 H     5.82159    -1.09861    -1.94061
 H     5.59487     1.58873    -1.92034
 H     5.68009     2.42102     0.64253
 H    -1.90213     2.20686     1.01467
 C     1.93038     2.51071    -0.08163
 C    -2.18946    -0.00539     0.73662
 C    -1.77773     0.04652    -1.54667
 C    -2.14646    -0.80343    -0.45621
