   52
 
 V     0.00000     0.00000     0.00000
 O     1.59822     0.00000     0.00000
 O    -0.12860     2.02121     0.00000
 O    -0.28201     0.48564    -1.99240
 O    -0.38560    -1.66737    -0.49833
 O    -0.26959     0.10600     1.84646
 C    -0.69726     4.29046    -0.14830
 C    -0.52917     2.93151    -0.76514
 C    -0.78702     2.73929    -2.13263
 C    -0.60565     1.46995    -2.69369
 C    -0.79687     1.18597    -4.15691
 C    -0.63044    -2.95836    -0.89595
 C     0.81243     0.43144     2.69246
 H    -0.41466     4.27748     0.91615
 H    -1.74554     4.61580    -0.20476
 H    -0.07842     5.03795    -0.65924
 H    -1.10548     3.56782    -2.74187
 H    -0.66172     0.11629    -4.37835
 H    -0.06864     1.74258    -4.76257
 H    -1.80166     1.47742    -4.48778
 H    -1.69477    -3.18760    -0.73348
 H     0.01597    -3.62768    -0.30752
 H    -0.38252    -3.04723    -1.96508
 H     0.46082     0.38003     3.73689
 H     1.16532     1.45086     2.45147
 H     1.62354    -0.30126     2.52353
 V    -2.30358     0.43237     2.19421
 O    -3.89439     0.51498     2.22007
 O    -2.23321    -1.66997     2.16029
 C    -1.77303    -2.56583     2.90201
 C    -1.53706    -3.90856     2.26777
 H    -1.79105    -3.89011     1.19715
 H    -0.48162    -4.19968     2.35638
 H    -2.14393    -4.68403     2.75183
 C    -1.51545    -2.37639     4.27195
 C    -1.64211    -1.10553     4.83913
 O    -1.93288    -0.08075     4.17646
 O    -1.85907     2.09962     2.71604
 C    -1.52077     3.36880     3.11329
 H    -0.45915     3.54829     2.88517
 H    -2.16928     4.07928     2.57764
 H    -1.69565     3.45171     4.19745
 O    -2.08187     0.30187     0.18312
 C    -3.15409     0.11101    -0.69122
 H    -2.78261     0.15359    -1.72709
 H    -3.60406    -0.87653    -0.48587
 H    -3.89664     0.90863    -0.51264
 C    -1.43008    -0.89058     6.31324
 H    -1.56088     0.16739     6.58630
 H    -2.15407    -1.47573     6.89708
 H    -0.42296    -1.19946     6.61856
 H    -1.19468    -3.20702     4.87770
