   37
 
 V     0.00000     0.00000     0.00000
 C     2.19757     0.00000     0.00000
 C    -2.12645     0.69189     0.00000
 C    -0.10492    -2.13002     0.68736
 C    -0.13682    -1.27045     1.78341
 C     2.47413    -1.30396    -2.09737
 C    -1.08767    -3.27678     0.66878
 C    -0.08121     1.99569     0.80573
 C    -1.36181     1.45154     0.95554
 C    -1.77557     0.28758    -1.32829
 C    -0.60203     0.58912    -2.01839
 C    -2.06283     1.68546     2.27505
 C    -2.79672    -0.57746    -2.02924
 H     1.98752     0.13918     1.08707
 H     3.00476     0.65193    -0.31752
 H     0.62715    -2.83960    -1.19666
 H    -0.82918    -1.42306     2.60592
 H     0.69112    -0.59168     2.09414
 H     2.97182    -0.39745    -2.46674
 H     3.24248    -2.08318    -1.97383
 H     1.78042    -1.63692    -2.88127
 H    -1.92675    -3.11627     1.35883
 H    -0.57634    -4.20461     0.97020
 H    -1.51493    -3.43784    -0.33047
 H     0.38293     2.57907     1.59540
 H     0.44178     2.17690    -0.16802
 H    -3.13242     0.40323     0.33136
 H     0.07890     1.43907    -1.78547
 H    -0.42804     0.22901    -3.02806
 H    -2.84449     2.45023     2.14576
 H    -2.54465     0.77249     2.65115
 H    -1.37653     2.03746     3.05656
 H    -3.61063     0.05436    -2.41842
 H    -3.24098    -1.32040    -1.35274
 H    -2.36453    -1.12724    -2.87612
 C     1.77509    -1.07551    -0.77654
 C     0.74672    -2.03104    -0.45967
