   25
 
 W    -0.05067    -0.08303    -0.09888
 N     2.12122    -0.73393     0.60016
 N     0.72714     2.13297    -0.44185
 N    -0.83517    -2.29790     0.24050
 N     0.49707    -0.67223    -2.30483
 N    -2.21520     0.57593    -0.81449
 H    -2.81966    -0.21937    -0.95717
 H    -2.16769     1.08771    -1.68296
 H     1.07818     0.02755    -2.74998
 H    -0.33235    -0.78629    -2.87489
 H    -1.66839    -2.30414     0.80922
 H    -1.06521    -2.73551    -0.63938
 H     0.11442     2.80080     0.00221
 H     0.75981     2.36037    -1.42399
 H     2.22925    -1.73701     0.60771
 H     2.31311    -0.39923     1.53222
 N    -0.58043     0.46685     2.12186
 H     0.00167     1.22192     2.46475
 H    -0.44134    -0.32700     2.73633
 H     2.82723    -0.35339    -0.01184
 H     1.65368     2.26757    -0.06532
 H    -0.14685    -2.87609     0.69817
 H     1.00603    -1.54848    -2.33023
 H    -2.65568     1.17676    -0.13467
 H    -1.54520     0.75877     2.21926
