   19
 
 W     0.00000     0.00000     0.00000
 O     2.38082     0.00000     0.00000
 O    -0.79621     2.11267     0.00000
 O    -2.19127    -0.12327    -0.13869
 O    -0.02328    -0.35285    -2.08213
 O     0.54144     0.61105     2.02797
 O     0.77572    -2.05900     0.00007
 H     1.43184    -0.08250    -2.20577
 H     2.90799    -0.12709     0.73832
 H     0.40996    -2.80346     0.51266
 H     1.77048    -2.16339    -0.05775
 H    -2.70023     0.38282    -0.80560
 H    -2.74629    -0.84682     0.20766
 H     0.20976     0.16289     2.83319
 H     1.44931     0.96684     2.20433
 H    -1.20416     2.45612     0.82416
 H    -0.25777     2.84528    -0.38349
 H    -0.01012    -1.32393    -2.33974
 H     0.98492     0.28800    -2.83290
