   43
 
 Y     0.00000     0.00000     0.00000
 N     2.54328     0.00000     0.00000
 C     0.75377     2.28759     0.00000
 C     0.60322    -2.28969     2.67518
 C     2.68968     3.70539    -0.27531
 C     1.91190     4.81433     0.05938
 C     0.56140     4.65620     0.36201
 C    -0.01647     3.38241     0.33396
 C     2.95054     1.25618    -0.72877
 C     3.03126     0.05614     1.40592
 C     3.10527    -1.19454    -0.68285
 C    -0.53695    -2.39669     1.87921
 C    -1.34126    -1.21671     2.08112
 C    -0.65641    -0.42024     3.06347
 C     0.52685    -1.07131     3.40979
 C     0.51567    -2.36349    -2.64349
 C    -0.71217    -2.28133    -1.98819
 C    -1.27474    -0.97889    -2.24350
 C    -0.35392    -0.30193    -3.11718
 C     0.73650    -1.14092    -3.34219
 H     3.74122     3.83936    -0.51044
 H     2.36328     5.80384     0.08302
 H    -0.04034     5.52321     0.62019
 H    -1.07099     3.27471     0.57696
 H     2.80018     1.08875    -1.82368
 H     4.03146     1.46444    -0.58751
 H     4.12690     0.04657     1.49378
 H     2.66198     0.97993     1.89031
 H     2.63012    -0.80764     1.97385
 H     4.19896    -1.16928    -0.79537
 H     2.65809    -1.28877    -1.69481
 H     2.84391    -2.10600    -0.11654
 H     1.38493    -3.00996     2.76074
 H    -0.81175    -3.22643     1.26588
 H    -2.36947    -1.12173     1.81655
 H    -1.02696     0.48962     3.48074
 H     1.24305    -0.74119     4.12782
 H     1.16725    -3.20758    -2.66160
 H    -1.19345    -3.05797    -1.43578
 H    -2.29521    -0.70954    -2.09513
 H    -0.51367     0.66328    -3.54469
 H     1.57757    -0.93153    -3.96294
 C     2.10272     2.43962    -0.30612
