   62
 
 Y     0.00000     0.00000     0.00000
Cl     2.58781     0.00000     0.00000
 O     0.42487     2.37901     0.00000
 O    -0.18954    -2.23078     0.26301
 C    -1.07572     1.07325     2.18264
 C    -2.48416     0.75875     1.98525
 H    -3.15317     1.37824     1.41513
 C    -2.80437    -0.41654     2.62011
 H    -3.75556    -0.90099     2.64317
 C    -1.63306    -0.89323     3.31677
 C    -1.41590    -2.02013     4.10651
 H    -2.22663    -2.71404     4.30459
 C    -0.15324    -2.22519     4.64740
 H     0.03289    -3.09182     5.27524
 C     0.88989    -1.31599     4.40893
 H     1.86476    -1.50140     4.85447
 C     0.69342    -0.18584     3.62727
 H     1.50324     0.51658     3.45447
 C    -0.57061     0.03830     3.08054
 C    -0.57327     2.47914     2.21241
 H    -1.23200     3.09319     2.86515
 H     0.42492     2.51760     2.69753
 C    -0.50465     3.12216     0.82377
 H    -1.45001     3.00220     0.24556
 C     0.03743     4.55618     0.84364
 H    -0.56998     5.22130     0.20690
 H     0.00720     4.99558     1.85401
 C     1.48437     4.46181     0.31615
 H     2.20507     4.88881     1.03172
 H     1.60107     5.03979    -0.61589
 C     1.73037     2.96922     0.08693
 H     2.18782     2.71839    -0.88539
 H     2.27192     2.48962     0.92104
 C    -2.00634    -1.69109    -1.70055
 C    -0.98456    -1.18726    -2.53395
 H    -0.19742    -1.76311    -2.97615
 C    -1.17588     0.21404    -2.70872
 H    -0.60755     0.85211    -3.34257
 C    -2.40670     0.55902    -2.06894
 C    -3.09035     1.77922    -1.93671
 H    -2.69984     2.66805    -2.42037
 C    -4.26382     1.81046    -1.21479
 H    -4.81654     2.73955    -1.10671
 C    -4.78598     0.63985    -0.61424
 H    -5.72096     0.70947    -0.06568
 C    -4.13375    -0.57006    -0.72497
 H    -4.53919    -1.47012    -0.27424
 C    -2.93245    -0.63154    -1.44711
 C    -2.01355    -3.02419    -1.05936
 H    -3.03519    -3.45877    -1.05059
 H    -1.38661    -3.74197    -1.62638
 C    -1.50651    -2.87742     0.37730
 H    -2.09815    -2.13405     0.96839
 C    -1.26720    -4.18641     1.12353
 H    -1.73767    -4.15803     2.12531
 H    -1.71169    -5.05094     0.60286
 C     0.26064    -4.33583     1.24855
 H     0.65156    -5.03706     0.49007
 H     0.54670    -4.75157     2.23010
 C     0.80256    -2.92992     1.04571
 H     0.91105    -2.35870     1.99178
 H     1.71050    -2.86395     0.41684
