   19
 
 Y     0.00000     0.00000     0.00000
 N     2.32227     0.00000     0.00000
 C     3.47333     0.00125     0.00000
 S     5.09019     0.00297     0.00011
 N    -0.01802     1.16537    -2.20160
 C    -0.01926     1.70357    -3.24013
 S    -0.01858     2.45939    -4.68847
 N    -2.48901     0.00496     0.00286
 C    -3.65869     0.00742     0.00324
 S    -5.29262     0.01113     0.00360
 N    -0.01880    -1.17320     2.19744
 C    -0.02243    -1.72026     3.23114
 S    -0.02444    -2.48859     4.67284
 N    -0.01989     2.20042     1.16771
 C    -0.01840     3.23118     1.72058
 S    -0.01627     4.67076     2.49298
 N    -0.02516    -2.20010    -1.16780
 C    -0.02341    -3.23368    -1.71564
 S    -0.02007    -4.67823    -2.47862
