   25
 
 Y     0.00000     0.00000     0.00000
 O     2.22373     0.00000     0.00000
 O    -0.29767     2.26740     0.00000
 O     0.54930    -0.04783    -2.14372
 O     3.16544    -0.05516    -2.49570
 O    -0.46075    -2.12993     0.40494
 O    -3.05478    -2.61515     0.31263
 O    -2.21942    -0.12288    -0.15012
 O     0.22682     0.43507     2.22660
 H     2.75538    -0.01665    -0.85575
 H     2.84566     0.13390     0.73709
 H     0.29139     2.90850     0.45301
 H    -0.73503     2.77635    -0.71669
 H     1.51930    -0.05225    -2.45201
 H    -0.00541    -0.23490    -2.92137
 H     3.62186     0.71118    -2.90844
 H     3.63656    -0.84077    -2.85150
 H     0.13034    -2.90368     0.37453
 H    -1.41598    -2.48000     0.41028
 H    -3.55103    -2.87406     1.12078
 H    -3.45538    -3.15545    -0.40404
 H    -2.88612     0.58674    -0.13787
 H    -2.70704    -0.99530    -0.00517
 H    -0.23766     1.15080     2.71089
 H     0.46697    -0.23271     2.90504
