   61
 
Yb     0.00000     0.00000     0.00000
 O     2.25466     0.00000     0.00000
 O     0.29253     2.28455     0.00000
 O    -1.27465     0.24664    -1.93513
 O    -2.20232    -0.60450     0.47257
 O     0.27109    -2.27226    -0.47722
 O     0.77585    -0.13471     2.20469
 O     2.48689     3.49097     0.10967
 O     2.50474    -3.56705    -1.16380
 C     4.93536    -2.24210     0.83935
 C     4.62806    -1.14892     0.06437
 C     5.08983    -1.06708    -1.27520
 C     5.80799    -2.09938    -1.81910
 C     6.10573    -3.26020    -1.05153
 C     6.83775    -4.34776    -1.59929
 C     7.12238    -5.44673    -0.82943
 C     6.69143    -5.51112     0.52042
 C     5.98285    -4.47533     1.07152
 C     5.67056    -3.32704     0.29200
 C    -5.25468     1.07014     0.45141
 C    -4.77114    -0.12850     0.92212
 C    -5.22000    -0.64019     2.16775
 C    -6.11669     0.06984     2.92238
 C    -6.61475     1.32252     2.46773
 C    -7.54191     2.07888     3.23567
 C    -8.01556     3.27591     2.76400
 C    -7.58895     3.77384     1.50573
 C    -6.69505     3.06417     0.74756
 C    -6.18532     1.82107     1.21703
 S     3.64762     0.11911     0.70002
 S    -3.62047    -1.02778     0.01276
 O     3.30223    -0.19724     2.13013
 O    -3.63196    -0.42536    -1.43554
 O     4.17963     1.45145     0.43538
 O    -3.80658    -2.44651     0.08460
 H     4.62636    -2.30846     1.89321
 H     4.88714    -0.17083    -1.87272
 H     6.17620    -2.04172    -2.84636
 H     7.17555    -4.28788    -2.63527
 H     7.69098    -6.28545    -1.24150
 H     6.94217    -6.39549     1.11141
 H     5.65969    -4.50966     2.11291
 H    -4.95010     1.47378    -0.52356
 H    -4.86154    -1.61221     2.52298
 H    -6.46882    -0.31739     3.87999
 H    -7.86965     1.68788     4.19921
 H    -8.73070     3.86227     3.34611
 H    -7.98894     4.72675     1.15437
 H    -6.36654     3.43470    -0.22358
 H     2.79611    -4.35876    -0.70716
 H    -2.58728    -0.08694    -1.79546
 H    -0.28509     2.99471    -0.29636
 H     0.42792    -0.22304     3.08808
 H    -0.44231    -2.93311    -0.56503
 H     2.59136     3.96077     0.94643
 H     3.28716    -3.01354    -1.27603
 H    -1.23378     0.35632    -2.85695
 H     3.20461     2.77826     0.13810
 H     1.88454    -0.16652     2.35398
 H     1.11580    -2.77249    -0.72560
 H     1.27198     2.80236     0.06922
