   30
 
Zn     0.00000     0.00000     0.00000
 I     2.59524     0.00000     0.00000
 N    -0.61604     2.03424     0.00000
 C    -1.48487    -2.39999    -0.85804
 N    -0.64251    -0.36623    -1.99649
 N    -0.57644    -2.06757     0.27975
 N    -0.69529     0.09409     2.02482
 H    -2.03365    -3.03221     1.57953
 H    -0.45607    -2.67286     2.32156
 H    -2.13681    -1.05636     3.18007
 H    -2.65476    -0.60720     1.53383
 H    -1.97397     1.47812     3.11644
 H    -0.31578     2.04475     2.78771
 H    -1.90085     3.23501     1.28377
 H    -2.60608     1.70460     0.69743
 H    -1.47368    -2.09420    -3.02685
 H     0.15292    -2.32482    -2.32619
 H    -2.48321    -1.94066    -0.68658
 H    -1.65487    -3.49562    -0.95837
 H    -1.50180     0.13004    -2.22767
 H     0.21308     2.59106     0.24372
 H     0.08170    -0.04129    -2.64667
 H     0.28121    -2.64525     0.21593
 H     0.08534    -0.15992     2.65636
 H    -0.96185     2.39756    -0.88730
 C    -1.21881    -2.27584     1.60958
 C    -1.16883     1.47047     2.34930
 C    -1.66333     2.16937     1.06212
 C    -0.84007    -1.84430    -2.14722
 C    -1.77680    -0.93029     2.13463
