   19
 
Zn     0.00000     0.00000     0.00000
 O     2.08000     0.00000     0.00000
 O     0.37713     2.05371     0.00000
 O     0.35099     0.29016     2.02082
 O    -2.00408    -0.42989     0.35366
 O    -0.05097    -1.99424    -0.57080
 O    -0.74830     0.22891    -1.92594
 H     2.41758     0.90767    -0.18595
 H     2.52732    -0.56404    -0.66371
 H     0.40517     2.38689     0.92824
 H    -0.29682     2.61734    -0.43376
 H     1.30551     0.12845     2.21596
 H    -0.12183    -0.30226     2.64221
 H    -2.44081     0.04028     1.09354
 H    -2.53882    -0.18630    -0.43825
 H     0.61697    -2.59934    -0.18933
 H    -0.91555    -2.39889    -0.32505
 H    -0.28336     0.86027    -2.51249
 H    -0.70804    -0.62829    -2.41079
