   32
 
Zn     0.00000     0.00000     0.00000
 O     3.31487     0.00000     0.00000
 O     1.10957     1.55550     0.00000
 O    -0.91927     0.31612    -1.62527
 C    -0.73776     1.35773    -2.30005
 C    -1.99597    -1.39748     3.34808
 C    -0.99947    -1.32424     2.22467
 C    -0.02574    -2.32478     2.09197
 C     1.96228    -3.49423     1.08995
 C     0.95888    -2.37759     1.10469
 O    -1.14158    -0.32664     1.47793
 O     1.10976    -1.54179     0.17179
 H     2.31929     3.64436     0.34057
 H     1.41466     4.57453    -0.87303
 H     2.77965     3.55174    -1.36629
 H     0.15810     3.25375    -2.66261
 H    -0.93022     1.48020    -4.44511
 H    -2.21253     2.31839    -3.54960
 H    -2.21658     0.54686    -3.65570
 H    -2.59957    -2.31230     3.28201
 H    -1.49332    -1.39627     4.32442
 H    -2.68795    -0.54088     3.32898
 H    -0.03850    -3.12615     2.82472
 H     2.65406    -3.40698     0.23611
 H     2.57172    -3.48829     2.00486
 H     1.47055    -4.47314     1.02009
 H     2.71711     0.75010     0.07446
 H     2.69968    -0.74083    -0.01242
 C     1.91783     3.61859    -0.68494
 C     0.99829     2.44894    -0.88534
 C     0.13967     2.40562    -1.98412
 C    -1.56718     1.43039    -3.55157
