   37
 
Zn     0.00000     0.00000     0.00000
 N     2.21339     0.00000     0.00000
 N     0.38531     2.14767     0.00000
 N    -2.12716     0.24062     0.31637
 N    -0.24619     0.01547    -2.14825
 N    -0.02767    -2.14178    -0.30865
 C    -2.43797    -0.21938     1.70791
 C    -1.33047     0.27766     2.65594
 C    -0.64035    -1.36498    -2.57553
 C     0.18004    -2.39088    -1.77147
 C     1.80983     2.39770    -0.38377
 C     2.69911     1.37252     0.34082
 H     2.53775    -0.26561    -0.93031
 H     2.60335    -0.68260     0.64899
 H     0.75193     0.30549     2.59237
 H     0.12070    -1.19373     2.41415
 H    -2.39198     1.22056     0.20643
 H    -2.67995    -0.28743    -0.35979
 H     0.63802     0.27996    -2.58523
 H    -0.94024     0.69241    -2.46566
 H    -0.23884     2.65963    -0.62367
 H     0.21061     2.50287     0.94178
 H     0.67688    -2.64183     0.23360
 H    -0.93545    -2.50823    -0.01669
 H    -3.43223     0.14894     2.06068
 H    -2.50064    -1.33146     1.72037
 H    -1.31474     1.39055     2.69873
 H    -1.54082    -0.06746     3.69773
 H    -0.48300    -1.52819    -3.66976
 H    -1.73142    -1.50483    -2.39925
 H     1.26546    -2.30217    -2.00563
 H    -0.11512    -3.42712    -2.06787
 H     2.13937     3.43492    -0.13040
 H     1.91275     2.30380    -1.48869
 H     3.76857     1.52684     0.05650
 H     2.65286     1.51540     1.44438
 N    -0.00822    -0.21560     2.15413
