   25
 
Zn     0.00000     0.00000     0.00000
 I     2.62643     0.00000     0.00000
 I    -1.46450     2.18061     0.00000
 N    -0.63624    -1.15827    -1.59343
 C     0.20102    -2.02552    -2.21198
 C    -0.19078    -2.78858    -3.31589
 C    -1.48835    -2.65635    -3.80360
 C    -2.35654    -1.76827    -3.17247
 C    -1.89813    -1.03621    -2.07377
 N    -0.62746    -1.15438     1.60311
 C     0.21065    -2.03164     2.20648
 C    -0.17236    -2.79537     3.31306
 C    -1.46156    -2.65289     3.82012
 C    -2.33032    -1.75427     3.20488
 C    -1.88104    -1.02260     2.10215
 H     1.22470    -2.10969    -1.81329
 H     0.51722    -3.46906    -3.78633
 H    -1.81854    -3.23526    -4.66696
 H    -3.37639    -1.63457    -3.52952
 H    -2.56385    -0.32152    -1.56511
 H     1.22758    -2.12402     1.79295
 H     0.53594    -3.48430     3.77059
 H    -1.78485    -3.23227     4.68578
 H    -3.34367    -1.61257     3.57709
 H    -2.54751    -0.29996     1.60592
