   19
 
Zn     0.00000     0.00000     0.00000
 O     2.08516     0.00000     0.00000
 O     0.38940     2.04792     0.00000
 O     0.38794     0.31656    -2.01827
 O    -0.40991    -2.03956    -0.03965
 O    -0.40275    -0.34284     2.00999
 O    -2.08383     0.03209    -0.01682
 H     2.42031     0.90513     0.19916
 H     2.54421    -0.57746     0.64256
 H    -2.53851     0.64947    -0.62352
 H    -2.43920    -0.85476    -0.25586
 H     1.34488     0.16215    -2.19949
 H    -0.07768    -0.25953    -2.65810
 H    -1.35527    -0.16369     2.19075
 H     0.07738     0.19201     2.67394
 H     0.42995     2.37628    -0.92851
 H    -0.25660     2.63688     0.43921
 H    -0.49237    -2.37836     0.88211
 H     0.24387    -2.63224    -0.46113
