   21
 
 C     0.00000     0.00000     0.00000
 C     1.53632     0.00000     0.00000
 C     2.14347     1.38971     0.00000
Zn     4.09522     1.42038    -0.00786
 C     6.10039     1.45189    -0.01593
 C     6.68409     2.80965    -0.36057
 C     8.22184     2.77086    -0.34400
 H     8.65008     3.74505    -0.59377
 H     8.60298     2.04073    -1.06452
 H     8.59590     2.48154     0.64286
 H     6.33891     3.58162     0.35445
 H     6.34626     3.14217    -1.36146
 H     6.40305     1.12170     0.97940
 H     6.40241     0.68735    -0.73401
 H     1.83919     1.95947     0.88487
 H     1.83266     1.96210    -0.88099
 H     1.88282    -0.57345     0.88506
 H     1.88349    -0.57398    -0.88446
 H    -0.39883    -1.01748     0.00443
 H    -0.39246     0.51278    -0.88364
 H    -0.39256     0.52053     0.87908
