   25
 
Zr     0.00000     0.00000     0.00000
 N     2.58423     0.00000     0.00000
 N    -0.43596     2.54697     0.00000
 N    -2.05246     0.35546    -1.52932
 N     0.76223    -2.00669     1.45503
 N     0.67817    -1.87780    -1.62723
 H    -0.16799    -2.40004    -1.81169
 H     1.39123    -2.53817    -1.35136
 H     1.13314    -1.62355     2.31485
 H     1.40947    -2.70795     1.12414
 H    -2.43344    -0.56411    -1.70615
 H    -2.80908     0.94574    -1.21435
 H     0.04791     2.92593     0.80515
 H    -1.36534     2.94435    -0.01416
 H     3.11633    -0.85965    -0.02185
 H     2.85106     0.50336     0.83768
 N    -2.02769     0.41821     1.54890
 H    -1.64424     0.72524     2.43399
 H    -2.45197    -0.48842     1.69477
 H     2.87059     0.55714    -0.79608
 H     0.04878     2.87251    -0.82834
 H    -1.71392     0.72585    -2.40761
 H    -0.10813    -2.47278     1.67565
 H     0.97253    -1.44697    -2.49414
 H    -2.76282     1.06162     1.29139
