   47
 
Zr     0.00000     0.00000     0.00000
 P     2.64893     0.00000     0.00000
 P    -0.21082     3.06171     0.00000
 C    -0.50273    -1.73624     1.72799
 C     3.86885     1.18815    -0.83615
 C    -1.88469     3.62442    -0.60301
 C     0.01116     3.79590     1.69261
 C     1.02313     3.92341    -1.10139
 C     0.49415    -0.92622     2.33893
 C    -0.03553     0.38485     2.50266
 C    -1.38930     0.37928     2.02679
 C    -1.67622    -0.93690     1.56009
 C    -1.65052     0.17865    -1.82692
 C    -0.43553     0.58548    -2.46944
 C     0.43304    -0.53314    -2.51782
 C    -0.20750    -1.63164    -1.87882
 C    -1.51381    -1.19928    -1.47418
 H     4.19927    -1.95581    -0.45333
 H     4.57392    -1.19946     1.12844
 H     3.15451    -2.27086     0.96309
 H     4.60419     2.47389     2.28527
 H     3.40152     3.79473     1.88972
 H     2.90085     2.36292     2.92641
 H     4.47831     0.67821    -1.61386
 H     3.33817     2.02179    -1.34157
 H     4.57473     1.64052    -0.10618
 H    -2.07946     3.25785    -1.64194
 H    -2.00571     4.72816    -0.61739
 H    -2.70441     3.21088     0.03276
 H     1.03144     3.56307     2.09744
 H    -0.71523     3.36067     2.42479
 H    -0.10855     4.90015     1.72666
 H     1.00757     3.49725    -2.13504
 H     0.85797     5.01828    -1.19421
 H     2.06490     3.78251    -0.71981
 H    -0.43116    -2.79259     1.54381
 H     1.42770    -1.27893     2.74438
 H     0.45070     1.18474     3.02565
 H    -2.11183     1.15861     2.16725
 H    -2.64009    -1.29528     1.24778
 H    -2.55444     0.75203    -1.76666
 H    -0.27053     1.51628    -2.97465
 H     1.36969    -0.57719    -3.04697
 H     0.16497    -2.63807    -1.83491
 H    -2.29889    -1.83936    -1.11516
 C     3.74671    -1.48360     0.44440
 C     3.63461     2.88732     2.37303
